13605 36078
0 1 1320
0 5 860
0 6 849
1 0 1320
2 3 326
2 4 858
2 41 770
3 2 326
4 2 858
5 0 860
5 10 300
5 44 10603
6 0 849
6 9 280
6 13 176
7 8 559
8 7 559
8 11 308
8 19 373
9 6 280
9 14 183
9 46 1080
10 5 300
10 12 191
10 28 1058
11 8 308
12 10 191
13 6 176
13 16 367
13 20 151
14 15 117
14 9 183
14 18 50
15 14 117
16 13 367
16 17 24
16 32 254
17 16 24
18 14 50
18 22 494
18 37 299
19 8 373
19 20 272
19 32 302
20 13 151
20 21 89
20 19 272
21 20 89
22 18 494
22 25 19
22 27 140
23 24 29
24 23 29
24 25 125
24 60 421
25 22 19
25 26 61
25 24 125
25 27 130
26 25 61
27 22 140
27 25 130
27 36 105
28 10 1058
29 30 19
29 31 114
29 45 78
30 29 19
31 29 114
32 19 302
32 16 254
32 35 18
33 34 104
33 35 17
33 48 107
34 33 104
34 38 149
34 47 227
35 33 17
35 32 18
35 37 27
36 27 105
36 42 87
36 43 118
37 35 27
37 18 299
37 42 97
38 34 149
38 39 10
38 47 84
39 40 233
39 38 10
39 50 114
40 39 233
41 2 770
41 44 189
41 55 404
42 36 87
42 37 97
42 51 152
43 36 118
43 45 19
43 64 171
44 41 189
44 5 10603
44 91 2847
45 43 19
45 29 78
45 53 112
46 9 1080
46 60 192
46 98 1074
47 38 84
47 34 227
47 58 82
48 33 107
48 49 51
48 52 107
49 48 51
50 39 114
50 54 61
50 63 118
51 42 152
52 48 107
53 45 112
53 62 116
53 65 116
54 50 61
54 56 119
54 61 65
55 41 404
56 54 119
56 57 36
56 61 104
57 56 36
58 47 82
58 59 193
58 69 142
59 58 193
60 24 421
60 46 192
60 71 160
60 77 349
61 56 104
61 54 65
61 67 85
62 53 116
62 64 7
62 65 145
63 50 118
63 66 43
63 76 236
64 43 171
64 62 7
64 70 86
65 53 116
65 62 145
65 73 179
66 63 43
67 68 102
67 61 85
67 76 358
68 67 102
69 58 142
70 64 86
71 72 175
71 60 160
71 74 77
72 71 175
73 65 179
73 74 14
73 78 107
74 73 14
74 71 77
74 75 69
75 74 69
75 77 54
75 94 292
76 63 236
76 67 358
76 83 638
77 75 54
77 60 349
77 94 527
78 79 58
78 73 107
78 85 93
79 78 58
80 81 1051
80 82 384
80 91 192
81 80 1051
82 80 384
83 84 395
83 76 638
83 93 553
84 83 395
85 78 93
86 87 80
86 92 510
86 108 853
87 86 80
88 89 126
88 90 58
88 98 372
89 88 126
90 88 58
91 80 192
91 44 2847
91 97 282
92 86 510
92 96 220
92 96 231
93 83 553
93 95 78
93 99 332
94 75 292
94 77 527
94 95 22
95 93 78
95 94 22
95 103 190
96 92 220
96 92 231
96 107 864
97 91 282
97 104 451
97 126 755
98 46 1074
98 88 372
98 107 78
99 93 332
100 101 547
100 102 729
100 105 288
101 100 547
102 100 729
103 95 190
103 107 671
103 109 169
104 97 451
105 100 288
105 106 199
105 110 623
106 105 199
107 98 78
107 103 671
107 96 864
108 86 853
109 103 169
109 110 23
109 116 453
110 105 623
110 109 23
110 119 303
111 112 140
111 115 134
111 119 147
112 111 140
113 114 378
114 113 378
114 116 271
114 118 684
115 111 134
115 122 213
115 123 1267
116 109 453
116 117 186
116 114 271
117 116 186
118 114 684
119 111 147
119 110 303
119 122 115
120 121 1287
120 127 2415
120 139 2920
121 120 1287
122 115 213
122 119 115
122 128 643
123 115 1267
123 125 138
123 128 1611
124 125 188
125 124 188
125 123 138
125 132 1477
126 127 765
126 97 755
126 130 663
127 126 765
127 120 2415
128 122 643
128 123 1611
128 129 298
129 128 298
129 150 2124
130 126 663
130 131 209
130 193 2934
131 130 209
131 187 2481
132 125 1477
132 135 82
132 136 121
133 134 316
133 137 563
134 133 316
135 132 82
135 136 148
135 144 1749
136 132 121
136 135 148
136 150 1224
137 133 563
137 138 2374
137 143 518
138 137 2374
139 120 2920
139 159 1043
140 141 21
140 142 22
140 147 392
141 140 21
142 140 22
143 137 518
143 151 434
143 206 1108
144 135 1749
144 160 992
145 146 35
145 147 156
145 161 555
146 145 35
147 145 156
147 140 392
147 158 531
148 149 610
148 154 368
149 148 610
150 136 1224
150 129 2124
150 162 420
151 143 434
151 159 341
151 181 446
152 153 613
152 156 81
153 152 613
154 155 205
154 148 368
154 163 154
155 154 205
156 157 74
156 152 81
156 167 137
157 156 74
158 147 531
158 161 61
158 166 110
159 151 341
159 139 1043
159 196 430
160 144 992
161 145 555
161 158 61
161 171 137
162 150 420
162 180 313
162 204 488
163 154 154
163 164 858
163 165 7
163 167 25
164 163 858
165 163 7
165 168 52
165 185 176
166 158 110
166 170 41
167 163 25
167 156 137
167 185 142
168 169 95
168 165 52
168 175 30
169 168 95
170 166 41
170 172 126
170 182 73
171 161 137
171 172 3
171 189 172
172 171 3
172 170 126
172 186 94
173 174 155
174 173 155
174 177 105
174 191 119
175 168 30
175 184 128
175 195 211
176 177 139
177 176 139
177 174 105
177 178 106
177 190 112
178 179 1226
178 177 106
178 198 241
179 178 1226
180 162 313
180 192 93
180 209 656
181 151 446
182 170 73
182 183 161
182 186 122
183 182 161
184 175 128
185 167 142
185 165 176
185 188 37
186 172 94
186 182 122
186 194 71
187 131 2481
188 185 37
188 189 3
188 195 133
189 188 3
189 171 172
189 194 170
190 177 112
191 174 119
192 180 93
192 207 401
192 210 254
193 130 2934
193 196 109
193 197 251
194 189 170
194 186 71
194 202 163
195 175 211
195 188 133
195 205 171
196 159 430
196 193 109
196 199 14
197 193 251
197 199 134
197 200 40
197 230 2368
198 178 241
198 203 681
198 206 726
199 196 14
199 197 134
199 206 516
199 248 1945
200 197 40
200 201 53
200 211 112
201 200 53
202 194 163
202 203 38
202 205 194
203 202 38
203 198 681
203 252 2489
204 162 488
204 213 418
204 214 303
205 195 171
205 202 194
205 215 1239
206 198 726
206 143 1108
206 199 516
207 192 401
207 208 178
207 212 193
208 207 178
209 180 656
209 217 313
209 218 358
210 192 254
210 212 78
210 217 513
211 200 112
212 210 78
212 207 193
212 213 66
213 212 66
213 204 418
213 223 272
213 224 436
214 204 303
214 215 11
214 216 10
215 214 11
215 205 1239
215 228 608
216 214 10
216 223 408
216 229 614
217 209 313
217 210 513
217 224 152
218 209 358
219 220 525
220 219 525
221 222 8
222 221 8
223 213 272
223 216 408
223 225 188
223 232 595
224 217 152
224 213 436
224 226 263
225 223 188
225 226 259
225 227 252
226 224 263
226 225 259
226 233 536
227 225 252
228 215 608
228 229 14
228 234 519
229 216 614
229 228 14
229 232 386
229 235 518
230 197 2368
230 231 230
230 262 1430
231 230 230
232 223 595
232 229 386
232 233 319
233 226 536
233 232 319
233 238 535
234 228 519
234 235 13
234 242 463
235 229 518
235 234 13
235 236 97
235 238 651
236 235 97
236 237 204
236 244 364
237 236 204
237 239 178
237 240 136
238 233 535
238 235 651
238 254 453
239 237 178
239 241 81
239 247 215
240 237 136
240 241 98
240 245 225
241 240 98
241 239 81
241 246 198
242 234 463
242 243 689
242 244 16
242 339 1323
243 242 689
244 236 364
244 242 16
244 245 129
244 266 488
245 240 225
245 244 129
245 250 184
246 241 198
246 247 89
246 250 63
247 239 215
247 246 89
247 251 43
248 199 1945
248 249 353
248 252 145
248 253 68
249 248 353
249 258 83
250 246 63
250 245 184
250 254 398
251 247 43
252 203 2489
252 248 145
252 265 428
253 248 68
253 283 27
254 238 453
254 250 398
254 261 188
255 256 176
255 263 93
255 263 652
256 255 176
257 258 1002
257 269 65
258 257 1002
258 249 83
259 260 127
259 267 113
259 280 507
260 259 127
260 267 91
260 285 684
261 254 188
261 264 47
261 272 57
262 230 1430
262 269 1429
262 284 354
263 255 93
263 255 652
263 268 85
264 261 47
264 273 442
264 273 226
265 252 428
265 275 63
266 244 488
266 278 772
266 339 837
267 260 91
267 259 113
267 277 261
268 263 85
268 270 131
268 274 64
269 262 1429
269 257 65
270 271 911
270 268 131
270 274 72
271 270 911
271 290 813
272 261 57
272 278 279
272 281 290
273 264 442
273 264 226
274 270 72
274 268 64
274 301 649
275 276 169
275 265 63
276 275 169
276 279 793
276 321 1018
276 483 1682
277 267 261
277 280 483
277 296 284
278 272 279
278 266 772
278 281 124
278 316 386
279 276 793
279 282 35
279 869 4160
280 277 483
280 259 507
280 298 357
280 330 486
281 272 290
281 278 124
281 320 397
282 279 35
282 283 693
282 417 964
282 870 4164
283 282 693
283 253 27
284 262 354
284 286 76
284 287 60
285 260 684
285 289 104
285 296 365
286 284 76
286 287 41
286 288 21
287 284 60
287 286 41
287 293 156
288 286 21
288 309 45
289 285 104
289 304 546
289 307 287
290 271 813
290 291 40
290 294 581
291 290 40
291 292 179
291 323 240
292 291 179
292 297 309
292 317 419
293 287 156
293 351 35
294 295 1737
294 290 581
294 303 75
295 294 1737
296 277 284
296 285 365
296 334 209
297 292 309
297 299 177
297 317 104
298 280 357
298 314 92
298 333 234
299 297 177
299 300 31
299 313 146
300 299 31
300 301 59
300 312 96
301 300 59
301 302 121
301 274 649
301 305 86
301 312 49
302 301 121
303 294 75
303 306 28
303 344 287
304 289 546
304 331 303
304 337 235
305 301 86
305 340 395
306 303 28
306 315 185
306 372 327
307 289 287
307 335 145
307 419 555
308 309 559
308 327 191
308 352 188
309 308 559
309 288 45
310 311 29
310 314 148
310 400 472
311 310 29
311 379 328
311 399 429
312 300 96
312 301 49
312 313 14
313 299 146
313 312 14
313 364 266
314 298 92
314 310 148
314 338 120
315 306 185
315 322 155
315 350 150
316 278 386
316 318 301
316 353 157
317 292 419
317 297 104
317 416 538
318 316 301
318 320 142
318 359 194
319 320 272
320 319 272
320 281 397
320 318 142
320 367 270
321 276 1018
321 342 49
322 315 155
322 329 260
322 349 120
323 291 240
323 326 171
323 347 82
324 325 277
324 336 505
324 348 91
325 324 277
325 328 122
325 336 139
326 323 171
327 308 191
328 325 122
329 322 260
330 280 486
330 332 144
330 333 63
330 434 553
331 304 303
331 337 121
331 341 40
332 330 144
332 334 206
332 358 132
333 330 63
333 298 234
333 338 94
334 296 209
334 332 206
334 358 172
335 307 145
335 370 174
335 374 174
336 325 139
336 324 505
336 343 14
337 304 235
337 331 121
337 360 98
338 333 94
338 314 120
338 403 281
339 266 837
339 242 1323
339 342 707
339 396 901
339 532 809
340 341 159
340 305 395
341 340 159
341 331 40
341 380 378
342 339 707
342 321 49
343 336 14
343 355 291
343 413 339
344 303 287
344 361 212
344 373 150
345 346 114
345 357 135
345 382 186
346 345 114
347 323 82
347 354 129
347 369 166
348 324 91
348 366 127
348 371 216
349 322 120
350 315 150
351 352 550
351 293 35
352 351 550
352 308 188
352 382 347
353 316 157
353 359 337
353 396 211
354 347 129
354 393 237
355 356 90
355 343 291
355 477 1222
356 355 90
357 345 135
357 365 51
357 368 147
358 332 132
358 334 172
358 419 273
359 318 194
359 353 337
359 367 288
360 337 98
360 435 441
360 606 1331
361 344 212
361 378 168
361 408 238
362 363 253
362 431 323
362 438 671
363 362 253
364 313 266
364 380 171
365 357 51
365 375 47
365 385 98
366 348 127
366 414 450
367 320 270
367 359 288
367 423 275
368 357 147
368 389 187
368 407 185
369 347 166
369 393 160
370 335 174
370 374 43
370 410 168
371 348 216
371 391 216
371 607 1027
372 306 327
372 373 220
372 404 222
373 344 150
373 372 220
373 408 172
374 370 43
374 335 174
374 411 158
375 365 47
375 376 26
375 385 50
376 375 26
376 383 45
376 383 70
376 383 70
377 378 260
378 377 260
378 361 168
378 406 277
378 422 192
379 311 328
379 381 340
379 399 189
380 341 378
380 364 171
381 379 340
382 352 347
382 345 186
382 394 140
382 425 296
383 376 45
383 376 70
383 384 7
383 376 70
384 383 7
385 365 98
385 375 50
385 390 19
386 387 46
386 388 29
386 768 2000
387 386 46
387 412 471
387 456 448
388 386 29
388 392 66
389 368 187
389 412 266
389 420 149
390 385 19
390 394 24
390 395 133
391 371 216
391 392 155
391 424 186
392 391 155
392 388 66
393 369 160
393 354 237
394 382 140
394 390 24
394 397 47
394 398 22
395 390 133
396 353 211
396 339 901
396 423 814
396 579 723
397 394 47
397 407 94
397 430 174
398 394 22
398 405 38
398 405 37
399 311 429
399 400 9
399 379 189
400 310 472
400 399 9
400 403 214
401 402 131
401 404 272
401 476 374
402 401 131
403 338 281
403 400 214
403 434 158
404 372 222
404 401 272
404 497 406
405 398 38
405 398 37
406 378 277
406 415 324
406 440 180
407 397 94
407 368 185
407 420 218
408 361 238
408 373 172
408 422 250
408 428 122
409 410 29
409 446 190
409 449 329
410 409 29
410 370 168
410 411 66
410 418 38
411 410 66
411 374 158
411 421 39
411 454 288
412 389 266
412 387 471
412 420 288
412 577 695
413 414 25
413 343 339
413 415 108
413 473 431
414 413 25
414 366 450
415 413 108
415 406 324
415 445 192
416 317 538
416 429 94
416 443 164
417 282 964
417 592 817
417 592 1235
418 410 38
418 447 26
419 307 555
419 358 273
419 450 403
420 389 149
420 412 288
420 407 218
421 411 39
421 472 26
422 378 192
422 408 250
422 448 115
423 367 275
423 396 814
423 546 518
424 391 186
425 382 296
425 426 49
425 432 40
426 427 533
426 425 49
426 433 32
427 426 533
428 408 122
428 448 281
428 497 679
429 416 94
429 436 38
429 443 123
430 397 174
430 439 36
430 455 343
431 362 323
431 516 745
431 666 1043
432 425 40
432 433 8
432 478 264
433 426 32
433 432 8
433 475 181
434 330 553
434 403 158
434 450 61
435 360 441
435 438 10
435 444 52
436 437 243
436 429 38
436 451 78
437 436 243
438 435 10
438 444 49
438 362 671
439 430 36
439 452 56
439 455 99
440 406 180
440 441 97
440 442 62
440 459 77
441 440 97
441 448 150
441 460 80
442 440 62
442 445 199
442 457 73
443 429 123
443 416 164
443 467 138
444 435 52
444 438 49
444 507 299
445 415 192
445 442 199
445 453 62
446 409 190
446 447 101
446 464 120
447 446 101
447 418 26
448 441 150
448 422 115
448 428 281
448 461 79
448 525 384
449 409 329
449 462 165
449 511 261
450 419 403
450 434 61
450 480 249
450 530 462
451 436 78
451 468 177
451 476 231
452 439 56
453 445 62
454 411 288
454 458 17
454 504 276
455 439 99
455 430 343
455 482 108
456 387 448
456 470 425
456 610 771
457 442 73
457 459 75
457 465 55
458 454 17
458 492 94
459 457 75
459 440 77
459 460 111
459 466 56
460 459 111
460 441 80
460 461 80
460 479 86
461 460 80
461 448 79
461 479 95
462 449 165
462 463 117
462 486 71
463 462 117
463 464 64
463 469 17
464 463 64
464 446 120
464 471 104
464 489 49
465 457 55
465 466 76
465 481 100
465 485 40
466 465 76
466 459 56
466 479 142
466 490 52
467 443 138
467 468 76
467 535 344
468 451 177
468 467 76
468 535 427
469 463 17
469 488 20
470 456 425
471 464 104
471 472 232
471 491 156
471 494 49
472 471 232
472 421 26
473 413 431
473 481 31
473 749 1692
474 475 329
475 474 329
475 433 181
475 478 201
476 401 374
476 451 231
476 523 322
477 355 1222
478 475 201
478 432 264
478 482 135
478 564 430
479 466 142
479 460 86
479 461 95
479 500 92
479 545 268
480 450 249
480 503 92
480 524 274
481 473 31
481 465 100
481 496 61
482 478 135
482 455 108
482 484 165
483 276 1682
483 532 523
483 658 667
484 482 165
485 465 40
485 490 77
485 496 50
486 462 71
486 487 92
486 498 130
487 486 92
487 488 13
487 489 63
488 487 13
488 469 20
489 487 63
489 464 49
489 499 37
490 485 77
490 466 52
490 500 77
490 519 109
491 471 156
491 492 34
491 493 8
492 491 34
492 458 94
493 491 8
493 495 14
493 504 171
494 471 49
494 502 37
494 505 159
495 493 14
495 506 20
496 481 61
496 485 50
496 519 134
497 404 406
497 428 679
497 523 118
498 486 130
498 499 63
498 501 15
499 498 63
499 489 37
499 514 54
500 490 77
500 479 92
500 519 113
500 547 234
501 498 15
501 513 21
502 494 37
502 515 158
502 517 49
503 480 92
503 521 97
503 682 916
504 493 171
504 454 276
504 520 65
505 494 159
505 506 13
505 510 62
506 505 13
506 495 20
507 444 299
507 516 47
507 606 787
508 509 15
508 511 158
508 533 82
509 508 15
509 512 61
509 531 72
510 505 62
510 515 63
510 520 119
511 449 261
511 508 158
511 553 149
512 509 61
512 513 17
512 514 64
513 512 17
513 501 21
514 512 64
514 499 54
514 517 84
514 537 95
515 502 158
515 510 63
515 518 17
516 507 47
516 431 745
516 522 37
517 514 84
517 502 49
517 526 158
517 549 129
518 515 17
518 527 21
519 496 134
519 490 109
519 500 113
519 548 214
519 626 405
520 510 119
520 504 65
520 530 121
520 538 70
521 503 97
521 528 27
521 539 207
522 516 37
522 529 363
522 582 510
523 497 118
523 476 322
523 562 334
524 480 274
524 534 134
524 539 65
525 448 384
526 517 158
526 527 12
526 538 170
527 526 12
527 518 21
528 521 27
528 542 67
528 544 212
529 522 363
529 540 197
529 582 277
530 520 121
530 450 462
530 536 44
531 509 72
531 533 20
531 537 133
532 339 809
532 483 523
532 579 854
532 664 498
533 508 82
533 531 20
533 554 70
534 524 134
535 467 344
535 468 427
536 530 44
536 556 132
536 594 256
537 531 133
537 514 95
537 593 188
538 526 170
538 520 70
538 555 321
538 608 312
539 524 65
539 521 207
539 544 27
539 559 199
540 541 36
540 529 197
540 551 53
540 603 212
540 603 406
541 540 36
542 528 67
543 557 33
544 539 27
544 528 212
544 558 39
544 560 143
545 479 268
545 547 42
545 550 156
546 423 518
546 579 943
547 500 234
547 545 42
547 548 50
548 519 214
548 547 50
548 578 152
548 626 609
549 517 129
549 555 48
549 596 166
550 545 156
550 562 345
550 590 242
551 540 53
551 552 55
551 591 139
552 551 55
553 511 149
553 554 168
553 572 63
554 553 168
554 533 70
554 568 60
555 549 48
555 538 321
555 596 191
556 536 132
556 557 29
556 576 77
557 556 29
557 543 33
557 559 53
558 544 39
558 565 24
558 575 151
559 557 53
559 539 199
559 561 10
560 544 143
560 561 63
560 566 29
561 559 10
561 560 63
561 563 57
562 550 345
562 523 334
562 590 167
563 561 57
563 574 29
563 576 57
564 478 430
565 558 24
565 567 48
565 580 50
566 560 29
566 574 116
566 575 11
567 565 48
567 581 109
567 587 117
568 554 60
568 569 40
568 583 53
569 568 40
569 571 15
570 571 74
570 573 16
571 570 74
571 569 15
572 553 63
572 573 25
572 588 53
573 572 25
573 570 16
574 563 29
574 566 116
574 597 99
575 566 11
575 558 151
575 581 27
576 556 77
576 563 57
576 598 91
577 412 695
578 548 152
578 636 320
578 648 274
579 396 723
579 532 854
579 546 943
579 676 415
580 565 50
581 575 27
581 567 109
581 587 20
582 529 277
582 603 78
582 522 510
583 568 53
583 584 31
583 602 55
584 583 31
584 586 15
585 586 74
585 589 15
586 585 74
586 584 15
587 581 20
587 567 117
587 597 95
588 572 53
588 589 27
588 604 53
589 588 27
589 585 15
590 550 242
590 562 167
590 636 198
590 663 358
591 551 139
592 417 817
592 417 1235
592 884 3327
593 537 188
593 596 72
593 601 32
594 536 256
594 595 70
594 605 58
595 594 70
595 599 60
595 622 104
596 593 72
596 549 166
596 555 191
596 608 227
596 625 149
597 574 99
597 587 95
597 609 58
598 576 91
598 619 115
598 620 88
599 595 60
599 600 62
599 621 86
600 599 62
601 593 32
601 602 111
601 611 54
602 583 55
602 601 111
602 604 152
603 540 212
603 582 78
603 540 406
604 588 53
604 602 152
604 617 54
605 594 58
605 624 78
605 650 225
606 360 1331
606 507 787
606 670 497
607 371 1027
608 596 227
608 538 312
608 641 156
609 597 58
610 456 771
611 601 54
611 612 32
611 625 61
612 611 32
612 614 16
613 614 55
613 616 16
614 613 55
614 612 16
615 616 53
615 618 15
616 615 53
616 613 16
617 604 54
617 618 56
617 633 57
618 617 56
618 615 15
619 598 115
619 623 45
619 638 69
620 598 88
620 621 72
620 623 75
620 639 83
621 599 86
621 620 72
621 622 62
621 628 31
622 595 104
622 621 62
622 635 37
623 620 75
623 619 45
623 643 70
624 605 78
624 635 94
624 637 37
625 611 61
625 596 149
625 627 52
625 640 48
626 519 405
626 548 609
626 778 1042
627 625 52
627 630 16
628 621 31
628 635 88
628 639 33
629 630 55
629 632 16
630 629 55
630 627 16
631 632 54
631 634 15
632 631 54
632 629 16
633 617 57
633 634 66
633 640 297
634 633 66
634 631 15
635 624 94
635 622 37
635 628 88
635 642 41
636 578 320
636 590 198
636 661 97
637 624 37
637 642 78
637 646 34
637 652 111
638 619 69
639 628 33
639 620 83
639 644 26
639 649 104
640 633 297
640 625 48
640 641 192
641 640 192
641 608 156
641 650 35
642 637 78
642 635 41
642 649 31
643 623 70
643 644 99
643 645 40
644 639 26
644 643 99
644 655 43
644 662 133
645 643 40
646 637 34
646 654 65
646 660 91
647 648 64
648 647 64
648 578 274
648 661 211
648 732 721
649 642 31
649 639 104
649 654 30
650 641 35
650 605 225
650 651 403
650 705 489
651 650 403
651 679 299
651 679 310
652 637 111
653 668 133
654 646 65
654 649 30
654 662 43
655 644 43
655 656 80
655 657 19
655 665 136
656 655 80
657 655 19
658 483 667
658 659 347
658 664 648
658 702 366
659 658 347
659 673 598
659 701 367
660 646 91
661 648 211
661 636 97
661 675 103
662 654 43
662 644 133
662 665 42
663 590 358
663 671 84
663 683 161
664 532 498
664 658 648
664 672 413
664 704 370
665 662 42
665 655 136
665 667 23
666 431 1043
666 674 50
666 692 232
667 665 23
668 653 133
668 669 274
668 678 81
669 668 274
670 606 497
670 697 336
670 692 1110
671 663 84
671 677 69
671 685 140
672 664 413
672 676 406
672 704 722
673 659 598
674 666 50
675 661 103
675 683 286
675 732 606
676 579 415
676 672 406
676 678 512
677 671 69
677 690 134
678 668 81
678 676 512
678 735 1050
679 651 299
679 651 310
679 692 206
680 681 17
681 680 17
681 686 61
681 696 200
682 503 916
682 684 38
682 708 579
683 675 286
683 663 161
683 685 82
683 689 60
684 682 38
684 699 219
684 699 242
685 683 82
685 671 140
685 690 128
685 691 59
686 681 61
686 693 54
686 696 141
687 688 22
688 687 22
689 683 60
690 685 128
690 677 134
690 710 251
691 685 59
692 666 232
692 679 206
692 670 1110
693 686 54
693 698 141
693 709 215
694 695 111
695 694 111
695 735 397
696 681 200
696 686 141
696 698 52
697 670 336
698 696 52
698 693 141
698 718 216
699 700 14
699 684 219
699 684 242
700 699 14
700 703 1014
700 706 109
700 706 1220
701 659 367
701 702 347
701 738 329
702 658 366
702 701 347
702 704 692
702 742 331
703 700 1014
704 664 370
704 702 692
704 672 722
704 745 327
705 650 489
705 775 725
705 828 1166
706 700 109
706 707 36
706 700 1220
707 706 36
707 779 601
707 13260 601
708 682 579
708 723 345
708 724 131
709 693 215
709 711 25
709 789 883
710 690 251
710 714 57
710 727 390
711 712 33
711 709 25
711 713 24
712 711 33
712 13259 155
713 711 24
713 718 93
713 733 218
714 710 57
714 734 177
714 756 409
715 716 262
715 721 83
715 721 329
716 715 262
716 717 74
716 728 103
716 744 418
717 716 74
717 722 183
717 722 201
718 698 216
718 713 93
718 733 127
719 720 939
720 719 939
720 746 457
720 753 261
721 715 83
721 715 329
721 728 219
722 717 183
722 717 201
722 724 59
723 708 345
724 722 59
724 708 131
724 747 164
725 726 81
726 725 81
727 710 390
727 734 73
727 754 194
728 721 219
728 716 103
728 731 77
728 739 66
729 730 20
729 736 145
729 737 65
730 729 20
731 728 77
732 648 721
732 675 606
732 752 274
733 718 127
733 713 218
733 793 410
734 714 177
734 727 73
734 754 193
734 756 193
735 695 397
735 678 1050
735 763 672
735 777 399
736 729 145
736 737 151
736 844 1745
737 729 65
737 736 151
737 759 528
738 701 329
738 742 348
738 795 345
739 728 66
739 740 88
739 744 58
740 741 39
740 739 88
740 744 180
741 740 39
742 702 331
742 738 348
742 743 329
742 869 1225
743 742 329
744 739 58
744 716 418
744 740 180
744 755 74
745 704 327
745 763 1483
745 797 318
746 720 457
746 757 120
746 783 253
747 748 72
747 724 164
747 759 74
748 747 72
748 750 52
748 762 148
749 473 1692
749 751 17
749 934 2198
750 748 52
750 755 118
750 762 124
751 749 17
751 769 84
752 732 274
752 778 295
752 848 1250
753 720 261
753 783 447
753 796 285
754 734 193
754 727 194
754 771 1183
755 744 74
755 750 118
755 758 58
756 734 193
756 714 409
756 767 94
757 746 120
757 764 110
757 802 362
758 755 58
758 773 102
758 773 400
758 13261 400
759 747 74
759 737 528
759 770 96
760 761 104
760 766 216
760 772 82
761 760 104
762 750 124
762 748 148
762 773 94
763 745 1483
763 735 672
763 878 1579
764 765 775
764 757 110
764 802 528
765 764 775
766 760 216
766 767 8
766 772 262
767 766 8
767 756 94
767 794 442
768 386 2000
768 769 181
768 782 259
768 858 882
769 768 181
769 751 84
770 759 96
770 776 105
770 882 3391
771 754 1183
771 906 2448
772 760 82
772 766 262
772 774 17
773 758 102
773 762 94
773 758 400
773 13261 400
774 772 17
775 705 725
775 792 1087
775 828 1017
776 770 105
776 784 210
776 824 621
777 735 399
777 788 63
778 626 1042
778 752 295
778 781 251
779 780 116
779 707 601
779 13260 601
779 790 65
780 779 116
781 778 251
781 800 677
781 836 819
782 768 259
782 884 2320
783 746 253
783 753 447
783 801 166
784 776 210
784 791 82
785 786 892
786 785 892
786 787 158
786 798 112
787 786 158
788 789 120
788 777 63
789 788 120
789 793 42
789 709 883
790 779 65
790 791 34
790 792 146
791 790 34
791 784 82
792 775 1087
792 790 146
792 863 1990
793 733 410
793 789 42
793 796 32
793 1283 6289
794 767 442
795 738 345
796 753 285
796 793 32
796 801 475
797 745 318
797 879 951
798 799 642
798 786 112
798 809 256
798 810 220
799 798 642
800 781 677
801 783 166
801 796 475
801 802 131
802 757 362
802 801 131
802 764 528
803 804 1077
803 805 3673
803 901 1248
804 803 1077
805 803 3673
806 807 20
807 806 20
807 808 4
807 809 56
808 807 4
809 798 256
809 807 56
809 812 57
810 811 182
810 798 220
810 812 219
810 821 181
811 810 182
812 810 219
812 809 57
812 815 49
813 814 24
814 813 24
814 816 26
814 819 114
815 812 49
815 819 46
815 821 225
816 814 26
817 818 99
817 818 138
817 890 1337
818 817 99
818 817 138
818 820 417
819 815 46
819 814 114
819 831 209
820 818 417
821 810 181
821 815 225
821 830 190
821 831 185
822 823 46
823 822 46
824 776 621
824 827 38
824 843 170
825 826 25
826 825 25
827 824 38
827 829 23
827 837 67
828 705 1166
828 775 1017
828 915 1016
829 827 23
829 832 33
829 832 27
830 821 190
831 821 185
831 819 209
831 854 313
831 856 179
832 829 33
832 829 27
832 835 18
833 834 42
834 833 42
835 832 18
835 838 22
835 839 44
836 781 819
837 827 67
837 838 26
837 847 78
838 837 26
838 835 22
838 840 33
839 835 44
839 840 12
839 843 32
840 839 12
840 838 33
841 842 10
842 841 10
843 839 32
843 824 170
843 847 82
843 851 79
844 736 1745
844 882 419
844 1017 4643
845 846 14
846 845 14
847 837 78
847 843 82
847 860 78
848 752 1250
849 850 39
849 851 97
850 849 39
850 859 117
851 843 79
851 849 97
851 859 34
851 860 85
852 853 17
853 852 17
854 831 313
854 855 242
854 856 333
854 876 331
855 854 242
856 857 127
856 831 179
856 854 333
857 856 127
858 768 882
859 851 34
859 850 117
859 864 155
860 847 78
860 851 85
861 862 31
862 861 31
863 792 1990
863 895 63
864 859 155
864 865 45
864 866 25
865 864 45
866 864 25
867 868 27
867 871 469
867 886 495
868 867 27
869 742 1225
869 279 4160
869 870 13
869 879 702
870 869 13
870 282 4164
870 872 209
870 877 55
871 867 469
872 870 209
872 877 199
872 880 490
873 874 113
873 875 36
873 876 159
873 885 172
874 873 113
875 873 36
876 854 331
876 873 159
876 889 198
877 872 199
877 870 55
877 891 269
878 763 1579
878 883 782
878 902 825
879 797 951
879 869 702
879 880 7
879 881 15
880 879 7
880 872 490
880 888 135
881 879 15
881 900 365
882 844 419
882 927 780
882 770 3391
883 878 782
884 592 3327
884 782 2320
884 897 621
885 873 172
885 889 41
885 894 100
886 887 144
886 867 495
886 939 898
887 886 144
888 880 135
888 898 439
888 899 230
889 876 198
889 885 41
889 894 98
890 817 1337
890 893 145
890 914 459
891 877 269
891 892 350
891 899 807
892 891 350
893 890 145
893 909 483
894 889 98
894 885 100
894 917 400
895 896 673
895 863 63
896 895 673
896 906 846
896 922 469
897 884 621
897 934 1476
897 962 1070
898 888 439
899 888 230
899 891 807
899 900 19
899 903 19
900 881 365
900 899 19
900 902 13
901 803 1248
901 910 91
901 913 147
902 878 825
902 900 13
902 903 21
902 957 832
903 902 21
903 899 19
903 942 854
903 943 846
903 954 794
904 905 310
904 911 461
904 912 74
904 952 1582
905 904 310
906 771 2448
906 896 846
906 922 1417
906 978 1304
907 908 1040
908 907 1040
908 1017 2946
908 1259 3885
909 910 397
909 893 483
910 909 397
910 901 91
910 913 65
910 918 145
911 904 461
912 904 74
912 923 215
912 928 666
913 910 65
913 901 147
913 921 187
914 890 459
914 919 296
915 828 1016
915 916 61
915 922 544
916 915 61
916 925 49
917 894 400
917 923 632
917 924 175
918 919 568
918 910 145
918 920 1
918 921 154
919 918 568
919 914 296
920 918 1
921 918 154
921 913 187
921 995 1041
922 896 469
922 915 544
922 906 1417
923 917 632
923 912 215
923 941 322
924 917 175
924 932 274
924 933 186
925 926 87
925 916 49
926 925 87
926 937 462
926 1141 2635
927 882 780
927 1017 2033
927 2328 5919
928 929 45
928 912 666
928 945 162
929 928 45
929 930 133
929 946 155
930 931 243
930 929 133
930 947 152
931 930 243
932 924 274
932 935 81
932 1088 4230
933 924 186
933 935 106
933 974 581
934 897 1476
934 749 2198
934 936 48
934 999 649
935 932 81
935 933 106
935 944 171
936 934 48
936 1011 1084
937 926 462
937 938 353
937 966 559
938 937 353
939 940 209
939 886 898
939 995 615
940 939 209
941 923 322
941 948 91
941 949 80
942 903 854
942 956 227
943 903 846
943 958 230
944 935 171
944 953 533
944 964 509
945 928 162
945 946 92
945 961 260
946 929 155
946 945 92
946 947 122
947 930 152
947 946 122
947 949 62
948 941 91
948 967 364
948 971 417
949 941 80
949 947 62
949 955 159
950 951 60
950 959 204
951 950 60
951 961 330
951 973 307
952 904 1582
952 990 445
952 994 458
953 944 533
953 960 241
953 972 267
954 903 794
954 957 36
954 1002 405
955 949 159
955 984 347
955 998 383
956 942 227
956 987 27
957 902 832
957 954 36
957 1005 387
957 1025 602
958 943 230
958 986 28
959 950 204
959 977 269
959 990 316
960 953 241
960 965 102
960 969 135
961 945 260
961 951 330
961 968 122
961 975 187
962 897 1070
962 963 12
962 1082 1578
963 962 12
963 999 1218
963 1081 1546
964 944 509
965 960 102
965 982 197
966 937 559
966 970 72
966 1026 550
967 948 364
967 971 89
967 976 118
968 961 122
968 991 197
969 960 135
969 974 170
969 980 102
970 966 72
971 967 89
971 948 417
971 979 94
972 953 267
972 980 193
972 996 147
973 951 307
973 975 179
973 977 29
974 933 581
974 969 170
974 983 53
975 961 187
975 973 179
975 989 133
975 991 125
976 967 118
976 983 269
976 997 198
977 973 29
977 959 269
977 989 85
978 906 1304
978 1000 139
979 971 94
979 984 69
979 997 95
980 972 193
980 969 102
980 1009 222
981 982 75
981 996 198
981 1009 959
982 981 75
982 965 197
983 974 53
983 976 269
983 1006 118
984 979 69
984 955 347
984 1004 84
985 986 276
985 1478 29
986 985 276
986 958 28
987 988 287
987 956 27
988 987 287
988 1463 29
989 975 133
989 977 85
989 1012 387
990 959 316
990 952 445
990 1012 179
990 1020 290
991 968 197
991 975 125
991 998 42
991 1027 502
992 993 896
992 1002 79
992 1003 738
993 992 896
994 952 458
994 1007 403
994 1023 291
995 921 1041
995 939 615
995 1008 106
996 972 147
996 981 198
996 1009 132
997 976 198
997 979 95
997 1004 80
998 955 383
998 991 42
998 1010 109
998 1021 250
999 963 1218
999 934 649
999 1011 645
999 1101 1106
1000 1001 440
1000 978 139
1001 1000 440
1001 1019 554
1001 1090 1388
1002 954 405
1002 992 79
1002 1005 19
1002 1411 2373
1003 992 738
1004 997 80
1004 984 84
1004 1021 321
1004 1034 387
1005 957 387
1005 1002 19
1005 1025 361
1005 1409 2353
1006 983 118
1006 1022 161
1006 1024 683
1007 994 403
1007 1013 182
1007 1061 815
1008 995 106
1008 1036 424
1008 1047 524
1009 996 132
1009 980 222
1009 981 959
1010 998 109
1010 1016 98
1010 1018 97
1011 999 645
1011 936 1084
1011 1019 648
1012 989 387
1012 990 179
1012 1027 211
1012 1031 268
1013 1007 182
1014 1015 302
1014 1026 176
1014 1038 439
1015 1014 302
1016 1010 98
1016 1018 66
1016 1028 299
1017 844 4643
1017 908 2946
1017 927 2033
1018 1010 97
1018 1016 66
1018 1035 291
1019 1001 554
1019 1011 648
1019 1136 1155
1020 990 290
1021 1004 321
1021 998 250
1021 1037 293
1022 1006 161
1022 1024 314
1022 1030 154
1023 994 291
1023 1031 310
1023 1042 290
1024 1006 683
1024 1022 314
1024 1063 589
1025 957 602
1025 1005 361
1025 1048 541
1026 966 550
1026 1014 176
1026 1038 471
1027 991 502
1027 1012 211
1027 1028 47
1027 1060 489
1028 1016 299
1028 1027 47
1028 1029 81
1028 1057 448
1029 1028 81
1029 1035 117
1029 1045 261
1030 1022 154
1030 1032 184
1030 1059 330
1031 1012 268
1031 1023 310
1031 1042 372
1032 1030 184
1032 1033 101
1032 1058 299
1033 1032 101
1033 1034 201
1033 1056 283
1034 1033 201
1034 1004 387
1034 1037 198
1034 1055 257
1035 1018 291
1035 1029 117
1035 1044 171
1035 1046 186
1036 1008 424
1036 1068 314
1036 1088 1570
1037 1034 198
1037 1021 293
1037 1054 229
1038 1026 471
1038 1014 439
1038 1039 12
1039 1038 12
1039 1040 76
1039 1189 1132
1040 1041 151
1040 1039 76
1040 1043 48
1041 1040 151
1042 1031 372
1042 1023 290
1042 1061 250
1043 1040 48
1044 1035 171
1044 1050 173
1044 1053 148
1045 1029 261
1045 1049 110
1045 1065 161
1046 1035 186
1046 1049 59
1046 1050 111
1047 1008 524
1047 1067 211
1047 1068 195
1048 1025 541
1048 1409 2100
1048 1283 5547
1049 1046 59
1049 1045 110
1049 1070 144
1050 1044 173
1050 1046 111
1050 1078 247
1051 1052 224
1051 1066 142
1051 1071 115
1052 1051 224
1052 1062 110
1053 1044 148
1053 1054 346
1053 1078 174
1054 1037 229
1054 1053 346
1054 1055 225
1054 1092 284
1055 1034 257
1055 1054 225
1055 1056 159
1055 1097 330
1056 1033 283
1056 1055 159
1056 1058 140
1056 1095 304
1057 1028 448
1057 1064 32
1057 1065 77
1058 1032 299
1058 1056 140
1058 1059 213
1058 1094 281
1059 1030 330
1059 1058 213
1059 1073 147
1060 1027 489
1060 1064 38
1060 1084 513
1060 1110 516
1061 1042 250
1061 1007 815
1061 1084 229
1062 1052 110
1062 1071 222
1062 1077 134
1063 1024 589
1063 1069 49
1063 1073 255
1064 1057 32
1064 1060 38
1064 1080 190
1065 1045 161
1065 1057 77
1065 1070 118
1065 1087 228
1066 1051 142
1066 1072 211
1066 1076 119
1067 1047 211
1067 1089 354
1067 1108 475
1068 1047 195
1068 1036 314
1068 1077 223
1068 1089 188
1069 1063 49
1070 1049 144
1070 1065 118
1070 1083 365
1070 1093 232
1071 1062 222
1071 1051 115
1071 1076 140
1071 1086 132
1072 1066 211
1072 1085 124
1072 1103 472
1073 1063 255
1073 1059 147
1073 1079 39
1073 1094 315
1074 1075 723
1074 1081 1142
1074 1101 814
1075 1074 723
1076 1071 140
1076 1066 119
1076 1085 213
1076 1091 132
1077 1068 223
1077 1062 134
1077 1086 219
1077 1102 261
1078 1053 174
1078 1050 247
1078 1083 64
1079 1073 39
1080 1064 190
1080 1087 70
1080 1114 340
1081 963 1546
1081 1074 1142
1081 1082 34
1081 1356 1919
1082 962 1578
1082 1081 34
1082 1355 1894
1083 1078 64
1083 1070 365
1083 1099 397
1083 1109 245
1084 1060 513
1084 1061 229
1084 1110 253
1085 1076 213
1085 1072 124
1085 1100 144
1086 1077 219
1086 1071 132
1086 1091 147
1086 1098 134
1087 1065 228
1087 1080 70
1087 1093 137
1088 932 4230
1088 1036 1570
1088 1103 453
1089 1067 354
1089 1068 188
1089 1117 241
1090 1001 1388
1090 1105 321
1090 1106 163
1091 1086 147
1091 1076 132
1091 1100 266
1091 1107 149
1092 1054 284
1092 1099 96
1092 1104 125
1093 1070 232
1093 1087 137
1093 1096 82
1094 1073 315
1094 1058 281
1094 1095 136
1095 1094 136
1095 1056 304
1095 1097 177
1095 1125 261
1096 1093 82
1096 1111 299
1096 1121 244
1097 1095 177
1097 1055 330
1097 1104 219
1097 1112 131
1098 1086 134
1098 1107 205
1098 1119 149
1099 1092 96
1099 1083 397
1099 1104 93
1099 1129 302
1100 1091 266
1100 1085 144
1100 1103 348
1100 1120 133
1101 1074 814
1101 999 1106
1101 1126 244
1101 1136 1442
1102 1077 261
1102 1116 96
1102 1134 546
1103 1100 348
1103 1072 472
1103 1088 453
1104 1097 219
1104 1092 125
1104 1099 93
1104 1135 246
1105 1090 321
1105 1106 285
1105 1141 970
1106 1090 163
1106 1105 285
1106 1136 1789
1106 2359 3990
1107 1098 205
1107 1091 149
1107 1120 228
1107 1134 227
1108 1067 475
1108 1266 878
1109 1083 245
1109 1111 34
1109 1113 40
1110 1060 516
1110 1084 253
1110 1114 38
1111 1109 34
1111 1096 299
1111 1115 36
1112 1097 131
1113 1109 40
1113 1118 27
1113 1129 321
1114 1080 340
1114 1110 38
1114 1122 67
1115 1111 36
1115 1118 11
1115 1143 240
1116 1102 96
1116 1117 125
1116 1148 325
1116 1208 531
1117 1089 241
1117 1116 125
1117 1201 488
1118 1113 27
1118 1115 11
1119 1098 149
1119 1149 112
1120 1107 228
1120 1100 133
1120 1123 142
1120 1133 147
1121 1096 244
1121 1143 342
1121 1144 206
1122 1114 67
1122 1144 306
1122 1150 243
1123 1120 142
1123 1124 140
1123 1132 96
1124 1123 140
1125 1095 261
1125 1135 368
1125 1142 117
1126 1101 244
1126 1860 2537
1126 2643 4512
1127 1128 144
1127 1128 74
1127 1169 285
1128 1127 144
1128 1127 74
1128 1137 136
1129 1099 302
1129 1113 321
1129 1163 328
1129 1174 225
1130 1131 243
1130 1151 431
1130 1167 3718
1131 1130 243
1132 1123 96
1132 1133 120
1132 1153 239
1133 1120 147
1133 1132 120
1133 1134 169
1133 1153 159
1134 1102 546
1134 1107 227
1134 1133 169
1134 1159 170
1135 1125 368
1135 1104 246
1135 1147 76
1136 1101 1442
1136 1019 1155
1136 1106 1789
1137 1128 136
1137 1140 160
1137 1160 150
1138 1139 55
1139 1138 55
1140 1137 160
1141 1105 970
1141 926 2635
1141 1264 660
1142 1125 117
1142 1162 331
1143 1115 240
1143 1121 342
1143 1173 140
1143 1174 367
1144 1121 206
1144 1122 306
1144 1173 369
1145 1146 185
1146 1145 185
1147 1135 76
1147 1162 105
1147 1163 92
1148 1116 325
1148 1149 129
1148 1159 384
1149 1148 129
1149 1119 112
1150 1122 243
1150 1200 43
1151 1152 243
1151 1130 431
1151 1193 710
1152 1151 243
1153 1133 159
1153 1132 239
1153 1159 206
1154 1155 199
1154 1166 62
1154 1175 145
1155 1154 199
1155 1156 209
1155 1172 91
1156 1155 209
1157 1158 114
1157 1183 181
1157 1186 166
1158 1157 114
1159 1134 170
1159 1153 206
1159 1148 384
1160 1137 150
1160 1161 270
1160 1169 82
1161 1160 270
1162 1142 331
1162 1147 105
1162 1178 43
1163 1147 92
1163 1129 328
1163 1180 47
1164 1165 142
1164 1176 34
1164 1176 440
1165 1164 142
1165 1181 95
1166 1154 62
1166 1170 39
1166 1179 31
1167 1130 3718
1167 1168 233
1167 1381 1433
1168 1167 233
1168 1382 246
1169 1127 285
1169 1160 82
1169 1171 11
1169 1177 36
1170 1166 39
1171 1169 11
1172 1155 91
1172 1192 129
1172 1273 510
1173 1143 140
1173 1144 369
1173 1230 429
1174 1129 225
1174 1143 367
1174 1202 289
1174 1230 272
1175 1154 145
1175 1186 154
1175 1215 216
1176 1164 34
1176 1164 440
1176 1181 78
1177 1169 36
1178 1162 43
1178 1209 170
1178 1211 527
1179 1166 31
1179 1182 60
1179 1212 189
1180 1163 47
1180 1202 153
1180 1226 339
1181 1165 95
1181 1176 78
1182 1179 60
1182 1184 27
1182 1185 28
1183 1157 181
1184 1182 27
1184 1185 28
1185 1184 28
1185 1182 28
1185 1187 36
1186 1157 166
1186 1175 154
1186 1188 15
1187 1185 36
1188 1186 15
1188 1198 100
1188 1249 267
1189 1039 1132
1189 1388 1001
1189 1494 1039
1190 1191 946
1191 1190 946
1192 1172 129
1192 1193 60
1192 1206 82
1193 1151 710
1193 1192 60
1193 1206 66
1194 1195 323
1194 1210 85
1194 1257 365
1195 1194 323
1195 1210 214
1195 1221 229
1196 1197 40
1196 1197 92
1196 1203 39
1197 1196 40
1197 1196 92
1197 1205 146
1198 1188 100
1198 1203 53
1198 1249 235
1199 1200 236
1199 1204 39
1199 1228 130
1200 1199 236
1200 1150 43
1201 1117 488
1201 1208 167
1201 2439 3749
1202 1180 153
1202 1174 289
1203 1196 39
1203 1198 53
1203 1217 139
1204 1199 39
1204 1207 18
1204 1274 548
1205 1197 146
1206 1192 82
1206 1193 66
1206 1214 61
1207 1204 18
1207 1232 26
1208 1201 167
1208 1116 531
1208 1315 484
1209 1178 170
1209 1213 46
1209 1226 65
1210 1194 85
1210 1195 214
1210 1231 93
1211 1178 527
1211 1213 33
1211 1218 51
1212 1179 189
1212 1225 41
1212 1229 110
1213 1211 33
1213 1209 46
1213 1218 45
1214 1206 61
1214 1216 12
1214 1219 37
1215 1175 216
1215 1250 112
1215 1350 509
1216 1214 12
1216 1227 38
1216 1247 105
1217 1203 139
1217 1224 21
1217 1244 127
1218 1211 51
1218 1213 45
1218 1514 1346
1219 1220 151
1219 1214 37
1219 1227 13
1219 1227 259
1220 1219 151
1221 1195 229
1221 1231 42
1221 1238 43
1222 1223 47
1223 1222 47
1223 1239 41
1224 1217 21
1224 1243 51
1224 1289 282
1225 1212 41
1226 1209 65
1226 1180 339
1226 1234 14
1227 1219 13
1227 1216 38
1227 1219 259
1227 1255 116
1228 1199 130
1228 1237 32
1228 1248 71
1229 1212 110
1230 1174 272
1230 1173 429
1230 1256 193
1230 1342 464
1231 1210 93
1231 1221 42
1231 1238 33
1232 1233 109
1232 1207 26
1233 1232 109
1233 1241 29
1233 1245 62
1234 1226 14
1235 1236 128
1235 1252 68
1235 1258 101
1236 1235 128
1237 1228 32
1237 1268 27
1238 1231 33
1238 1221 43
1238 1242 26
1239 1240 11
1239 1223 41
1240 1239 11
1240 1285 444
1240 1290 369
1241 1233 29
1241 1245 47
1241 1253 41
1241 1253 100
1242 1238 26
1242 1257 158
1242 1274 188
1243 1224 51
1243 1246 28
1243 1262 90
1244 1217 127
1244 1254 88
1244 1326 324
1245 1233 62
1245 1241 47
1245 1253 58
1245 1265 77
1246 1243 28
1246 1251 57
1246 1261 62
1247 1216 105
1247 1255 83
1247 1309 300
1248 1228 71
1248 1272 45
1249 1198 235
1249 1188 267
1249 1293 321
1250 1215 112
1251 1246 57
1252 1235 68
1252 1254 29
1252 1258 62
1253 1241 41
1253 1245 58
1253 1241 100
1254 1252 29
1254 1244 88
1254 1270 97
1255 1227 116
1255 1247 83
1255 1277 99
1256 1230 193
1257 1194 365
1257 1242 158
1257 1310 198
1258 1235 101
1258 1252 62
1258 1260 14
1259 908 3885
1259 1951 2711
1259 2943 6130
1260 1258 14
1260 1270 27
1260 1278 285
1261 1246 62
1261 1262 66
1261 1312 349
1262 1261 66
1262 1243 90
1262 1263 38
1263 1262 38
1264 1141 660
1264 1372 1066
1264 1495 997
1265 1245 77
1265 1267 168
1265 1269 151
1265 1334 251
1266 1108 878
1267 1265 168
1267 1268 118
1267 1280 48
1268 1267 118
1268 1237 27
1269 1265 151
1270 1260 27
1270 1254 97
1270 1282 97
1271 1272 63
1271 1290 94
1271 1403 540
1272 1271 63
1272 1248 45
1273 1172 510
1274 1242 188
1274 1204 548
1274 1279 41
1274 1310 333
1275 1276 241
1275 1292 210
1275 1335 224
1276 1275 241
1277 1255 99
1277 1281 305
1277 1284 34
1278 1260 285
1279 1274 41
1279 1332 27
1280 1267 48
1280 1298 92
1280 1299 87
1281 1277 305
1281 1296 67
1281 1324 194
1282 1270 97
1282 1294 254
1282 1318 148
1283 793 6289
1283 1048 5547
1284 1277 34
1284 1291 45
1284 1296 286
1285 1240 444
1285 1305 104
1285 1307 209
1286 1287 27
1286 1288 331
1286 1343 288
1287 1286 27
1288 1286 331
1289 1224 282
1289 1323 214
1289 1323 231
1290 1271 94
1290 1240 369
1290 1327 142
1291 1284 45
1291 1297 85
1291 1304 58
1292 1275 210
1292 1295 88
1293 1249 321
1294 1282 254
1295 1292 88
1296 1281 67
1296 1284 286
1296 1306 41
1297 1291 85
1297 1304 123
1297 1306 219
1298 1280 92
1299 1280 87
1300 1301 107
1300 1302 77
1300 1342 208
1300 1346 155
1301 1300 107
1302 1300 77
1302 1303 95
1302 1347 155
1303 1302 95
1304 1291 58
1304 1297 123
1304 1319 52
1305 1285 104
1306 1296 41
1306 1297 219
1307 1308 177
1307 1285 209
1307 1316 55
1308 1307 177
1309 1247 300
1309 1339 126
1309 1393 317
1310 1257 198
1310 1274 333
1310 1311 8
1311 1310 8
1311 1336 214
1311 1377 248
1312 1261 349
1313 1314 392
1313 1320 169
1313 1338 77
1314 1313 392
1315 1208 484
1316 1317 224
1316 1307 55
1316 1321 61
1317 1316 224
1318 1282 148
1318 1328 51
1318 1341 107
1319 1304 52
1320 1313 169
1321 1322 144
1321 1316 61
1321 1327 61
1322 1321 144
1323 1289 214
1323 1289 231
1323 1330 18
1324 1281 194
1324 1325 20
1324 1325 359
1325 1324 20
1325 1324 359
1326 1244 324
1326 1329 150
1326 1340 152
1327 1290 142
1327 1321 61
1327 1333 33
1328 1318 51
1328 1341 75
1329 1326 150
1330 1323 18
1331 1332 239
1331 1334 125
1331 1394 252
1332 1331 239
1332 1279 27
1333 1327 33
1333 1367 168
1333 1412 386
1334 1331 125
1334 1265 251
1334 1404 283
1335 1275 224
1335 1338 118
1335 1432 288
1336 1337 197
1336 1311 214
1336 1347 127
1337 1336 197
1338 1313 77
1338 1335 118
1338 1351 151
1339 1309 126
1339 1348 67
1339 1366 130
1340 1326 152
1341 1328 75
1341 1318 107
1341 1358 95
1342 1230 464
1342 1300 208
1342 1352 288
1342 1447 376
1343 1286 288
1343 1363 81
1344 1345 111
1345 1344 111
1345 1371 123
1346 1300 155
1347 1302 155
1347 1336 127
1347 1353 152
1347 1407 196
1348 1339 67
1348 1349 96
1348 1366 84
1349 1348 96
1350 1215 509
1350 1378 143
1350 1380 223
1351 1338 151
1352 1342 288
1353 1347 152
1353 1357 101
1353 1408 144
1354 1355 176
1354 1387 268
1355 1354 176
1355 1082 1894
1355 1356 10
1355 1359 15
1356 1355 10
1356 1081 1919
1356 1361 15
1357 1353 101
1358 1341 95
1358 1369 45
1358 1370 48
1359 1360 167
1359 1355 15
1359 1361 11
1359 2345 3378
1360 1359 167
1360 1390 281
1361 1359 11
1361 1356 15
1361 1570 717
1362 1363 362
1362 1417 234
1363 1362 362
1363 1343 81
1363 1440 240
1364 1365 66
1364 1368 62
1364 1405 265
1365 1364 66
1365 1376 257
1365 1376 1503
1366 1339 130
1366 1348 84
1366 1386 81
1367 1333 168
1367 1412 156
1367 1413 159
1368 1364 62
1368 1406 99
1369 1358 45
1369 1370 49
1369 1371 47
1370 1369 49
1370 1358 48
1370 1375 29
1371 1345 123
1371 1369 47
1371 1426 410
1371 1781 897
1372 1264 1066
1372 1388 143
1372 2240 1856
1373 1374 138
1374 1373 138
1374 1383 50
1375 1370 29
1375 1401 86
1375 1410 213
1376 1365 257
1376 1433 199
1376 1365 1503
1377 1311 248
1377 1392 43
1377 1407 258
1378 1350 143
1379 1380 46
1380 1379 46
1380 1350 223
1380 1391 39
1381 1167 1433
1381 1382 1822
1381 1385 9
1382 1381 1822
1382 1168 246
1383 1374 50
1383 1384 72
1383 1410 67
1384 1383 72
1385 1381 9
1385 1522 85
1386 1366 81
1386 1389 29
1386 1428 106
1387 1354 268
1387 1450 640
1387 1520 640
1388 1372 143
1388 1189 1001
1388 1462 334
1389 1386 29
1389 1395 61
1389 1431 107
1390 1360 281
1390 1441 146
1390 1458 816
1391 1380 39
1392 1377 43
1392 1425 54
1393 1309 317
1393 1430 119
1393 1532 351
1393 1512 2059
1394 1331 252
1394 1404 32
1394 1404 232
1395 1389 61
1395 1398 118
1395 1438 173
1396 1397 287
1396 1399 29
1396 1414 48
1397 1396 287
1397 1402 15
1397 1432 119
1398 1395 118
1399 1400 393
1399 1396 29
1399 1454 358
1400 1399 393
1401 1375 86
1402 1397 15
1402 1419 138
1402 1483 198
1403 1271 540
1403 1418 72
1403 1429 70
1404 1394 32
1404 1334 283
1404 1394 232
1405 1406 29
1405 1364 265
1405 1410 92
1406 1405 29
1406 1368 99
1407 1347 196
1407 1377 258
1407 1408 169
1407 1445 256
1408 1353 144
1408 1407 169
1408 1445 133
1409 1048 2100
1409 1005 2353
1409 1411 11
1409 1423 35
1410 1383 67
1410 1375 213
1410 1405 92
1410 1436 100
1411 1409 11
1411 1002 2373
1411 1423 27
1412 1333 386
1412 1367 156
1412 1427 160
1412 1448 297
1413 1367 159
1413 1427 35
1413 1434 194
1414 1396 48
1414 1419 107
1414 1444 111
1415 1416 43
1415 1416 125
1415 1424 46
1416 1415 43
1416 1415 125
1416 1484 186
1417 1362 234
1417 1440 244
1418 1403 72
1418 1429 30
1418 1446 200
1419 1414 107
1419 1402 138
1419 1500 212
1420 1421 172
1420 1422 112
1420 1490 312
1421 1420 172
1422 1420 112
1422 1648 530
1423 1409 35
1423 1411 27
1423 2345 2084
1424 1425 7
1424 1415 46
1424 1468 146
1425 1424 7
1425 1392 54
1426 1371 410
1426 1488 1023
1426 1642 1181
1427 1412 160
1427 1413 35
1427 1448 96
1428 1386 106
1428 1431 24
1428 1502 217
1429 1418 30
1429 1403 70
1429 1439 71
1429 1442 69
1430 1393 119
1431 1389 107
1431 1428 24
1431 1435 66
1432 1397 119
1432 1335 288
1432 1443 104
1433 1376 199
1433 1511 17
1434 1413 194
1434 1449 220
1434 1515 219
1435 1431 66
1435 1470 85
1435 1470 362
1436 1437 16
1436 1410 100
1436 1480 86
1436 1437 498
1437 1436 16
1437 1436 498
1438 1395 173
1439 1429 71
1439 1442 19
1439 1453 92
1440 1417 244
1440 1363 240
1440 1449 38
1441 1390 146
1441 13263 193
1442 1439 19
1442 1429 69
1442 1519 244
1442 1679 434
1443 1432 104
1443 1461 40
1443 1578 584
1444 1414 111
1445 1408 133
1445 1407 256
1445 1452 17
1446 1418 200
1446 1455 28
1446 1657 591
1447 1342 376
1447 1600 35
1448 1412 297
1448 1427 96
1448 1518 176
1449 1434 220
1449 1440 38
1449 1465 61
1450 1387 640
1450 1451 70
1450 1466 426
1451 1450 70
1451 1464 59
1452 1445 17
1452 1576 21
1453 1439 92
1453 1455 51
1453 1516 159
1454 1399 358
1454 1467 55
1454 1481 52
1455 1446 28
1455 1453 51
1455 1505 131
1456 1457 24
1456 1460 21
1456 1486 46
1457 1456 24
1458 1459 70
1458 1479 424
1458 1390 816
1459 1458 70
1459 1477 57
1460 1456 21
1460 1487 46
1460 1501 524
1461 1443 40
1461 1561 216
1461 1592 586
1462 1388 334
1462 1494 363
1462 1495 619
1463 1464 3377
1463 988 29
1464 1463 3377
1464 1451 59
1465 1449 61
1465 1469 13
1465 1493 70
1466 1450 426
1466 13263 270
1467 1454 55
1467 1474 45
1467 1481 34
1468 1424 146
1468 1484 61
1468 1524 143
1469 1465 13
1469 1475 60
1469 1485 55
1470 1435 85
1470 1482 51
1470 1435 362
1471 1472 76
1471 1473 449
1471 1508 154
1472 1471 76
1473 1471 449
1473 1555 49
1474 1467 45
1474 1476 8
1474 1489 62
1475 1469 60
1475 1476 46
1475 1485 44
1476 1475 46
1476 1474 8
1476 1492 65
1477 1478 3398
1477 1459 57
1478 1477 3398
1478 985 29
1479 1458 424
1479 13262 185
1480 1436 86
1481 1454 52
1481 1467 34
1481 1489 45
1482 1470 51
1483 1402 198
1483 1500 318
1484 1468 61
1484 1416 186
1484 1543 166
1485 1469 55
1485 1475 44
1485 1492 47
1486 1456 46
1486 1487 22
1486 1503 56
1486 1557 292
1487 1486 22
1487 1460 46
1487 1501 69
1487 1503 56
1488 1426 1023
1488 1517 96
1488 1521 107
1489 1474 62
1489 1481 45
1489 1498 18
1490 1491 97
1490 1420 312
1490 1687 360
1491 1490 97
1492 1485 47
1492 1476 65
1492 1499 10
1493 1465 70
1493 1504 33
1493 1510 180
1494 1462 363
1494 1189 1039
1494 2322 3544
1494 3490 4889
1495 1264 997
1495 1462 619
1496 1497 39
1497 1496 39
1497 1605 228
1497 1635 322
1498 1489 18
1498 1499 56
1498 1506 37
1499 1492 10
1499 1498 56
1499 1507 37
1500 1419 212
1500 1542 126
1500 1483 318
1501 1487 69
1501 1460 524
1501 1587 184
1502 1428 217
1502 1568 156
1502 1843 2746
1503 1486 56
1503 1487 56
1503 1565 198
1503 1580 192
1504 1493 33
1504 1510 140
1504 1637 278
1505 1455 131
1505 1509 54
1505 1513 29
1506 1498 37
1506 1507 29
1506 1534 44
1507 1499 37
1507 1506 29
1507 1534 46
1508 1471 154
1508 1626 50
1509 1505 54
1509 1513 62
1509 1563 177
1510 1493 180
1510 1504 140
1510 1644 245
1511 1512 227
1511 1433 17
1512 1511 227
1512 1393 2059
1512 1781 620
1513 1509 62
1513 1505 29
1513 1516 143
1514 1218 1346
1514 1615 33
1515 1434 219
1515 1518 99
1516 1513 143
1516 1453 159
1516 1676 256
1517 1488 96
1517 1521 48
1517 1611 279
1518 1448 176
1518 1515 99
1518 1649 274
1519 1442 244
1519 1544 50
1519 1677 360
1520 1387 640
1520 13262 215
1521 1488 107
1521 1517 48
1521 1556 217
1522 1523 275
1522 1385 85
1523 1522 275
1523 1536 59
1523 1553 61
1524 1468 143
1524 1527 13
1524 1531 4
1525 1526 2379
1525 1897 3531
1526 1525 2379
1526 1549 575
1526 1602 152
1527 1528 217
1527 1524 13
1527 1533 7
1528 1527 217
1529 1530 277
1530 1529 277
1530 1538 61
1530 1548 39
1531 1524 4
1531 1535 12
1532 1393 351
1532 1569 92
1532 1758 1219
1533 1527 7
1533 1535 18
1533 1537 217
1534 1507 46
1534 1506 44
1534 1606 147
1535 1531 12
1535 1533 18
1535 1543 26
1536 1523 59
1536 1553 78
1536 1554 206
1537 1533 217
1538 1530 61
1538 1540 34
1539 1540 24
1539 1541 994
1539 1566 58
1540 1539 24
1540 1538 34
1541 1539 994
1542 1500 126
1543 1535 26
1543 1484 166
1543 1595 103
1544 1519 50
1544 1562 42
1544 1574 125
1545 1546 73
1546 1545 73
1546 1547 116
1546 1564 39
1547 1546 116
1548 1530 39
1549 1550 498
1549 1526 575
1549 1726 440
1550 1549 498
1551 1552 196
1552 1551 196
1552 1556 22
1552 1564 31
1553 1536 78
1553 1523 61
1553 1689 207
1554 1555 297
1554 1536 206
1554 1625 274
1555 1554 297
1555 1473 49
1556 1552 22
1556 1521 217
1556 1567 32
1557 1486 292
1557 1565 55
1557 1606 171
1558 1559 56
1559 1558 56
1559 1560 49
1559 1571 25
1560 1559 49
1561 1461 216
1561 1627 333
1561 1837 496
1562 1544 42
1562 1573 26
1562 1652 219
1563 1509 177
1563 1594 70
1563 1672 168
1564 1546 39
1564 1552 31
1564 1567 15
1565 1557 55
1565 1503 198
1565 1580 96
1566 1539 58
1567 1564 15
1567 1556 32
1567 1599 64
1567 1619 142
1568 1502 156
1568 1607 69
1568 1607 112
1569 1532 92
1570 1361 717
1570 1831 1238
1570 2354 2681
1571 1559 25
1571 1572 34
1571 1577 34
1571 1579 12
1572 1571 34
1572 1582 18
1572 1590 112
1573 1562 26
1573 1574 78
1573 1612 76
1574 1544 125
1574 1573 78
1574 1613 113
1575 1576 231
1575 1581 44
1575 1593 254
1576 1575 231
1576 1452 21
1577 1571 34
1577 1588 17
1577 1778 411
1578 1443 584
1578 1592 24
1578 1809 689
1579 1571 12
1580 1565 96
1580 1503 192
1580 1587 45
1580 1701 185
1581 1575 44
1581 1601 187
1581 1693 177
1582 1572 18
1582 1583 28
1582 1700 178
1582 1702 185
1583 1584 5
1583 1582 28
1583 1790 375
1584 1583 5
1585 1586 6
1585 1588 27
1585 1791 374
1586 1585 6
1587 1580 45
1587 1501 184
1587 1589 21
1588 1577 17
1588 1585 27
1588 1710 178
1588 1712 184
1589 1587 21
1589 1596 89
1589 1622 54
1590 1572 112
1590 1591 78
1590 1706 225
1591 1590 78
1592 1461 586
1592 1578 24
1592 1660 116
1592 1745 406
1593 1575 254
1593 1595 109
1593 1684 120
1594 1563 70
1595 1593 109
1595 1543 103
1595 1657 196
1596 1589 89
1596 1627 157
1596 1723 187
1597 1598 1455
1598 1597 1455
1598 1634 17
1599 1567 64
1599 1610 47
1599 1621 29
1600 1601 284
1600 1447 35
1601 1600 284
1601 1581 187
1601 1605 36
1601 1713 154
1602 1526 152
1602 1763 275
1603 1604 466
1604 1603 466
1604 1843 593
1605 1497 228
1605 1601 36
1605 1614 65
1606 1534 147
1606 1557 171
1606 1640 56
1607 1568 69
1607 1568 112
1607 1646 69
1608 1609 162
1608 1609 307
1608 1620 66
1608 1668 78
1609 1608 162
1609 1608 307
1609 1639 127
1610 1599 47
1610 1618 36
1610 1621 46
1611 1517 279
1612 1573 76
1612 1617 80
1612 1669 72
1613 1574 113
1613 1617 38
1613 1671 72
1614 1605 65
1614 1635 105
1614 1724 241
1615 1616 155
1615 1514 33
1616 1615 155
1616 1620 13
1616 1658 68
1617 1613 38
1617 1612 80
1617 1673 71
1618 1610 36
1619 1567 142
1620 1608 66
1620 1616 13
1620 1674 70
1621 1610 46
1621 1599 29
1621 1883 481
1622 1589 54
1623 1624 841
1623 13263 84
1624 1623 841
1624 1647 131
1625 1626 218
1625 1554 274
1625 1900 877
1626 1625 218
1626 1508 50
1627 1596 157
1627 1561 333
1627 1739 187
1628 1629 158
1628 1650 215
1629 1628 158
1629 1643 261
1629 1709 144
1630 1631 843
1630 1662 130
1631 1630 843
1631 13262 167
1632 1633 44
1632 1638 109
1632 1670 55
1633 1632 44
1633 1634 31
1633 1636 89
1634 1633 31
1634 1598 17
1635 1497 322
1635 1614 105
1635 1655 186
1635 1724 137
1636 1633 89
1636 1639 142
1636 1664 38
1637 1504 278
1638 1632 109
1638 1650 75
1638 1685 46
1639 1636 142
1639 1609 127
1639 1641 23
1640 1606 56
1640 1645 32
1640 1705 83
1641 1639 23
1641 1668 205
1641 1711 83
1642 1426 1181
1642 1694 73
1642 1786 1247
1643 1629 261
1643 1703 123
1643 1747 232
1644 1510 245
1644 1649 125
1644 1654 70
1645 1640 32
1645 1686 59
1645 1766 209
1646 1607 69
1646 1651 38
1646 1762 206
1647 1648 207
1647 1624 131
1648 1647 207
1648 1422 530
1648 1661 12
1648 1759 716
1649 1518 274
1649 1644 125
1649 1656 20
1650 1628 215
1650 1638 75
1650 1738 172
1651 1646 38
1652 1562 219
1652 1653 204
1652 1663 51
1652 1714 71
1653 1652 204
1654 1644 70
1654 1705 178
1655 1635 186
1655 1659 11
1656 1649 20
1656 1756 426
1656 1961 514
1657 1595 196
1657 1446 591
1657 1680 96
1657 1767 211
1658 1616 68
1658 1659 2
1658 1674 32
1658 1835 325
1659 1658 2
1659 1655 11
1660 1592 116
1660 1692 39
1660 1744 272
1661 1662 205
1661 1648 12
1661 1704 51
1661 1761 713
1662 1661 205
1662 1630 130
1663 1652 51
1663 1667 29
1663 1719 73
1664 1636 38
1664 1665 62
1664 1727 101
1665 1664 62
1665 1670 66
1665 1730 105
1666 1667 40
1666 1669 34
1666 1725 88
1667 1666 40
1667 1663 29
1667 1722 78
1668 1641 205
1668 1608 78
1668 1674 72
1669 1612 72
1669 1666 34
1669 1673 79
1669 1697 53
1669 1728 101
1670 1632 55
1670 1665 66
1670 1681 7
1671 1613 72
1671 1673 39
1671 1677 45
1671 1734 106
1672 1563 168
1672 1675 89
1672 1680 69
1673 1671 39
1673 1617 71
1673 1669 79
1673 1731 101
1674 1620 70
1674 1658 32
1674 1668 72
1675 1672 89
1675 1676 278
1675 1748 152
1676 1675 278
1676 1516 256
1676 1678 12
1677 1519 360
1677 1671 45
1677 1679 55
1678 1676 12
1678 1679 27
1678 1879 399
1679 1678 27
1679 1442 434
1679 1677 55
1679 1734 145
1680 1657 96
1680 1672 69
1680 1769 253
1681 1670 7
1681 1682 50
1681 1695 30
1682 1681 50
1682 1683 49
1682 1696 30
1683 1682 49
1683 1685 13
1683 1699 30
1684 1593 120
1684 1688 150
1684 1693 248
1685 1638 46
1685 1683 13
1685 1740 118
1686 1645 59
1686 1701 129
1686 1857 649
1687 1490 360
1687 1832 9
1688 1684 150
1689 1553 207
1689 1708 25
1690 1691 6
1691 1690 6
1692 1660 39
1692 1744 104
1692 1771 169
1693 1581 177
1693 1684 248
1693 1713 198
1694 1642 73
1694 1845 437
1694 2355 3159
1695 1681 30
1695 1696 48
1695 1718 31
1696 1682 30
1696 1695 48
1696 1699 49
1696 1720 31
1697 1669 53
1697 1698 31
1697 1729 64
1698 1697 31
1699 1683 30
1699 1696 49
1699 1721 31
1700 1582 178
1700 1702 7
1700 1787 194
1701 1686 129
1701 1580 185
1701 1723 155
1702 1700 7
1702 1582 185
1702 1755 186
1702 1789 195
1703 1643 123
1703 1736 1623
1703 1757 295
1704 1661 51
1704 1906 8
1705 1654 178
1705 1640 83
1705 1803 222
1706 1590 225
1706 1707 65
1706 1715 18
1706 1945 438
1707 1706 65
1708 1689 25
1708 1726 200
1708 2161 1281
1709 1629 144
1710 1588 178
1710 1712 6
1710 1794 195
1711 1641 83
1711 1716 100
1711 1788 239
1712 1588 184
1712 1710 6
1712 1795 196
1712 1799 234
1713 1601 154
1713 1693 198
1713 1867 332
1714 1652 71
1714 1719 62
1714 1756 102
1715 1706 18
1715 1755 112
1716 1711 100
1716 1717 57
1716 1741 139
1716 1854 344
1717 1716 57
1718 1695 31
1718 1720 48
1718 1732 36
1719 1663 73
1719 1714 62
1719 1722 42
1720 1696 31
1720 1718 48
1720 1721 50
1720 1733 36
1721 1699 31
1721 1720 50
1721 1735 36
1722 1667 78
1722 1719 42
1722 1725 39
1723 1701 155
1723 1596 187
1723 1739 161
1723 1743 56
1724 1635 137
1724 1614 241
1724 1737 140
1725 1666 88
1725 1722 39
1725 1728 38
1726 1708 200
1726 1549 440
1726 2378 1496
1727 1664 101
1727 1730 65
1727 1788 135
1728 1669 101
1728 1725 38
1728 1729 38
1729 1697 64
1729 1728 38
1729 1731 41
1730 1665 105
1730 1727 65
1730 1746 72
1731 1673 101
1731 1729 41
1731 1734 49
1732 1718 36
1732 1733 50
1732 1746 33
1733 1720 36
1733 1732 50
1733 1735 53
1733 1749 39
1734 1679 145
1734 1671 106
1734 1731 49
1734 1798 188
1735 1721 36
1735 1733 53
1735 1752 41
1736 1703 1623
1736 2439 4898
1736 2469 4972
1737 1724 140
1738 1650 172
1738 1747 438
1738 1757 303
1739 1723 161
1739 1627 187
1739 1833 335
1739 1842 289
1740 1685 118
1740 1752 30
1740 1826 226
1741 1716 139
1741 1742 33
1741 1895 350
1741 1933 363
1742 1741 33
1743 1723 56
1744 1692 104
1744 1660 272
1744 1773 65
1745 1592 406
1745 1782 377
1745 1823 290
1746 1732 33
1746 1730 72
1746 1750 14
1747 1643 232
1747 1738 438
1747 1757 27
1748 1675 152
1748 1760 107
1748 1770 50
1749 1733 39
1749 1750 39
1749 1751 21
1750 1749 39
1750 1746 14
1750 1792 97
1751 1749 21
1751 1752 45
1751 1812 140
1752 1740 30
1752 1735 41
1752 1751 45
1753 1754 144
1753 1768 105
1753 1768 317
1754 1753 144
1754 1809 260
1754 1822 204
1755 1702 186
1755 1715 112
1755 1800 122
1755 1916 282
1756 1714 102
1756 1656 426
1756 1798 240
1756 1875 231
1757 1747 27
1757 1703 295
1757 1738 303
1758 1532 1219
1758 1894 1505
1758 1909 1245
1758 2221 1941
1759 1648 716
1759 2580 46
1760 1748 107
1760 1765 56
1760 1817 108
1761 1661 713
1761 2588 47
1762 1646 206
1762 1774 41
1762 1784 47
1763 1602 275
1763 1764 158
1763 1953 303
1764 1763 158
1764 1839 434
1764 1987 376
1765 1760 56
1766 1645 209
1766 1811 93
1766 1847 216
1767 1657 211
1767 1769 68
1767 2033 465
1768 1753 105
1768 1753 317
1768 1783 79
1769 1767 68
1769 1680 253
1769 1772 154
1769 1816 88
1770 1748 50
1770 1772 136
1770 1815 86
1771 1692 169
1771 1773 16
1771 1862 173
1772 1769 154
1772 1770 136
1772 1814 83
1773 1771 16
1773 1744 65
1773 1782 86
1773 1866 172
1774 1762 41
1775 1776 48
1775 1780 96
1775 1785 32
1776 1775 48
1777 1778 269
1777 1783 727
1777 1868 285
1778 1777 269
1778 1577 411
1778 1779 14
1778 1958 297
1779 1778 14
1779 1799 105
1780 1775 96
1781 1371 897
1781 1512 620
1781 1858 241
1781 1909 202
1782 1773 86
1782 1745 377
1782 1978 366
1783 1768 79
1783 1777 727
1783 1868 528
1784 1762 47
1784 1785 32
1784 1821 86
1785 1784 32
1785 1775 32
1785 1797 50
1786 1642 1247
1787 1700 194
1787 1789 9
1787 1790 24
1787 1796 17
1788 1727 135
1788 1711 239
1788 1792 145
1788 1872 149
1789 1787 9
1789 1702 195
1789 1793 25
1790 1583 375
1790 1787 24
1790 1791 12
1791 1585 374
1791 1790 12
1791 1794 25
1792 1750 97
1792 1788 145
1792 1812 86
1792 1874 131
1793 1789 25
1793 1800 19
1793 1801 13
1794 1710 195
1794 1791 25
1794 1795 9
1794 1802 16
1795 1712 196
1795 1794 9
1795 1807 27
1796 1787 17
1796 1801 29
1796 1802 54
1797 1785 50
1798 1734 188
1798 1756 240
1798 1829 102
1799 1779 105
1799 1712 234
1799 1820 107
1799 1976 283
1800 1793 19
1800 1755 122
1800 1808 13
1800 1855 114
1801 1796 29
1801 1793 13
1801 1806 9
1801 1808 17
1802 1794 16
1802 1796 54
1802 1810 28
1803 1705 222
1803 1811 88
1803 1863 107
1804 1805 133
1804 1836 99
1804 1888 486
1805 1804 133
1806 1801 9
1807 1795 27
1807 1810 16
1807 1820 35
1808 1801 17
1808 1800 13
1808 1848 95
1809 1578 689
1809 1754 260
1809 1822 63
1809 1823 20
1810 1807 16
1810 1802 28
1810 1819 7
1810 1827 30
1811 1803 88
1811 1766 93
1811 1840 57
1812 1751 140
1812 1792 86
1812 1826 197
1813 1814 80
1813 1816 74
1813 1893 118
1814 1813 80
1814 1772 83
1814 1815 138
1815 1814 138
1815 1770 86
1815 1817 94
1815 1856 73
1816 1769 88
1816 1813 74
1816 1828 23
1816 1890 195
1817 1815 94
1817 1760 108
1817 1818 123
1817 1861 81
1818 1817 123
1819 1810 7
1820 1799 107
1820 1807 35
1820 1827 15
1820 1884 98
1821 1784 86
1821 1824 65
1821 1869 154
1821 1960 262
1822 1809 63
1822 1754 204
1822 1830 53
1823 1745 290
1823 1809 20
1823 1838 114
1823 2090 457
1824 1821 65
1824 1825 235
1824 1850 296
1825 1824 235
1825 1850 78
1825 1850 202
1826 1740 226
1826 1812 197
1826 1903 116
1827 1820 15
1827 1810 30
1827 1877 80
1828 1816 23
1829 1798 102
1829 1875 217
1830 1822 53
1830 1838 21
1830 2096 1279
1831 1570 1238
1831 1832 300
1831 1905 203
1832 1831 300
1832 1687 9
1833 1739 335
1834 1841 18
1835 1658 325
1835 1954 202
1835 2187 648
1836 1804 99
1836 1846 189
1836 1888 75
1837 1561 496
1837 1859 255
1837 1949 172
1837 2023 310
1838 1823 114
1838 1830 21
1838 1896 76
1838 2289 1751
1839 1764 434
1840 1811 57
1841 1834 18
1842 1739 289
1842 1844 8
1842 1857 16
1843 1502 2746
1843 1604 593
1843 1852 12
1843 1880 103
1844 1842 8
1844 13264 12
1845 1694 437
1845 1969 494
1845 2097 648
1846 1836 189
1847 1766 216
1848 1849 7
1848 1808 95
1848 1855 16
1848 1873 24
1849 1848 7
1850 1825 78
1850 1851 299
1850 1825 202
1850 1824 296
1851 1850 299
1852 1843 12
1852 1899 29
1853 1854 104
1854 1853 104
1854 1716 344
1854 1887 50
1854 1895 90
1855 1848 16
1855 1800 114
1855 1876 29
1856 1815 73
1856 1861 95
1856 1947 121
1856 2002 263
1857 1686 649
1857 1842 16
1857 1859 16
1858 1781 241
1858 1898 61
1858 1969 411
1859 1857 16
1859 1837 255
1859 2070 318
1860 1126 2537
1860 1905 814
1860 2868 2974
1861 1856 95
1861 1817 81
1861 1904 48
1862 1771 173
1862 1866 17
1862 1937 97
1863 1803 107
1863 1936 146
1863 2008 225
1864 1865 35
1864 1913 192
1864 1935 305
1865 1864 35
1865 1869 49
1865 1889 79
1866 1862 17
1866 1773 172
1866 1941 98
1867 1713 332
1867 1962 147
1867 1967 158
1867 1974 158
1868 1783 528
1868 1777 285
1868 1958 403
1869 1865 49
1869 1821 154
1869 1913 97
1870 1871 22
1870 1901 119
1870 1936 82
1871 1870 22
1872 1788 149
1872 1874 83
1872 1887 100
1872 1917 57
1873 1848 24
1873 1876 16
1873 1912 59
1874 1792 131
1874 1872 83
1874 1903 308
1875 1829 217
1875 1756 231
1875 1925 148
1876 1873 16
1876 1855 29
1876 1916 105
1876 1922 64
1877 1827 80
1877 1878 5
1877 1884 17
1877 1908 41
1878 1877 5
1879 1678 399
1879 1952 141
1879 1959 162
1880 1843 103
1880 1892 15
1880 1973 426
1881 1882 12
1882 1881 12
1882 13264 24
1883 1621 481
1883 1910 70
1883 1942 76
1884 1820 98
1884 1877 17
1884 1902 22
1885 1886 133
1886 1885 133
1886 1911 126
1886 1925 48
1887 1872 100
1887 1854 50
1887 1923 37
1887 1964 228
1888 1836 75
1888 1918 106
1888 1804 486
1888 1960 433
1889 1865 79
1890 1816 195
1890 1891 75
1890 1893 153
1891 1890 75
1892 1880 15
1892 1927 26
1893 1890 153
1893 1813 118
1893 1979 137
1894 1758 1505
1895 1854 90
1895 1741 350
1895 1944 126
1896 1838 76
1897 1525 3531
1897 1989 94
1898 1858 61
1898 1909 172
1898 2097 374
1899 1900 30
1899 1852 29
1900 1899 30
1900 1625 877
1900 1907 14
1901 1870 119
1902 1884 22
1902 1915 25
1903 1826 116
1903 1874 308
1903 2029 207
1904 1861 48
1904 1948 66
1904 1952 200
1905 1831 203
1905 1906 375
1905 1860 814
1906 1905 375
1906 1704 8
1907 1900 14
1907 1926 96
1907 1975 119
1908 1877 41
1908 1915 13
1908 1921 43
1909 1781 202
1909 1758 1245
1909 1898 172
1909 2162 477
1910 1883 70
1910 1914 17
1910 1942 87
1911 1886 126
1912 1873 59
1912 1919 28
1912 1924 16
1913 1869 97
1913 1864 192
1913 1935 43
1914 1910 17
1914 1940 104
1915 1902 25
1915 1908 13
1915 1932 45
1915 1976 124
1916 1876 105
1916 1755 282
1916 1945 118
1916 2035 236
1917 1872 57
1917 1934 158
1917 1943 96
1918 1888 106
1919 1920 7
1919 1912 28
1919 1921 28
1919 1929 13
1920 1919 7
1921 1908 43
1921 1919 28
1921 1931 15
1922 1876 64
1922 1924 8
1922 2035 197
1923 1887 37
1924 1912 16
1924 1922 8
1924 1928 25
1924 2037 195
1925 1875 148
1925 1886 48
1925 1961 138
1926 1927 16
1926 1907 96
1926 1968 274
1926 1998 125
1927 1926 16
1927 1892 26
1928 1924 25
1928 1929 5
1928 2129 377
1929 1919 13
1929 1928 5
1929 1930 6
1930 1929 6
1930 1931 25
1930 2130 377
1931 1921 15
1931 1930 25
1931 1932 8
1931 2053 197
1932 1915 45
1932 1931 8
1932 2052 197
1933 1741 363
1933 1944 40
1933 1954 120
1934 1917 158
1934 1950 37
1934 1997 135
1935 1913 43
1935 1864 305
1936 1863 146
1936 1870 82
1936 2055 210
1937 1862 97
1937 1941 17
1937 2091 277
1938 1939 369
1939 1938 369
1939 1940 11
1939 1946 30
1940 1939 11
1940 1914 104
1941 1937 17
1941 1866 98
1941 2098 289
1942 1910 87
1942 1883 76
1942 2256 657
1943 1917 96
1943 1950 72
1943 1956 33
1944 1895 126
1944 1933 40
1944 1964 46
1945 1916 118
1945 1706 438
1945 1946 123
1945 2126 365
1946 1945 123
1946 1939 30
1946 2143 367
1947 1856 121
1947 1948 95
1947 2050 159
1948 1947 95
1948 1904 66
1948 2044 156
1949 1837 172
1949 2023 224
1949 2091 384
1950 1934 37
1950 1943 72
1950 1955 18
1951 1259 2711
1952 1904 200
1952 1879 141
1952 1959 81
1952 1980 58
1953 1763 303
1953 1987 123
1953 2048 283
1953 2072 177
1954 1933 120
1954 1835 202
1954 1990 76
1955 1950 18
1955 1963 37
1955 2015 114
1956 1943 33
1956 1957 62
1956 1963 51
1957 1956 62
1958 1778 297
1958 1868 403
1958 2041 144
1959 1952 81
1959 1879 162
1959 2045 221
1960 1821 262
1960 1972 26
1960 1888 433
1961 1925 138
1961 1656 514
1961 1983 99
1962 1867 147
1962 2147 141
1963 1955 37
1963 1956 51
1963 2064 158
1964 1887 228
1964 1944 46
1964 1990 119
1965 1966 341
1965 1982 21
1966 1965 341
1967 1867 158
1967 1974 25
1967 1986 31
1968 1926 274
1968 1999 166
1968 2078 299
1968 13265 378
1969 1845 494
1969 1977 14
1969 1858 411
1970 1971 106
1970 2032 144
1970 2067 173
1971 1970 106
1972 1960 26
1972 2027 153
1972 2032 163
1973 1880 426
1973 1996 33
1974 1867 158
1974 1967 25
1974 1992 30
1975 1907 119
1975 1998 125
1975 2668 2869
1976 1799 283
1976 1915 124
1976 2030 116
1976 2052 190
1977 1969 14
1977 2020 66
1978 1782 366
1978 2090 277
1978 2116 278
1979 1893 137
1979 2002 119
1979 2119 249
1980 1952 58
1980 2045 92
1980 2046 267
1981 1982 9
1981 1991 60
1981 1995 379
1981 2039 85
1982 1981 9
1982 1965 21
1983 1961 99
1983 2021 68
1983 2024 175
1984 1985 1178
1985 1984 1178
1986 1967 31
1986 1992 25
1986 2006 37
1987 1953 123
1987 1764 376
1987 2028 144
1988 1989 224
1988 2303 71
1989 1988 224
1989 1897 94
1990 1964 119
1990 1954 76
1990 2196 418
1991 1981 60
1991 2004 158
1991 2034 71
1992 1974 30
1992 1986 25
1992 2003 16
1993 1994 111
1994 1993 111
1994 2005 407
1994 2105 227
1995 1981 379
1995 1996 10
1995 1999 25
1995 2031 76
1996 1995 10
1996 1973 33
1997 1934 135
1997 2015 53
1997 2017 55
1998 1926 125
1998 1975 125
1998 2115 591
1999 1995 25
1999 1968 166
1999 2031 89
2000 2001 14
2001 2000 14
2001 2013 23
2002 1979 119
2002 1856 263
2002 2009 23
2002 2016 41
2003 1992 16
2003 2005 73
2003 2007 13
2004 1991 158
2004 2014 144
2004 2047 62
2005 1994 407
2005 2003 73
2005 2011 21
2006 1986 37
2006 2010 14
2006 2033 342
2007 2003 13
2007 2011 59
2007 2012 15
2008 1863 225
2008 2024 60
2008 2059 79
2009 2002 23
2010 2006 14
2010 2018 43
2010 2042 43
2011 2005 21
2011 2007 59
2011 2022 17
2012 2007 15
2012 2018 15
2012 2022 60
2013 2014 6
2013 2001 23
2014 2013 6
2014 2004 144
2014 2025 205
2014 2057 51
2015 1997 53
2015 1955 114
2015 2026 21
2016 2002 41
2016 2050 94
2016 2122 195
2017 1997 55
2017 2029 118
2017 2082 147
2018 2012 15
2018 2010 43
2018 2040 80
2018 2054 39
2019 2020 66
2020 2019 66
2020 1977 66
2021 1983 68
2021 2124 220
2021 2174 419
2022 2011 17
2022 2012 60
2022 2040 21
2023 1837 310
2023 1949 224
2023 2110 156
2024 1983 175
2024 2008 60
2024 2065 53
2025 2014 205
2025 2066 56
2026 2015 21
2026 2064 49
2026 2082 148
2027 1972 153
2027 2036 47
2027 2063 44
2028 1987 144
2028 2038 184
2028 2103 143
2029 1903 207
2029 2017 118
2029 2297 874
2030 1976 116
2030 2041 14
2031 1995 76
2031 1999 89
2031 2049 20
2032 1970 144
2032 1972 163
2032 2067 134
2033 2006 342
2033 1767 465
2033 2173 290
2034 1991 71
2034 2039 53
2034 2047 142
2034 2080 65
2035 1922 197
2035 1916 236
2035 2037 7
2035 2127 180
2036 2027 47
2036 2051 37
2036 2063 40
2037 1924 195
2037 2035 7
2037 2132 198
2038 2028 184
2038 2075 232
2038 2084 84
2039 2034 53
2039 1981 85
2039 2043 48
2040 2022 21
2040 2018 80
2040 2106 130
2041 1958 144
2041 2030 14
2041 2096 119
2041 2109 170
2042 2010 43
2042 2054 29
2042 2146 223
2043 2039 48
2043 2056 97
2043 2100 113
2044 1948 156
2044 2046 76
2044 2050 95
2044 2137 195
2045 1980 92
2045 2046 78
2045 1959 221
2045 2134 259
2046 2044 76
2046 1980 267
2046 2045 78
2046 2134 194
2047 2004 62
2047 2034 142
2047 2057 149
2047 2086 66
2048 1953 283
2049 2031 20
2049 2056 189
2049 2088 84
2050 1947 159
2050 2044 95
2050 2016 94
2050 2122 253
2051 2036 37
2051 2071 59
2051 2079 45
2052 1976 190
2052 1932 197
2052 2053 7
2052 2131 180
2053 2052 7
2053 1931 197
2053 2141 195
2054 2018 39
2054 2042 29
2054 2146 223
2055 1936 210
2055 2068 42
2055 2081 57
2056 2043 97
2056 2058 57
2056 2049 189
2056 2062 57
2056 2088 184
2056 2108 115
2057 2014 51
2057 2047 149
2057 2066 207
2057 2087 69
2058 2056 57
2058 13265 36
2059 2008 79
2059 2065 65
2059 2081 65
2060 2061 51
2060 2061 655
2060 2140 204
2061 2060 51
2061 2073 44
2061 2060 655
2062 2056 57
2062 13265 35
2063 2027 44
2063 2036 40
2063 2077 18
2064 2026 49
2064 1963 158
2064 2082 178
2065 2024 53
2065 2059 65
2065 2124 177
2066 2025 56
2066 2057 207
2066 2071 90
2066 2092 65
2067 1970 173
2067 2032 134
2067 2099 109
2068 2055 42
2068 2069 181
2068 2085 68
2069 2068 181
2070 1859 318
2071 2051 59
2071 2066 90
2071 2079 52
2072 1953 177
2072 2074 190
2072 2123 128
2073 2061 44
2074 2072 190
2075 2038 232
2075 2076 64
2075 2095 152
2076 2075 64
2077 2063 18
2077 2083 41
2077 2089 46
2078 1968 299
2078 2115 109
2079 2051 45
2079 2071 52
2079 2083 27
2080 2034 65
2080 2086 126
2080 2094 36
2081 2059 65
2081 2055 57
2081 2107 100
2082 2017 147
2082 2026 148
2082 2064 178
2083 2077 41
2083 2079 27
2083 2089 48
2084 2038 84
2084 2095 63
2084 2111 88
2085 2068 68
2086 2047 66
2086 2080 126
2086 2087 150
2086 2150 167
2087 2057 69
2087 2086 150
2087 2092 192
2087 2206 290
2088 2056 184
2088 2049 84
2088 2177 220
2089 2077 46
2089 2083 48
2089 2093 11
2090 1978 277
2090 1823 457
2090 2142 143
2091 1949 384
2091 1937 277
2091 2098 22
2091 2169 186
2092 2066 65
2092 2087 192
2092 2104 33
2093 2089 11
2093 2120 321
2093 2149 238
2094 2080 36
2094 2100 106
2094 2165 185
2095 2084 63
2095 2075 152
2095 2154 154
2096 1830 1279
2096 2041 119
2096 2198 247
2097 1845 648
2097 1898 374
2097 2162 411
2098 2091 22
2098 1941 289
2098 2172 172
2098 2184 271
2099 2067 109
2100 2094 106
2100 2043 113
2100 2108 98
2100 2165 235
2101 2102 95
2101 2185 362
2101 2190 535
2102 2101 95
2103 2028 143
2103 2111 114
2103 2128 58
2104 2092 33
2104 2261 476
2104 2274 486
2105 1994 227
2105 2106 253
2105 2118 133
2106 2040 130
2106 2105 253
2106 2181 211
2107 2081 100
2107 2138 95
2107 2226 1059
2108 2100 98
2108 2056 115
2108 2117 130
2108 2218 306
2109 2041 170
2109 2133 129
2109 2191 224
2110 2023 156
2111 2103 114
2111 2084 88
2111 2152 99
2112 2113 296
2112 2114 283
2112 2144 117
2113 2112 296
2114 2112 283
2115 2078 109
2115 1998 591
2115 2155 105
2116 1978 278
2116 2142 263
2116 2200 217
2117 2108 130
2118 2105 133
2119 1979 249
2119 2122 112
2119 2170 180
2120 2121 115
2120 2093 321
2120 2164 257
2121 2120 115
2122 2119 112
2122 2016 195
2122 2050 253
2122 2170 115
2123 2072 128
2123 2125 200
2123 2296 478
2124 2021 220
2124 2065 177
2124 2190 213
2125 2123 200
2125 2128 31
2125 2156 73
2126 1945 365
2126 2132 54
2126 2153 88
2127 2035 180
2128 2125 31
2128 2103 58
2128 2152 149
2129 1928 377
2130 1930 377
2131 2052 180
2132 2037 198
2132 2126 54
2132 2135 30
2132 2141 232
2133 2109 129
2133 2141 40
2133 2202 172
2134 2046 194
2134 2045 259
2134 2137 75
2135 2136 16
2135 2132 30
2135 2141 33
2135 2145 14
2136 2135 16
2137 2044 195
2137 2134 75
2137 2210 172
2138 2107 95
2138 2148 32
2138 2168 98
2139 2140 155
2140 2139 155
2140 2060 204
2140 2174 163
2141 2133 40
2141 2053 195
2141 2135 33
2141 2132 232
2142 2116 263
2142 2090 143
2142 2219 216
2142 2284 823
2143 1946 367
2143 2153 238
2143 2251 267
2144 2112 117
2144 2151 206
2144 2178 98
2145 2135 14
2146 2054 223
2146 2147 209
2146 2042 223
2146 2188 118
2147 2146 209
2147 1962 141
2148 2138 32
2148 2175 101
2148 2242 279
2149 2093 238
2150 2086 167
2150 2165 70
2150 2206 166
2151 2144 206
2151 2160 371
2151 2195 99
2152 2111 99
2152 2128 149
2152 2154 71
2152 2211 133
2153 2126 88
2153 2143 238
2153 2258 283
2154 2152 71
2154 2095 154
2154 2167 31
2155 2115 105
2155 2163 44
2155 2177 55
2156 2157 60
2156 2125 73
2156 2166 38
2157 2156 60
2157 2171 36
2157 2197 169
2158 2159 141
2158 2227 260
2158 2233 180
2159 2158 141
2160 2151 371
2161 1708 1281
2162 2097 411
2162 1909 477
2162 2231 167
2162 2323 1146
2163 2155 44
2163 2193 133
2163 2207 113
2164 2120 257
2164 2178 58
2164 2239 232
2165 2150 70
2165 2094 185
2165 2100 235
2165 2218 185
2166 2156 38
2166 2183 57
2166 2189 80
2167 2154 31
2167 2201 182
2167 2215 112
2168 2138 98
2168 2175 22
2168 2226 197
2169 2091 186
2169 2172 16
2169 2213 101
2170 2119 180
2170 2122 115
2170 2176 14
2171 2157 36
2172 2169 16
2172 2098 172
2172 2214 102
2173 2033 290
2173 2179 90
2173 2188 232
2173 2204 80
2174 2140 163
2174 2021 419
2175 2148 101
2175 2168 22
2175 2243 197
2176 2170 14
2176 2254 78
2177 2088 220
2177 2155 55
2177 2267 247
2177 13265 301
2178 2144 98
2178 2164 58
2178 2195 253
2179 2173 90
2179 2182 92
2180 2216 96
2181 2106 211
2181 2186 28
2181 2186 27
2182 2179 92
2182 2210 399
2182 2253 334
2183 2166 57
2183 2189 86
2183 2199 74
2184 2098 271
2184 2200 35
2184 2220 83
2185 2101 362
2186 2181 28
2186 2181 27
2186 2208 47
2187 1835 648
2187 2196 260
2187 2316 445
2188 2146 118
2188 2173 232
2188 2316 683
2189 2183 86
2189 2166 80
2189 2192 8
2190 2101 535
2190 2124 213
2190 2234 137
2191 2109 224
2191 2198 113
2191 2202 80
2192 2189 8
2193 2163 133
2193 2194 300
2193 2203 44
2194 2193 300
2195 2151 99
2195 2178 253
2195 2241 165
2195 2259 166
2196 1990 418
2196 2187 260
2196 2448 1303
2197 2157 169
2197 2199 77
2197 2209 31
2198 2096 247
2198 2191 113
2198 2277 209
2199 2197 77
2199 2183 74
2199 2212 26
2200 2184 35
2200 2116 217
2200 2281 275
2201 2167 182
2202 2191 80
2202 2133 172
2202 2270 181
2203 2193 44
2203 2207 121
2203 2222 61
2204 2173 80
2204 2205 157
2204 2773 2279
2205 2204 157
2206 2087 290
2206 2150 166
2206 2228 89
2207 2163 113
2207 2203 121
2207 2402 762
2208 2186 47
2209 2197 31
2210 2182 399
2210 2137 172
2210 2217 102
2210 2263 144
2211 2152 133
2212 2199 26
2213 2169 101
2213 2214 16
2213 2271 158
2214 2213 16
2214 2172 102
2214 2220 181
2214 2269 154
2215 2167 112
2216 2180 96
2216 2255 189
2216 2292 244
2217 2210 102
2217 2225 154
2217 2225 395
2218 2165 185
2218 2108 306
2218 2224 89
2218 2260 126
2219 2142 216
2219 2281 185
2219 2319 538
2220 2214 181
2220 2184 83
2220 2262 120
2221 1758 1941
2221 2278 207
2221 2278 450
2222 2203 61
2222 2223 280
2222 2246 75
2223 2222 280
2224 2218 89
2225 2217 154
2225 2229 265
2225 2217 395
2226 2168 197
2226 2107 1059
2226 2245 86
2226 2249 73
2227 2158 260
2227 2232 68
2227 2236 19
2228 2206 89
2229 2225 265
2229 2230 185
2229 2234 357
2229 2282 225
2230 2229 185
2231 2162 167
2231 2332 696
2231 2355 459
2232 2227 68
2232 2233 64
2232 2237 20
2233 2232 64
2233 2158 180
2233 2238 23
2234 2229 357
2234 2190 137
2234 2235 134
2234 2265 96
2235 2234 134
2235 2236 61
2235 2266 82
2236 2235 61
2236 2227 19
2236 2237 68
2237 2236 68
2237 2232 20
2237 2238 63
2238 2237 63
2238 2233 23
2238 2242 77
2239 2164 232
2239 2285 205
2239 2343 447
2240 1372 1856
2240 2674 1856
2241 2195 165
2241 2278 434
2241 2298 263
2242 2238 77
2242 2148 279
2242 2243 131
2243 2242 131
2243 2175 197
2243 2244 96
2244 2243 96
2244 2245 85
2244 2250 109
2245 2244 85
2245 2226 86
2245 2249 116
2246 2222 75
2247 2248 113
2247 2250 103
2247 2305 274
2248 2247 113
2249 2245 116
2249 2226 73
2249 2325 394
2250 2247 103
2250 2244 109
2250 2308 251
2251 2143 267
2251 2252 26
2251 2258 146
2251 2340 368
2252 2251 26
2252 2257 90
2253 2254 124
2253 2182 334
2253 2263 210
2254 2253 124
2254 2176 78
2255 2216 189
2256 2257 15
2256 1942 657
2256 2264 145
2257 2256 15
2257 2252 90
2258 2153 283
2258 2251 146
2258 2270 389
2258 2270 654
2259 2195 166
2259 2301 295
2259 2390 705
2260 2218 126
2260 2268 71
2260 2288 222
2260 2334 305
2261 2104 476
2262 2220 120
2262 2269 160
2262 2293 264
2263 2253 210
2263 2210 144
2263 2400 596
2264 2256 145
2264 2442 849
2265 2234 96
2265 2272 32
2265 2351 387
2266 2235 82
2266 2272 212
2266 2273 15
2267 2177 247
2267 2268 111
2267 2376 430
2268 2260 71
2268 2267 111
2268 2344 329
2269 2214 154
2269 2262 160
2269 2271 16
2269 2341 390
2270 2202 181
2270 2258 389
2270 2277 162
2270 2258 654
2271 2213 158
2271 2269 16
2271 2341 396
2271 2367 644
2272 2265 32
2272 2266 212
2272 2286 81
2273 2266 15
2273 2275 17
2273 2286 142
2274 2104 486
2275 2273 17
2275 2283 185
2275 2283 94
2276 2294 125
2277 2198 209
2277 2270 162
2277 2291 68
2278 2221 207
2278 2221 450
2278 2241 434
2279 2280 91
2280 2279 91
2280 2287 110
2280 2309 221
2281 2200 275
2281 2219 185
2281 2293 72
2282 2229 225
2282 2307 170
2282 2347 423
2283 2275 185
2283 2275 94
2283 2286 14
2284 2142 823
2284 2391 1215
2285 2239 205
2286 2272 81
2286 2283 14
2286 2273 142
2287 2280 110
2287 2358 22
2288 2260 222
2289 2290 465
2289 1838 1751
2289 2291 34
2289 2330 162
2290 2289 465
2291 2289 34
2291 2277 68
2291 2329 161
2292 2216 244
2292 2296 46
2292 2342 244
2293 2262 264
2293 2281 72
2293 2341 255
2294 2276 125
2294 2295 242
2294 2310 136
2295 2294 242
2296 2292 46
2296 2123 478
2296 2342 220
2297 2029 874
2298 2241 263
2298 2301 157
2298 2317 101
2299 2300 46
2300 2299 46
2300 2309 74
2300 2333 170
2301 2298 157
2301 2259 295
2301 2403 465
2302 2303 898
2302 2304 7052
2302 2312 48
2302 2628 1847
2303 2302 898
2303 1988 71
2304 2302 7052
2305 2306 250
2305 2247 274
2305 2308 32
2306 2305 250
2307 2282 170
2307 2314 217
2307 2336 94
2308 2305 32
2308 2250 251
2308 2315 10
2309 2300 74
2309 2280 221
2309 2320 35
2310 2294 136
2310 2311 250
2310 2318 16
2311 2310 250
2312 2302 48
2312 2313 483
2312 2352 907
2312 2622 1604
2313 2312 483
2314 2307 217
2315 2308 10
2316 2187 445
2316 2188 683
2316 2348 182
2317 2298 101
2317 2321 94
2317 2331 60
2318 2310 16
2318 2325 41
2318 2333 71
2319 2219 538
2320 2309 35
2321 2317 94
2321 2323 180
2321 2331 68
2322 1494 3544
2322 2324 15
2322 3631 4072
2323 2162 1146
2323 2321 180
2323 2327 275
2324 2322 15
2324 2326 19
2324 2328 184
2325 2249 394
2325 2318 41
2325 2367 191
2326 2324 19
2326 2404 608
2326 2657 2254
2327 2323 275
2327 2332 55
2327 2387 549
2328 2324 184
2328 927 5919
2328 2404 452
2329 2291 161
2329 2330 31
2329 2340 655
2329 2353 94
2330 2289 162
2330 2329 31
2330 2338 231
2330 2396 302
2331 2321 68
2331 2317 60
2331 2364 150
2331 2417 519
2332 2231 696
2332 2327 55
2332 2339 70
2333 2318 71
2333 2300 170
2333 2346 299
2334 2335 364
2334 2260 305
2334 2344 84
2334 2370 117
2335 2334 364
2336 2337 111
2336 2307 94
2336 2347 102
2336 2349 60
2337 2336 111
2338 2330 231
2338 2391 681
2339 2332 70
2339 2386 485
2339 2399 385
2339 2401 358
2340 2329 655
2340 2251 368
2340 2362 56
2341 2271 396
2341 2269 390
2341 2293 255
2341 2379 102
2342 2292 244
2342 2296 220
2342 2385 568
2343 2239 447
2344 2334 84
2344 2268 329
2344 2376 97
2345 1423 2084
2345 1359 3378
2345 2354 25
2346 2333 299
2347 2336 102
2347 2282 423
2347 2351 21
2347 2381 99
2348 2316 182
2348 2456 661
2348 2547 1006
2349 2350 106
2349 2336 60
2349 2381 116
2349 2397 292
2350 2349 106
2351 2347 21
2351 2265 387
2351 2410 357
2352 2312 907
2352 2412 585
2352 2622 3687
2353 2329 94
2353 2388 158
2353 2389 162
2354 2345 25
2354 1570 2681
2354 2414 326
2355 1694 3159
2355 2231 459
2355 2386 1123
2355 2436 440
2356 2357 335
2356 2358 382
2356 2379 102
2357 2356 335
2358 2356 382
2358 2287 22
2359 1106 3990
2359 2643 1967
2359 3137 3040
2360 2361 521
2361 2360 521
2362 2363 20
2362 2340 56
2362 2406 243
2363 2362 20
2364 2331 150
2364 2416 321
2364 2418 406
2365 2366 34
2365 2377 53
2366 2365 34
2366 2368 15
2367 2325 191
2367 2271 644
2367 2430 775
2368 2366 15
2369 2370 273
2369 2374 214
2370 2369 273
2370 2334 117
2370 2375 33
2370 2376 126
2371 2372 24
2371 2373 60
2371 2380 34
2372 2371 24
2373 2371 60
2374 2369 214
2375 2370 33
2376 2370 126
2376 2344 97
2376 2267 430
2376 2392 137
2377 2365 53
2378 1726 1496
2378 2384 90
2378 2695 1369
2379 2356 102
2379 2341 102
2379 2430 356
2380 2371 34
2381 2349 116
2381 2347 99
2381 2397 150
2382 2383 57
2383 2382 57
2384 2378 90
2384 2385 83
2384 2472 576
2385 2384 83
2385 2342 568
2385 2431 427
2386 2339 485
2386 2355 1123
2386 2407 223
2387 2327 549
2387 2407 175
2387 2435 314
2388 2353 158
2388 2389 87
2388 2395 66
2389 2353 162
2389 2388 87
2389 2393 38
2390 2259 705
2391 2338 681
2391 2284 1215
2392 2376 137
2392 2402 98
2392 2453 368
2393 2389 38
2393 2394 56
2393 2396 27
2393 2405 48
2394 2393 56
2394 2395 28
2394 2405 79
2395 2394 28
2395 2388 66
2395 2408 179
2396 2330 302
2396 2393 27
2396 2398 9
2397 2349 292
2397 2381 150
2398 2396 9
2398 2413 255
2398 2441 257
2399 2339 385
2399 2464 376
2400 2263 596
2401 2339 358
2401 2480 403
2402 2392 98
2402 2207 762
2402 2476 852
2403 2301 465
2404 2326 608
2404 2328 452
2404 2657 1142
2405 2393 48
2405 2394 79
2405 2440 225
2406 2362 243
2406 2409 56
2406 2411 58
2407 2386 223
2407 2387 175
2407 2505 493
2408 2395 179
2408 2428 246
2408 2444 217
2409 2406 56
2409 13266 136
2410 2351 357
2410 2433 450
2410 2433 471
2411 2406 58
2411 2443 121
2412 2352 585
2412 2415 67
2412 2415 849
2413 2398 255
2413 2466 410
2413 2528 587
2414 2354 326
2414 2676 4221
2414 2697 1488
2415 2412 67
2415 2412 849
2415 2764 2667
2416 2364 321
2416 2420 33
2416 2422 44
2417 2331 519
2417 2421 67
2417 2429 89
2418 2364 406
2418 2419 73
2418 2422 134
2419 2418 73
2419 2421 35
2419 2438 263
2420 2416 33
2420 2422 25
2420 2426 19
2421 2419 35
2421 2417 67
2421 2427 68
2422 2420 25
2422 2416 44
2422 2418 134
2422 2426 35
2423 2424 151
2423 2425 299
2423 2466 571
2423 2503 391
2424 2423 151
2425 2423 299
2426 2420 19
2426 2422 35
2426 2435 58
2427 2421 68
2427 2429 58
2427 2437 55
2428 2408 246
2428 2447 158
2428 2478 350
2429 2427 58
2429 2417 89
2429 2445 99
2430 2367 775
2430 2379 356
2430 2499 741
2430 2632 704
2431 2385 427
2431 2432 336
2431 2472 179
2431 2638 1036
2432 2431 336
2433 2434 214
2433 2410 450
2433 2410 471
2434 2433 214
2435 2387 314
2435 2426 58
2435 2496 331
2436 2355 440
2436 2450 340
2436 2463 130
2436 2571 665
2437 2427 55
2437 2446 40
2437 2455 110
2438 2419 263
2438 2508 413
2439 1201 3749
2439 1736 4898
2439 2469 158
2440 2405 225
2440 2441 64
2440 2452 70
2441 2398 257
2441 2440 64
2441 2500 260
2442 2443 134
2442 2264 849
2442 2467 209
2442 2475 127
2443 2442 134
2443 2411 121
2444 2408 217
2444 2452 71
2444 2478 135
2445 2429 99
2445 2454 53
2445 2455 62
2446 2437 40
2446 2459 89
2446 2471 110
2447 2428 158
2447 2558 527
2447 13270 527
2447 13267 1
2448 2196 1303
2448 2543 846
2448 2699 973
2449 2450 202
2449 2451 729
2449 2450 290
2450 2449 202
2450 2436 340
2450 2463 162
2450 2449 290
2451 2449 729
2451 2497 202
2452 2440 70
2452 2444 71
2452 2482 120
2453 2392 368
2453 2493 178
2453 2502 216
2454 2445 53
2454 2473 99
2454 2487 251
2455 2437 110
2455 2445 62
2455 2459 28
2456 2348 661
2457 2458 89
2457 2462 500
2457 2499 218
2458 2457 89
2459 2446 89
2459 2455 28
2459 2471 27
2459 2484 118
2460 2461 270
2460 2465 57
2460 2485 92
2461 2460 270
2462 2457 500
2463 2450 162
2463 2436 130
2463 2464 77
2463 2479 58
2464 2463 77
2464 2399 376
2465 2460 57
2466 2423 571
2466 2413 410
2466 2470 11
2467 2442 209
2467 2468 597
2467 2483 137
2467 2489 121
2468 2467 597
2469 2439 158
2469 1736 4972
2469 2512 320
2470 2466 11
2470 2477 46
2470 2503 463
2471 2446 110
2471 2459 27
2471 2531 415
2472 2384 576
2472 2431 179
2472 2520 234
2472 2521 351
2473 2454 99
2473 2481 65
2473 2484 97
2474 2475 166
2474 13267 52
2475 2474 166
2475 2442 127
2475 2489 168
2475 2522 265
2476 2402 852
2476 2668 921
2477 2470 46
2477 2509 198
2477 2518 264
2478 2444 135
2478 2428 350
2478 2482 73
2479 2463 58
2479 2480 133
2479 2548 358
2480 2479 133
2480 2401 403
2481 2473 65
2481 2506 309
2482 2452 120
2482 2478 73
2482 2501 95
2483 2467 137
2483 2497 136
2483 2504 120
2484 2459 118
2484 2473 97
2484 2488 471
2485 2486 306
2485 2460 92
2485 2491 58
2486 2485 306
2487 2454 251
2487 2488 18
2487 2507 425
2488 2487 18
2488 2490 35
2488 2484 471
2489 2475 168
2489 2467 121
2489 2504 137
2489 2513 114
2490 2488 35
2491 2492 171
2491 2485 58
2491 2503 131
2492 2491 171
2493 2453 178
2493 2494 194
2493 2498 18
2493 2502 137
2494 2493 194
2494 2495 100
2494 2498 183
2494 2507 568
2495 2494 100
2495 13268 95
2496 2435 331
2496 2505 82
2496 2508 81
2497 2483 136
2497 2451 202
2497 2510 160
2497 2519 119
2498 2494 183
2498 2493 18
2498 2516 228
2498 2739 815
2499 2430 741
2499 2457 218
2499 2515 364
2499 2572 296
2500 2441 260
2500 2501 172
2500 2557 233
2501 2500 172
2501 2482 95
2501 2558 320
2502 2493 137
2502 2453 216
2502 2516 95
2503 2491 131
2503 2423 391
2503 2470 463
2503 2515 59
2504 2489 137
2504 2483 120
2504 2519 138
2504 2529 115
2505 2407 493
2505 2496 82
2505 2571 495
2506 2507 199
2506 2481 309
2507 2506 199
2507 2487 425
2507 2494 568
2508 2496 81
2508 2438 413
2508 2511 17
2508 2514 85
2509 2477 198
2509 2551 241
2509 2564 248
2510 2497 160
2510 2527 137
2510 2534 121
2511 2508 17
2511 2524 87
2512 2469 320
2512 2943 1454
2512 4243 5784
2513 2489 114
2513 2529 138
2513 2549 169
2514 2508 85
2514 2544 175
2514 2771 1124
2515 2499 364
2515 2503 59
2515 2562 213
2516 2498 228
2516 2517 37
2516 2502 95
2516 2660 776
2517 2516 37
2517 13268 185
2518 2477 264
2518 2528 62
2518 2551 192
2519 2504 138
2519 2497 119
2519 2534 158
2519 2540 117
2520 2472 234
2520 2532 49
2520 2535 66
2521 2472 351
2521 2532 45
2521 2536 63
2522 2523 125
2522 2475 265
2522 2549 172
2522 2563 160
2523 2522 125
2523 13267 294
2523 13271 288
2524 2511 87
2524 2525 8
2524 2546 105
2525 2524 8
2525 2526 428
2525 2530 210
2526 2525 428
2527 2510 137
2527 2537 138
2527 2556 121
2528 2518 62
2528 2413 587
2528 2554 144
2529 2513 138
2529 2504 115
2529 2540 136
2530 2525 210
2531 2471 415
2531 2533 36
2531 2661 832
2532 2520 49
2532 2521 45
2532 2535 40
2532 2536 41
2533 2531 36
2533 2538 54
2533 2541 59
2534 2519 158
2534 2510 121
2534 2556 136
2534 2566 118
2535 2520 66
2535 2532 40
2535 2536 59
2535 2545 56
2536 2535 59
2536 2532 41
2536 2521 63
2536 2635 259
2537 2527 138
2537 2567 163
2537 2576 121
2538 2539 65
2538 2533 54
2538 2546 369
2539 2538 65
2540 2529 136
2540 2519 117
2540 2566 160
2540 2577 117
2541 2533 59
2541 2542 11
2541 2550 35
2541 2552 31
2542 2541 11
2543 2448 846
2544 2514 175
2544 2546 35
2544 2631 216
2545 2535 56
2545 2669 342
2545 2682 409
2546 2544 35
2546 2524 105
2546 2538 369
2547 2348 1006
2548 2479 358
2548 2593 123
2548 2634 224
2548 2637 224
2549 2522 172
2549 2513 169
2549 2573 138
2549 2615 158
2550 2541 35
2551 2509 241
2551 2518 192
2551 2618 190
2551 2633 251
2552 2541 31
2552 2553 13
2552 2559 42
2552 2560 25
2553 2552 13
2554 2528 144
2554 2555 212
2554 2606 169
2554 2618 188
2555 2554 212
2556 2534 136
2556 2527 121
2556 2576 138
2556 2645 234
2557 2500 233
2557 2606 148
2558 2501 320
2558 2447 527
2558 13270 527
2558 2565 24
2558 2673 418
2559 2552 42
2560 2552 25
2560 2561 15
2560 2568 49
2560 2569 24
2561 2560 15
2562 2515 213
2562 2564 39
2562 2572 489
2562 2646 195
2563 2522 160
2563 2583 57
2563 2615 170
2564 2562 39
2564 2509 248
2564 2633 200
2565 2558 24
2565 2614 63
2566 2540 160
2566 2534 118
2566 2625 117
2567 2537 163
2567 2605 157
2567 2627 119
2568 2560 49
2569 2560 24
2569 2570 17
2569 2575 56
2569 2578 24
2570 2569 17
2571 2436 665
2571 2505 495
2571 2647 216
2572 2499 296
2572 2562 489
2572 2574 203
2572 2718 431
2573 2549 138
2573 2623 136
2573 2642 155
2574 2572 203
2574 2632 430
2574 2649 216
2575 2569 56
2576 2556 138
2576 2537 121
2576 2627 166
2576 2630 117
2577 2540 117
2577 2623 81
2577 2625 161
2578 2569 24
2578 2579 18
2578 2592 63
2578 2607 51
2579 2578 18
2580 2581 2904
2580 1759 46
2581 2580 2904
2581 2603 197
2582 2583 74
2583 2582 74
2583 2563 57
2583 2626 75
2583 2636 172
2584 2585 552
2584 2886 325
2585 2584 552
2585 2586 165
2585 2589 592
2586 2585 165
2586 2801 55
2587 2588 2899
2587 2617 195
2588 2587 2899
2588 1761 47
2589 2590 619
2589 2585 592
2589 2597 561
2590 2589 619
2590 2889 325
2591 2592 9
2592 2591 9
2592 2578 63
2592 2596 15
2593 2548 123
2593 13273 209
2594 2595 170
2594 2804 52
2595 2594 170
2595 2598 187
2595 2599 743
2596 2592 15
2596 2607 75
2596 2619 33
2597 2589 561
2597 2601 58
2598 2595 187
2598 2889 463
2599 2595 743
2599 2602 406
2599 2611 103
2600 2601 363
2600 2604 122
2601 2600 363
2601 2597 58
2602 2599 406
2602 2609 61
2603 2604 271
2603 2581 197
2604 2603 271
2604 2600 122
2605 2567 157
2605 2629 109
2605 2648 120
2606 2554 169
2606 2557 148
2606 2653 182
2606 2673 283
2607 2578 51
2607 2608 19
2607 2596 75
2607 2620 20
2608 2607 19
2609 2610 356
2609 2602 61
2610 2609 356
2610 2616 120
2611 2599 103
2611 2886 310
2612 2613 74
2612 2614 78
2612 2626 40
2613 2612 74
2613 13272 322
2614 2612 78
2614 2565 63
2615 2563 170
2615 2549 158
2615 2636 70
2615 2642 139
2616 2617 290
2616 2610 120
2617 2616 290
2617 2587 195
2618 2551 190
2618 2554 188
2618 2653 186
2618 2672 248
2619 2596 33
2619 2621 76
2619 2624 9
2620 2607 20
2621 2619 76
2622 2312 1604
2622 2638 281
2622 2352 3687
2623 2573 136
2623 2577 81
2623 2650 159
2623 2663 154
2624 2619 9
2625 2577 161
2625 2566 117
2625 2639 50
2625 2645 137
2626 2612 40
2626 2583 75
2626 2656 168
2626 2665 148
2627 2576 166
2627 2567 119
2627 2648 156
2627 2654 113
2628 2302 1847
2629 2605 109
2629 2634 19
2629 2640 25
2630 2576 117
2630 2654 167
2630 2662 118
2631 2544 216
2632 2430 704
2632 2574 430
2632 2671 128
2633 2564 200
2633 2551 251
2633 2672 186
2634 2629 19
2634 2548 224
2634 2637 19
2634 2667 119
2635 2536 259
2635 2655 69
2636 2583 172
2636 2615 70
2636 2656 75
2636 2658 137
2637 2634 19
2637 2548 224
2637 2641 19
2637 2670 119
2638 2431 1036
2638 2622 281
2638 2666 422
2639 2625 50
2639 2650 51
2639 2659 138
2640 2629 25
2640 13274 138
2641 2637 19
2641 2644 22
2641 2651 107
2642 2615 139
2642 2573 155
2642 2658 63
2642 2663 135
2643 1126 4512
2643 2359 1967
2643 2927 2152
2643 3004 1181
2644 2641 22
2644 13274 142
2645 2625 137
2645 2556 234
2645 2659 57
2645 2662 138
2646 2562 195
2646 2709 246
2646 2718 769
2647 2571 216
2647 2680 118
2647 2712 249
2647 2715 256
2648 2627 156
2648 2605 120
2648 2667 129
2648 2677 115
2649 2574 216
2649 2671 243
2649 2730 272
2650 2623 159
2650 2639 51
2650 2675 140
2650 2686 136
2651 2641 107
2651 2652 174
2651 2685 122
2651 2698 323
2652 2651 174
2653 2618 186
2653 2606 182
2653 2703 257
2654 2630 167
2654 2627 113
2654 2677 157
2654 2687 122
2655 2635 69
2655 2669 78
2655 2754 484
2656 2626 168
2656 2636 75
2656 2678 140
2656 2689 122
2657 2404 1142
2657 2326 2254
2657 3058 945
2658 2636 137
2658 2642 63
2658 2678 77
2659 2639 138
2659 2645 57
2659 2675 63
2660 2516 776
2660 2681 125
2660 2688 118
2660 2873 1106
2661 2531 832
2662 2645 138
2662 2630 118
2662 2687 165
2662 2692 121
2663 2642 135
2663 2623 154
2663 2686 159
2663 2694 127
2664 2665 137
2665 2664 137
2665 2626 148
2665 2689 168
2665 2745 305
2666 2638 422
2666 2684 54
2667 2648 129
2667 2634 119
2667 2670 21
2667 2693 115
2668 1975 2869
2668 2476 921
2668 2761 592
2669 2545 342
2669 2655 78
2669 2683 128
2670 2667 21
2670 2637 119
2670 2685 122
2670 2696 116
2671 2632 128
2671 2649 243
2671 2738 227
2672 2633 186
2672 2618 248
2672 2703 183
2672 2708 197
2673 2606 283
2673 2558 418
2673 2679 22
2673 2753 443
2674 2240 1856
2674 3411 3281
2674 3490 2595
2675 2650 140
2675 2659 63
2675 2692 135
2675 2741 242
2676 2414 4221
2676 2868 995
2676 3504 2023
2677 2654 157
2677 2648 115
2677 2693 130
2677 2702 118
2678 2656 140
2678 2658 77
2678 2694 135
2678 2701 109
2679 2673 22
2679 2823 71
2680 2647 118
2680 2882 524
2681 2660 125
2681 2810 248
2682 2545 409
2682 2683 169
2682 2695 663
2682 2740 186
2683 2682 169
2683 2669 128
2683 2684 171
2684 2683 171
2684 2666 54
2685 2670 122
2685 2651 122
2685 2704 170
2685 2711 112
2686 2663 159
2686 2650 136
2686 2717 125
2687 2662 165
2687 2654 122
2687 2702 159
2687 2716 118
2688 2660 118
2688 2815 250
2689 2665 168
2689 2656 122
2689 2701 138
2689 2769 306
2690 2691 143
2690 2723 691
2690 2724 306
2691 2690 143
2692 2675 135
2692 2662 121
2692 2716 166
2692 2727 118
2693 2677 130
2693 2667 115
2693 2696 16
2693 2758 238
2694 2678 135
2694 2663 127
2694 2710 60
2694 2717 159
2695 2378 1369
2695 2682 663
2695 2761 385
2696 2693 16
2696 2670 116
2696 2711 123
2696 2762 238
2697 2414 1488
2697 2757 709
2697 3281 1077
2698 2651 323
2698 2712 116
2698 2734 120
2699 2448 973
2699 2700 119
2699 2728 214
2700 2699 119
2701 2689 138
2701 2678 109
2701 2725 134
2701 2737 104
2702 2687 159
2702 2677 118
2702 2744 119
2703 2672 183
2703 2653 257
2703 2753 227
2704 2685 170
2704 2734 153
2704 2743 114
2705 2706 551
2705 2707 1014
2705 2742 118
2706 2705 551
2707 2705 1014
2708 2672 197
2708 2709 94
2708 2792 327
2709 2646 246
2709 2708 94
2709 2839 339
2710 2694 60
2710 2725 49
2710 2736 157
2711 2696 123
2711 2685 112
2711 2743 171
2711 2784 241
2712 2698 116
2712 2647 249
2712 2715 14
2712 2747 122
2713 2714 26
2713 2733 86
2714 2713 26
2715 2712 14
2715 2647 256
2715 2735 118
2715 2750 122
2716 2692 166
2716 2687 118
2716 2744 161
2716 2749 119
2717 2694 159
2717 2686 125
2717 2736 59
2717 2741 140
2718 2572 431
2718 2646 769
2718 2730 197
2718 2755 122
2719 2720 35
2719 2723 62
2719 2726 21
2720 2719 35
2720 2721 24
2720 2722 26
2721 2720 24
2722 2720 26
2723 2690 691
2723 2719 62
2723 2729 44
2724 2690 306
2724 2732 59
2724 2779 215
2725 2701 134
2725 2710 49
2725 2748 161
2725 2752 103
2726 2719 21
2726 2731 53
2726 2793 286
2727 2692 118
2727 2749 167
2727 2759 122
2728 2699 214
2729 2723 44
2730 2649 272
2730 2718 197
2730 2738 174
2731 2726 53
2731 2800 230
2732 2724 59
2732 2733 22
2732 2846 348
2733 2732 22
2733 2713 86
2734 2704 153
2734 2698 120
2734 2747 116
2734 2763 115
2735 2715 118
2735 2751 128
2735 2766 122
2736 2710 157
2736 2717 59
2736 2748 50
2737 2701 104
2737 2746 48
2737 2752 132
2738 2671 227
2738 2730 174
2738 2864 316
2739 2498 815
2739 2756 138
2739 2786 442
2739 2857 295
2740 2682 186
2741 2717 140
2741 2675 242
2741 2759 139
2741 2768 108
2742 2705 118
2742 2969 579
2742 3053 676
2743 2711 171
2743 2704 114
2743 2763 153
2744 2716 161
2744 2702 119
2744 2758 125
2744 2772 118
2745 2665 305
2745 2769 167
2745 2822 208
2746 2737 48
2746 2767 134
2746 2817 164
2747 2734 116
2747 2712 122
2747 2750 13
2747 2783 116
2748 2725 161
2748 2736 50
2748 2768 135
2748 2774 92
2749 2727 167
2749 2716 119
2749 2772 158
2749 2787 124
2750 2747 13
2750 2715 122
2750 2765 61
2750 2766 119
2751 2735 128
2751 2771 135
2751 2789 123
2752 2737 132
2752 2725 103
2752 2767 51
2753 2703 227
2753 2673 443
2753 2760 20
2753 2792 248
2754 2655 484
2755 2718 122
2756 2739 138
2756 2870 373
2757 2697 709
2758 2744 125
2758 2693 238
2758 2762 21
2758 2806 119
2759 2741 139
2759 2727 122
2759 2787 166
2759 2794 107
2760 2753 20
2760 13275 4
2761 2668 592
2761 2695 385
2761 2775 288
2762 2758 21
2762 2696 238
2762 2784 123
2762 2812 119
2763 2743 153
2763 2734 115
2763 2783 116
2763 2816 125
2764 2415 2667
2764 2780 40
2765 2750 61
2765 2785 55
2765 2788 118
2766 2750 119
2766 2735 122
2766 2788 62
2766 2789 124
2767 2746 134
2767 2752 51
2767 2813 92
2768 2748 135
2768 2741 108
2768 2770 10
2768 2794 144
2769 2745 167
2769 2689 306
2769 2818 170
2769 2819 104
2770 2768 10
2770 2774 158
2770 2807 74
2771 2751 135
2771 2514 1124
2771 2833 124
2771 2844 275
2772 2749 158
2772 2744 118
2772 2806 123
2772 2834 125
2773 2204 2279
2773 3606 1800
2773 4243 5486
2774 2748 92
2774 2770 158
2774 2809 72
2775 2761 288
2775 2778 96
2775 2795 88
2776 2777 57
2776 13276 247
2777 2776 57
2777 2778 45
2777 2781 70
2778 2777 45
2778 2775 96
2778 2805 264
2779 2724 215
2779 2782 147
2779 2808 250
2780 2764 40
2781 2777 70
2781 2795 39
2781 2805 235
2782 2779 147
2782 2798 52
2783 2763 116
2783 2747 116
2783 2785 14
2783 2848 123
2784 2762 123
2784 2711 241
2784 2845 117
2784 2869 322
2785 2783 14
2785 2765 55
2785 2820 116
2785 2849 123
2786 2739 442
2786 2828 272
2786 2870 149
2787 2759 166
2787 2749 124
2787 2794 200
2787 2834 154
2788 2765 118
2788 2766 62
2788 2820 55
2788 2829 126
2789 2766 124
2789 2751 123
2789 2829 64
2789 2833 139
2790 2791 23
2790 2830 184
2790 2837 195
2790 13275 91
2791 2790 23
2791 13278 391
2792 2708 327
2792 2753 248
2792 2839 184
2793 2726 286
2793 2796 7
2794 2768 144
2794 2759 107
2794 2787 200
2794 2807 165
2794 2847 157
2794 2892 167
2795 2781 39
2795 2775 88
2795 3033 505
2796 2793 7
2796 2800 147
2796 2808 10
2797 2798 45
2797 2799 156
2797 13280 143
2797 13281 158
2798 2797 45
2798 2782 52
2799 2797 156
2799 2841 235
2800 2731 230
2800 2796 147
2801 2802 1765
2801 2586 55
2802 2801 1765
2802 3447 279
2803 2804 1750
2803 3458 280
2804 2803 1750
2804 2594 52
2805 2778 264
2805 2781 235
2805 2811 107
2806 2772 123
2806 2758 119
2806 2812 23
2806 2865 123
2807 2770 74
2807 2794 165
2807 2809 157
2807 2883 143
2808 2796 10
2808 2779 250
2808 2826 30
2808 2827 74
2809 2774 72
2809 2807 157
2809 2813 146
2809 2874 121
2810 2811 172
2810 2681 248
2811 2810 172
2811 2814 25
2811 2805 107
2812 2806 23
2812 2762 119
2812 2845 123
2812 2872 124
2813 2767 92
2813 2809 146
2813 2817 141
2813 2867 99
2814 2815 162
2814 2811 25
2814 2975 304
2815 2814 162
2815 2688 250
2816 2763 125
2816 2848 112
2816 2869 114
2817 2746 164
2817 2813 141
2817 2818 28
2817 2877 115
2818 2769 170
2818 2817 28
2818 2821 147
2819 2769 104
2819 2821 37
2819 2822 202
2819 2824 8
2820 2785 116
2820 2788 55
2820 2852 126
2820 2876 119
2821 2819 37
2821 2818 147
2821 2824 40
2821 2831 43
2822 2823 363
2822 2745 208
2822 2819 202
2822 2830 238
2822 13277 238
2822 2835 22
2823 2822 363
2823 2679 71
2824 2819 8
2824 2821 40
2824 2825 20
2824 2831 8
2825 2824 20
2825 13278 193
2826 2808 30
2826 2880 165
2826 2917 155
2827 2808 74
2827 2855 495
2827 2982 371
2828 2786 272
2829 2788 126
2829 2789 64
2829 2852 54
2829 2863 138
2830 2790 184
2830 2822 238
2830 13277 238
2830 2837 16
2831 2824 8
2831 2821 43
2831 2832 149
2831 2899 127
2832 2831 149
2832 2835 48
2832 2859 73
2833 2789 139
2833 2771 124
2833 2863 62
2833 2934 256
2834 2787 154
2834 2772 125
2834 2853 78
2834 2884 110
2835 2822 22
2835 2832 48
2835 2836 43
2835 2859 46
2836 2835 43
2836 2840 92
2836 2859 67
2837 2790 195
2837 2830 16
2837 2838 44
2837 2913 125
2838 2837 44
2838 2840 60
2838 2909 122
2838 13278 182
2839 2709 339
2839 2792 184
2839 2862 123
2840 2838 60
2840 2836 92
2840 2905 116
2841 2799 235
2841 2856 60
2842 2843 504
2843 2842 504
2844 2771 275
2844 2858 58
2844 2933 168
2845 2812 123
2845 2784 117
2845 2915 125
2846 2732 348
2846 3017 439
2847 2794 157
2847 2884 163
2847 2903 102
2848 2816 112
2848 2783 123
2848 2849 15
2848 2881 77
2849 2848 15
2849 2785 123
2849 2876 117
2849 2881 77
2850 2851 45
2850 2896 152
2850 2896 101
2851 2850 45
2852 2820 126
2852 2829 54
2852 2887 137
2852 2921 120
2853 2834 78
2853 2854 76
2853 2865 47
2854 2853 76
2854 13279 204
2855 2827 495
2855 2860 57
2856 2857 73
2856 2841 60
2857 2856 73
2857 2739 295
2857 2949 167
2857 2980 204
2858 2844 58
2858 2866 59
2858 2959 181
2859 2836 67
2859 2835 46
2859 2832 73
2859 2902 73
2860 2861 102
2860 2855 57
2861 2860 102
2861 2866 314
2861 2924 103
2862 2839 123
2862 2875 424
2862 2875 439
2863 2829 138
2863 2833 62
2863 2887 55
2864 2738 316
2864 2879 411
2864 2918 85
2865 2853 47
2865 2806 123
2865 2872 22
2865 2928 111
2866 2858 59
2866 2861 314
2866 2968 172
2867 2813 99
2867 2874 144
2867 2877 144
2867 2945 130
2868 2676 995
2868 1860 2974
2868 2871 17
2868 2891 43
2869 2784 322
2869 2816 114
2869 2912 124
2869 2947 147
2870 2756 373
2870 2786 149
2870 2873 19
2871 2868 17
2871 2926 38
2872 2865 22
2872 2812 124
2872 2915 124
2872 2935 111
2873 2870 19
2873 2660 1106
2873 2888 97
2873 2936 119
2874 2867 144
2874 2809 121
2874 2883 155
2874 2951 129
2875 2862 424
2875 2878 225
2875 2879 144
2875 2862 439
2876 2849 117
2876 2820 119
2876 2921 128
2876 2930 91
2877 2817 115
2877 2867 144
2877 2899 208
2877 2940 94
2878 2875 225
2878 13275 773
2879 2875 144
2879 2864 411
2879 13284 237
2879 2986 254
2880 2826 165
2880 2897 23
2880 2917 123
2881 2848 77
2881 2882 46
2881 2849 77
2881 2912 38
2882 2881 46
2882 2680 524
2883 2874 155
2883 2807 143
2883 2892 157
2883 2967 133
2884 2847 163
2884 2834 110
2884 2919 39
2884 2928 126
2885 2886 514
2885 3004 212
2886 2885 514
2886 2611 310
2886 2584 325
2887 2852 137
2887 2863 55
2887 2932 70
2888 2873 97
2888 2904 446
2888 2908 21
2889 2890 518
2889 2590 325
2889 2598 463
2890 2889 518
2890 3007 212
2891 2868 43
2891 3429 1074
2892 2883 157
2892 2794 167
2892 2903 153
2892 2978 135
2893 2894 11
2894 2893 11
2894 2895 10
2894 2911 15
2895 2894 10
2896 2850 152
2896 2850 101
2896 2906 19
2897 2880 23
2897 2898 77
2897 2920 29
2898 2897 77
2899 2831 127
2899 2877 208
2899 2902 191
2899 2963 103
2900 2901 40
2900 2910 200
2900 2914 13
2901 2900 40
2902 2859 73
2902 2899 191
2902 2905 136
2902 2966 103
2903 2892 153
2903 2847 102
2903 2919 149
2903 2991 134
2904 2888 446
2905 2840 116
2905 2902 136
2905 2909 61
2905 2970 104
2906 2907 12
2906 2896 19
2906 2911 8
2907 2906 12
2908 2888 21
2908 2936 55
2908 2965 261
2909 2838 122
2909 2905 61
2909 2913 75
2909 2972 106
2910 2900 200
2911 2894 15
2911 2906 8
2911 2916 17
2912 2869 124
2912 2881 38
2912 2931 78
2912 2942 63
2913 2837 125
2913 2909 75
2913 3002 198
2913 3026 209
2914 2900 13
2914 2925 106
2914 2939 58
2915 2872 124
2915 2845 125
2915 2973 212
2916 2911 17
2916 2920 17
2917 2826 155
2917 2880 123
2917 2941 51
2918 2864 85
2918 2937 42
2918 3212 686
2919 2903 149
2919 2884 39
2919 2999 135
2920 2897 29
2920 2916 17
2920 2929 48
2921 2876 128
2921 2852 120
2921 2930 157
2921 2932 146
2921 2979 103
2922 2923 406
2922 2977 151
2922 3010 176
2923 2922 406
2924 2861 103
2924 3012 157
2924 3014 181
2925 2914 106
2926 2927 293
2926 2871 38
2927 2926 293
2927 2643 2152
2928 2884 126
2928 2865 111
2928 2935 23
2928 3006 126
2929 2920 48
2929 2941 47
2929 2956 53
2930 2876 91
2930 2921 157
2930 2931 53
2930 2944 27
2931 2912 78
2931 2930 53
2931 2942 100
2931 2944 52
2932 2921 146
2932 2887 70
2932 2946 246
2932 3005 121
2933 2844 168
2933 2934 44
2933 2958 64
2934 2833 256
2934 2933 44
2934 2946 53
2934 2948 37
2934 2950 47
2934 2958 86
2935 2928 23
2935 2872 111
2935 3008 265
2935 3110 275
2936 2873 119
2936 2908 55
2936 3083 253
2937 2918 42
2937 2938 158
2937 13286 26
2938 2937 158
2938 13285 72
2939 2914 58
2939 2975 86
2939 2983 134
2940 2877 94
2940 2945 143
2940 2963 195
2940 3016 137
2941 2917 51
2941 2929 47
2941 2971 56
2942 2912 63
2942 2931 100
2942 2947 145
2942 3009 124
2943 1259 6130
2943 2512 1454
2943 4188 2053
2944 2931 52
2944 2930 27
2944 2979 148
2944 3032 156
2945 2940 143
2945 2867 130
2945 2951 141
2945 3023 136
2946 2932 246
2946 2934 53
2946 2948 36
2946 2955 38
2947 2869 147
2947 2942 145
2947 2996 69
2948 2946 36
2948 2934 37
2948 2950 19
2948 2955 6
2949 2857 167
2949 2980 120
2949 3017 123
2950 2948 19
2950 2934 47
2950 2958 46
2950 2960 15
2951 2945 141
2951 2874 129
2951 2967 154
2951 3035 137
2952 2953 39
2952 2954 39
2952 2961 11
2953 2952 39
2953 13281 209
2954 2952 39
2954 13283 112
2955 2946 38
2955 2948 6
2955 2964 24
2955 2976 30
2956 2929 53
2956 2957 60
2956 2962 12
2956 2971 46
2957 2956 60
2958 2950 46
2958 2934 86
2958 2933 64
2958 2959 25
2958 2960 36
2959 2958 25
2959 2858 181
2959 2968 88
2959 2992 52
2960 2950 15
2960 2958 36
2960 2964 9
2960 2974 24
2961 2952 11
2961 2980 103
2961 2989 44
2962 2956 12
2962 2981 53
2962 2981 45
2963 2899 103
2963 2940 195
2963 2966 192
2963 3018 101
2964 2955 24
2964 2960 9
2964 2974 26
2964 2976 28
2965 2908 261
2965 2998 59
2965 3071 645
2966 2902 103
2966 2963 192
2966 2970 135
2966 3021 100
2967 2951 154
2967 2883 133
2967 2978 157
2967 3045 134
2968 2959 88
2968 2866 172
2968 3012 312
2968 3025 111
2969 2742 579
2969 3053 621
2969 3055 677
2970 2905 104
2970 2966 135
2970 2972 60
2970 3022 100
2971 2941 56
2971 2956 46
2971 2993 81
2972 2909 106
2972 2970 60
2972 3024 99
2973 2915 212
2973 2996 131
2973 3008 131
2974 2964 26
2974 2960 24
2974 2976 49
2974 2992 37
2975 2939 86
2975 2814 304
2975 3068 184
2976 2955 30
2976 2964 28
2976 2974 49
2976 3044 123
2977 2922 151
2977 2987 84
2977 3010 73
2978 2967 157
2978 2892 135
2978 2991 153
2978 3054 133
2979 2944 148
2979 2921 103
2979 3005 144
2979 3059 141
2980 2949 120
2980 2857 204
2980 2961 103
2980 3051 126
2980 3094 277
2981 2962 53
2981 2962 45
2981 3080 191
2982 2827 371
2982 2987 117
2982 3011 56
2983 2939 134
2984 2985 6
2984 2986 95
2984 3152 293
2984 3203 601
2984 13290 601
2985 2984 6
2985 13286 53
2986 2984 95
2986 13284 113
2986 2879 254
2987 2977 84
2987 2988 60
2987 2982 117
2987 3015 60
2988 2987 60
2989 2961 44
2989 2990 184
2989 3047 183
2990 2989 184
2991 2978 153
2991 2903 134
2991 2999 148
2991 3063 135
2992 2974 37
2992 2959 52
2992 3025 105
2993 2971 81
2993 2997 28
2993 3065 195
2994 2995 42
2994 3003 21
2994 3079 158
2995 2994 42
2995 3042 125
2996 2973 131
2996 2947 69
2996 3009 133
2997 2993 28
2997 3001 30
2997 3050 109
2998 2965 59
2998 3029 212
2998 3034 110
2999 2991 148
2999 2919 135
2999 3006 113
2999 3072 135
3000 3001 91
3001 3000 91
3001 2997 30
3001 3093 240
3002 2913 198
3002 3030 64
3002 3039 161
3003 2994 21
3003 3013 57
3003 3027 63
3004 2643 1181
3004 2885 212
3004 3007 11
3005 2979 144
3005 2932 121
3005 3019 150
3006 2999 113
3006 2928 126
3006 3105 154
3007 3004 11
3007 2890 212
3007 3137 343
3008 2935 265
3008 2973 131
3008 3020 52
3008 3028 92
3009 2996 133
3009 2942 124
3009 3032 143
3009 3113 152
3010 2922 176
3010 2977 73
3010 3015 118
3010 3031 43
3011 2982 56
3011 3015 124
3011 3076 109
3012 2968 312
3012 2924 157
3012 3014 118
3012 3187 235
3013 3003 57
3013 3041 47
3013 3046 91
3014 3012 118
3014 2924 181
3014 3031 131
3014 3073 118
3015 3010 118
3015 2987 60
3015 3011 124
3015 3091 119
3016 2940 137
3016 3018 175
3016 3023 140
3017 2846 439
3017 2949 123
3017 3040 89
3017 3107 126
3018 2963 101
3018 3016 175
3018 3021 191
3018 3239 271
3019 3005 150
3019 3044 137
3019 3118 142
3020 3008 52
3020 13293 333
3021 2966 100
3021 3018 191
3021 3022 136
3021 3263 299
3022 2970 100
3022 3021 136
3022 3024 62
3022 3097 105
3023 3016 140
3023 2945 136
3023 3035 140
3023 3138 158
3024 2972 99
3024 3022 62
3024 3026 65
3025 2992 105
3025 2968 111
3025 3064 70
3025 3096 142
3026 2913 209
3026 3024 65
3026 3030 143
3026 3106 104
3027 3003 63
3027 3041 57
3027 3078 82
3028 3008 92
3028 3052 132
3028 3174 197
3029 2998 212
3029 3067 74
3029 3084 161
3030 3002 64
3030 3026 143
3030 3038 119
3030 3181 202
3031 3014 131
3031 3010 43
3031 3073 101
3031 3124 187
3032 3009 143
3032 2944 156
3032 3059 147
3032 3139 155
3033 2795 505
3033 3090 115
3033 3112 109
3034 2998 110
3034 3067 250
3034 3087 114
3035 3023 140
3035 2951 137
3035 3045 158
3035 3148 158
3036 3037 4610
3036 3058 207
3036 3502 2940
3036 3717 1365
3037 3036 4610
3038 3030 119
3038 3039 29
3038 3226 226
3039 3002 161
3039 3038 29
3039 3048 39
3039 3049 382
3040 3017 89
3040 3051 59
3040 3125 125
3041 3013 47
3041 3027 57
3041 3066 51
3042 2995 125
3042 3043 45
3042 3079 93
3042 3090 86
3043 3042 45
3044 3019 137
3044 2976 123
3044 3064 166
3044 3142 142
3045 3035 158
3045 2967 134
3045 3054 157
3046 3013 91
3046 3057 30
3046 3060 20
3047 2989 183
3047 3056 18
3047 3094 89
3048 3039 39
3048 3199 310
3048 3219 202
3049 3039 382
3049 3088 142
3049 3111 151
3050 2997 109
3050 3093 69
3050 3108 84
3051 3040 59
3051 2980 126
3051 3143 126
3051 3157 208
3052 3028 132
3052 3113 145
3052 3214 193
3053 2969 621
3053 2742 676
3053 3306 1379
3054 3045 157
3054 2978 133
3054 3063 155
3054 3119 88
3055 2969 677
3055 3062 892
3055 3267 258
3056 3047 18
3056 3083 180
3056 3197 169
3057 3046 30
3057 3060 28
3057 3068 101
3058 2657 945
3058 3036 207
3058 3146 127
3059 3032 147
3059 2979 141
3059 3086 141
3059 3177 155
3060 3057 28
3060 3046 20
3060 3066 98
3060 3089 46
3061 3062 204
3062 3061 204
3062 3074 119
3062 3055 892
3062 3117 130
3063 3054 155
3063 2991 135
3063 3072 145
3064 3044 166
3064 3025 70
3064 3096 124
3064 3180 138
3065 2993 195
3066 3060 98
3066 3041 51
3066 3078 59
3067 3034 250
3067 3029 74
3067 3084 175
3067 3131 112
3068 2975 184
3068 3057 101
3068 3071 47
3068 3114 55
3069 3070 17
3069 3077 690
3069 3173 226
3070 3069 17
3070 3085 482
3070 3123 161
3071 2965 645
3071 3068 47
3071 3084 157
3072 3063 145
3072 2999 135
3072 3105 117
3073 3014 118
3073 3031 101
3073 3192 186
3074 3075 785
3074 3062 119
3074 3081 71
3075 3074 785
3076 3011 109
3076 3091 139
3076 3120 54
3077 3069 690
3077 3085 20
3077 3160 208
3078 3066 59
3078 3027 82
3078 3079 27
3079 3078 27
3079 2994 158
3079 3042 93
3079 3191 123
3080 2981 191
3080 3109 28
3081 3074 71
3081 3082 11
3081 3225 161
3082 3081 11
3083 3056 180
3083 2936 253
3083 3100 67
3084 3067 175
3084 3029 161
3084 3071 157
3084 3130 67
3085 3077 20
3085 3070 482
3085 3128 162
3086 3059 141
3086 3118 154
3086 3218 152
3087 3034 114
3087 3095 39
3087 3104 63
3088 3049 142
3088 3111 20
3088 3318 607
3089 3060 46
3089 3114 140
3089 3126 43
3090 3042 86
3090 3033 115
3090 3191 158
3091 3015 119
3091 3076 139
3091 3124 40
3092 3093 92
3092 3098 51
3092 3243 182
3093 3092 92
3093 3001 240
3093 3050 69
3093 3108 75
3094 2980 277
3094 3047 89
3094 3157 99
3095 3087 39
3095 3099 31
3095 3206 126
3096 3064 124
3096 3025 142
3096 3189 150
3097 3022 105
3097 3106 126
3097 3171 92
3098 3092 51
3098 3120 51
3099 3095 31
3099 3100 31
3100 3083 67
3100 3101 205
3100 3099 31
3100 3205 121
3101 3100 205
3102 3103 8
3103 3102 8
3103 3121 17
3104 3087 63
3104 3131 184
3104 3213 125
3105 3072 117
3105 3006 154
3105 3110 21
3105 3298 239
3106 3026 104
3106 3097 126
3106 3178 92
3107 3017 126
3107 3125 87
3107 3147 65
3108 3093 75
3108 3050 84
3108 3109 177
3108 3133 49
3109 3108 177
3109 3080 28
3109 3136 48
3109 3151 68
3110 3105 21
3110 2935 275
3110 3134 152
3110 3298 235
3111 3088 20
3111 3049 151
3111 3129 69
3111 3132 37
3112 3033 109
3112 3149 55
3112 3200 156
3113 3052 145
3113 3009 152
3113 3139 143
3113 3245 153
3114 3068 55
3114 3089 140
3114 3144 44
3115 3116 151
3115 3140 60
3115 3158 113
3116 3115 151
3117 3062 130
3118 3086 154
3118 3019 142
3118 3135 27
3118 3142 135
3119 3054 88
3119 3127 66
3119 3308 238
3120 3076 54
3120 3098 51
3120 3161 124
3121 3122 50
3121 3103 17
3122 3121 50
3122 3154 14
3123 3070 161
3123 3128 163
3123 3173 66
3124 3031 187
3124 3091 40
3124 3161 59
3124 3198 125
3125 3107 87
3125 3040 125
3125 3143 87
3125 3234 121
3126 3089 43
3126 3144 140
3126 3166 57
3127 3119 66
3128 3085 162
3128 3123 163
3128 3160 38
3129 3111 69
3129 3162 69
3129 3288 394
3130 3084 67
3130 3156 32
3131 3104 184
3131 3067 112
3131 3167 295
3131 3220 134
3132 3111 37
3132 3162 35
3132 3199 249
3133 3108 49
3133 3188 55
3133 3188 251
3134 3110 152
3134 3174 160
3134 3305 206
3135 3118 27
3135 3141 22
3135 3249 122
3136 3109 48
3136 3145 17
3136 3150 19
3137 3007 343
3137 2359 3040
3137 3411 422
3138 3023 158
3138 3148 142
3138 3278 175
3139 3113 143
3139 3032 155
3139 3177 145
3139 3272 153
3140 3115 60
3140 3175 47
3140 3236 123
3141 3135 22
3141 3252 234
3141 3257 196
3142 3118 135
3142 3044 142
3142 3180 168
3142 3273 149
3143 3125 87
3143 3051 126
3143 3235 138
3143 3256 123
3144 3114 44
3144 3126 140
3144 3196 49
3145 3136 17
3145 3153 12
3145 3155 10
3146 3058 127
3146 3854 32
3147 3107 65
3147 3204 58
3148 3138 142
3148 3035 158
3148 3286 162
3149 3112 55
3149 3200 54
3149 3242 105
3150 3136 19
3150 3155 12
3150 13291 17
3151 3109 68
3151 3163 16
3151 3258 121
3152 2984 293
3152 3179 30
3152 3318 244
3152 3322 243
3153 3145 12
3153 3154 34
3153 3169 18
3154 3153 34
3154 3122 14
3155 3150 12
3155 3145 10
3155 3170 21
3156 3130 32
3156 3167 13
3156 3168 22
3157 3051 208
3157 3094 99
3157 3193 52
3157 3235 100
3158 3115 113
3158 3159 72
3158 3182 48
3159 3158 72
3160 3077 208
3160 3128 38
3160 3229 67
3161 3124 59
3161 3120 124
3161 3251 148
3162 3129 69
3162 3132 35
3162 3370 272
3163 3151 16
3163 13292 17
3164 3165 883
3164 3337 319
3164 3337 340
3165 3164 883
3166 3126 57
3166 3196 103
3166 3254 95
3167 3131 295
3167 3156 13
3167 3176 13
3168 3156 22
3168 3172 7
3168 3196 157
3169 3153 18
3169 3170 11
3169 3183 14
3170 3155 21
3170 3169 11
3170 3194 24
3171 3097 92
3171 3178 127
3171 3315 181
3172 3168 7
3172 3176 12
3173 3123 66
3173 3069 226
3173 3223 45
3174 3134 160
3174 3028 197
3174 3214 132
3174 3314 180
3175 3140 47
3175 3182 74
3175 3244 78
3176 3167 13
3176 3172 12
3176 3233 49
3177 3139 145
3177 3059 155
3177 3218 144
3177 3272 209
3177 3303 160
3178 3106 92
3178 3171 127
3178 3181 104
3178 3290 140
3179 3152 30
3179 3466 396
3180 3142 168
3180 3064 138
3180 3190 159
3180 3388 278
3181 3030 202
3181 3178 104
3181 3227 95
3181 3264 91
3182 3175 74
3182 3158 48
3182 3244 103
3182 3261 120
3183 3169 14
3183 3202 19
3183 3215 137
3184 3185 150
3184 3186 69
3184 3250 115
3185 3184 150
3185 3192 74
3185 3250 90
3186 3184 69
3186 3187 60
3186 3347 236
3187 3012 235
3187 3186 60
3187 3189 78
3188 3133 55
3188 3133 251
3188 3217 45
3189 3096 150
3189 3187 78
3189 3190 106
3189 3291 134
3190 3189 106
3190 3180 159
3190 3302 146
3191 3079 123
3191 3090 158
3191 3254 179
3191 3307 183
3192 3185 74
3192 3073 186
3192 3198 28
3193 3157 52
3193 3197 92
3193 3283 110
3194 3195 5
3194 3170 24
3194 3202 14
3194 3237 49
3195 3194 5
3195 13294 31
3196 3168 157
3196 3144 49
3196 3166 103
3196 3275 95
3197 3193 92
3197 3056 169
3197 3201 110
3197 3284 109
3198 3192 28
3198 3124 125
3198 3222 38
3199 3132 249
3199 3048 310
3199 3219 251
3199 3342 293
3200 3149 54
3200 3112 156
3200 3242 86
3200 3265 81
3201 3197 110
3201 3205 109
3201 3285 111
3202 3194 14
3202 3183 19
3202 3237 46
3203 2984 601
3203 13290 601
3203 3231 51
3203 3240 71
3204 3147 58
3204 3215 14
3204 3216 12
3204 3234 94
3204 3331 472
3205 3201 109
3205 3100 121
3205 3206 64
3205 3287 109
3206 3205 64
3206 3095 126
3206 3209 46
3207 3208 66
3207 3212 82
3207 13289 288
3208 3207 66
3208 3231 28
3208 3253 86
3209 3206 46
3209 3213 48
3209 3289 108
3210 3211 1199
3211 3210 1199
3211 3232 24
3211 3304 495
3212 2918 686
3212 3207 82
3212 3253 71
3212 3398 436
3213 3209 48
3213 3104 125
3213 3220 112
3214 3174 132
3214 3052 193
3214 3245 134
3214 3359 210
3215 3183 137
3215 3204 14
3215 3216 15
3215 3339 190
3216 3215 15
3216 3204 12
3216 3221 11
3216 3295 113
3217 3188 45
3217 3230 30
3217 3238 27
3218 3177 144
3218 3086 152
3218 3249 153
3219 3199 251
3219 3048 202
3219 3226 68
3220 3213 112
3220 3131 134
3220 3228 80
3220 3294 116
3221 3216 11
3222 3198 38
3222 3279 232
3222 3343 230
3222 3375 252
3223 3173 45
3223 3224 1341
3223 3229 214
3224 3223 1341
3225 3081 161
3225 3262 51
3225 3578 707
3226 3219 68
3226 3038 226
3226 3227 68
3227 3226 68
3227 3181 95
3227 3321 154
3228 3220 80
3228 3241 127
3228 3297 102
3229 3160 67
3229 3223 214
3229 3271 193
3230 3217 30
3230 3248 25
3230 3258 131
3231 3208 28
3231 3203 51
3231 3240 21
3231 3253 59
3232 3211 24
3232 3401 331
3232 3682 828
3233 3176 49
3233 3259 39
3234 3204 94
3234 3125 121
3234 3256 86
3235 3143 138
3235 3157 100
3235 3277 78
3236 3140 123
3237 3194 49
3237 3202 46
3237 3258 94
3238 3217 27
3238 3243 102
3238 3246 30
3239 3018 271
3239 3260 56
3239 3266 74
3240 3231 21
3240 3203 71
3240 3398 402
3241 3228 127
3241 3259 180
3241 3300 108
3242 3149 105
3242 3200 86
3242 3280 70
3243 3092 182
3243 3238 102
3243 3247 46
3244 3175 78
3244 3182 103
3244 3276 78
3244 3261 115
3245 3214 134
3245 3113 153
3245 3272 140
3245 3323 130
3246 3238 30
3246 3248 16
3246 3311 114
3247 3243 46
3248 3246 16
3248 3230 25
3248 3258 88
3249 3218 153
3249 3135 122
3249 3273 133
3250 3184 115
3250 3185 90
3250 3292 85
3251 3161 148
3251 3255 65
3251 3279 63
3252 3141 234
3253 3212 71
3253 3208 86
3253 3231 59
3253 3268 45
3254 3166 95
3254 3191 179
3254 3275 118
3254 3316 103
3255 3251 65
3256 3234 86
3256 3143 123
3256 3277 102
3256 3327 123
3257 3141 196
3258 3248 88
3258 3230 131
3258 3151 121
3258 3237 94
3259 3241 180
3259 3233 39
3259 3275 197
3259 3313 98
3260 3239 56
3260 3263 146
3260 3296 56
3261 3182 120
3261 3244 115
3261 3301 69
3262 3225 51
3262 3709 925
3262 3907 1265
3263 3021 299
3263 3260 146
3263 3332 110
3264 3181 91
3264 3290 127
3264 3324 106
3265 3200 81
3265 3293 45
3265 3319 243
3266 3239 74
3266 3274 100
3266 3312 89
3267 3055 258
3267 4540 4165
3268 3253 45
3268 13295 1033
3269 3270 148
3269 3317 82
3269 3317 214
3270 3269 148
3271 3229 193
3271 3301 79
3271 3349 177
3272 3245 140
3272 3139 153
3272 3177 209
3272 3303 142
3272 3323 175
3272 3345 115
3273 3249 133
3273 3142 149
3273 3405 203
3274 3266 100
3274 3278 95
3274 3351 132
3275 3259 197
3275 3196 95
3275 3254 118
3275 3326 89
3276 3244 78
3276 3341 144
3276 3391 299
3277 3256 102
3277 3235 78
3277 3283 149
3277 3357 125
3278 3274 95
3278 3138 175
3278 3282 64
3279 3222 232
3279 3251 63
3279 3311 175
3280 3242 70
3280 3293 95
3280 3340 109
3281 2697 1077
3281 3399 209
3281 3491 373
3282 3278 64
3282 3286 97
3282 3374 134
3283 3277 149
3283 3193 110
3283 3284 91
3283 3397 173
3284 3283 91
3284 3197 109
3284 3285 110
3284 3365 121
3285 3284 110
3285 3201 111
3285 3287 108
3285 3371 120
3286 3282 97
3286 3148 162
3286 3308 322
3286 3378 134
3287 3285 108
3287 3205 109
3287 3289 109
3287 3373 122
3288 3129 394
3288 3325 131
3288 3380 152
3289 3287 109
3289 3209 108
3289 3294 113
3290 3264 127
3290 3178 140
3290 3315 143
3290 3334 67
3291 3189 134
3291 3302 107
3291 3336 67
3292 3250 85
3292 3343 124
3292 3347 105
3293 3280 95
3293 3265 45
3293 3358 99
3294 3289 113
3294 3220 116
3294 3297 125
3294 3377 122
3295 3216 113
3295 3327 173
3295 3379 132
3296 3260 56
3296 3312 92
3296 3332 151
3297 3294 125
3297 3228 102
3297 3300 70
3298 3105 239
3298 3299 64
3298 3110 235
3298 3320 46
3299 3298 64
3299 13293 85
3300 3297 70
3300 3241 108
3300 3313 202
3300 3381 148
3301 3261 69
3301 3271 79
3301 3341 116
3302 3190 146
3302 3291 107
3302 3392 131
3303 3272 142
3303 3177 160
3303 3333 146
3303 3354 83
3304 3211 495
3304 3306 8
3304 3401 503
3305 3134 206
3305 3314 153
3305 3338 49
3306 3304 8
3306 3053 1379
3306 3874 1165
3307 3191 183
3307 3316 112
3307 3328 90
3307 3330 108
3308 3286 322
3308 3119 238
3308 3414 202
3308 3477 241
3309 3310 5
3309 3329 177
3309 3417 180
3310 3309 5
3311 3279 175
3311 3246 114
3311 3331 105
3311 3344 138
3311 3352 256
3311 3364 79
3312 3266 89
3312 3296 92
3312 3390 118
3313 3300 202
3313 3259 98
3313 3326 250
3313 3329 42
3314 3305 153
3314 3174 180
3314 3348 48
3315 3290 143
3315 3171 181
3315 3382 94
3316 3254 103
3316 3307 112
3316 3326 130
3317 3269 82
3317 3269 214
3317 3353 49
3318 3152 244
3318 3088 607
3318 3322 21
3318 3325 16
3319 3265 243
3319 3361 228
3319 3389 94
3320 3298 46
3320 3338 160
3320 3350 36
3321 3227 154
3321 3324 71
3321 3342 169
3321 3396 120
3322 3152 243
3322 3318 21
3322 3335 16
3322 3524 631
3323 3245 130
3323 3272 175
3323 3345 135
3323 3394 166
3323 3475 211
3324 3321 71
3324 3264 106
3324 3334 139
3324 3478 223
3325 3318 16
3325 3288 131
3325 3335 22
3325 3465 208
3326 3275 89
3326 3316 130
3326 3313 250
3326 3363 47
3327 3295 173
3327 3256 123
3327 3357 114
3327 3418 129
3328 3307 90
3328 3340 35
3328 3445 243
3329 3309 177
3329 3313 42
3329 3417 173
3330 3307 108
3330 3363 129
3330 3445 162
3331 3311 105
3331 3204 472
3332 3263 110
3332 3296 151
3332 3382 148
3332 3440 164
3333 3303 146
3333 3362 42
3333 3376 167
3334 3324 139
3334 3290 67
3334 3424 125
3335 3322 16
3335 3325 22
3335 3465 209
3335 3532 635
3336 3291 67
3336 3393 113
3336 3406 152
3337 3164 319
3337 3164 340
3337 3353 126
3338 3320 160
3338 3305 49
3338 3348 153
3338 3444 154
3339 3215 190
3339 3352 102
3339 3379 57
3340 3328 35
3340 3280 109
3340 3346 72
3340 3496 268
3341 3276 144
3341 3301 116
3341 3403 99
3341 3471 307
3342 3199 293
3342 3321 169
3342 3396 144
3343 3292 124
3343 3222 230
3343 3395 119
3343 3400 104
3344 3311 138
3344 3367 109
3344 3367 136
3345 3323 135
3345 3272 115
3345 3354 141
3345 3483 200
3346 3340 72
3346 3358 63
3346 3507 245
3347 3186 236
3347 3292 105
3347 3400 124
3347 3406 105
3348 3338 153
3348 3314 48
3348 3359 137
3348 3456 156
3349 3271 177
3349 3434 213
3350 3320 36
3350 3407 82
3350 3433 119
3350 3438 120
3351 3274 132
3351 3366 18
3351 3390 146
3352 3311 256
3352 3339 102
3352 3379 93
3353 3317 49
3353 3337 126
3353 3580 355
3354 3345 141
3354 3303 83
3354 3362 135
3354 3412 81
3355 3356 150
3355 3361 49
3356 3355 150
3356 3360 167
3356 3385 43
3357 3327 114
3357 3277 125
3357 3372 53
3357 3404 67
3358 3346 63
3358 3293 99
3358 3389 218
3359 3348 137
3359 3214 210
3359 3394 47
3360 3356 167
3360 3408 1020
3360 3410 76
3360 3436 190
3361 3319 228
3361 3355 49
3361 3385 151
3361 3427 92
3362 3354 135
3362 3333 42
3362 3422 88
3363 3326 47
3363 3330 129
3363 3369 16
3363 3470 150
3364 3311 79
3364 3384 234
3364 3516 252
3365 3284 121
3365 3368 63
3365 3423 84
3366 3351 18
3366 3374 89
3366 3527 273
3367 3344 109
3367 3344 136
3367 3379 103
3368 3365 63
3368 3371 47
3368 3439 104
3369 3363 16
3369 3409 127
3370 3162 272
3370 3431 91
3370 3647 533
3371 3368 47
3371 3285 120
3371 3373 107
3371 3450 119
3372 3357 53
3372 3383 53
3372 3413 65
3373 3371 107
3373 3287 122
3373 3377 222
3373 3455 120
3374 3366 89
3374 3282 134
3374 3378 97
3375 3222 252
3375 3384 12
3375 3441 140
3376 3333 167
3376 3405 122
3376 3430 81
3377 3373 222
3377 3294 122
3377 3381 112
3378 3374 97
3378 3286 134
3378 3531 243
3379 3352 93
3379 3339 57
3379 3295 132
3379 3367 103
3379 3418 178
3379 3452 114
3380 3288 152
3380 3431 311
3380 3465 162
3381 3377 112
3381 3300 148
3381 3443 166
3381 3454 106
3382 3315 94
3382 3332 148
3382 3424 164
3383 3372 53
3383 3397 77
3383 3425 63
3384 3375 12
3384 3364 234
3384 3461 116
3385 3361 151
3385 3356 43
3385 3410 157
3385 3421 47
3386 3387 54
3386 3524 245
3386 3548 497
3387 3386 54
3388 3180 278
3388 3392 163
3388 3426 59
3389 3358 218
3389 3319 94
3389 3402 69
3389 3523 213
3390 3312 118
3390 3351 146
3390 3440 214
3390 3529 238
3391 3276 299
3391 3471 139
3392 3388 163
3392 3302 131
3392 3393 17
3393 3392 17
3393 3336 113
3393 3446 106
3393 3468 167
3394 3359 47
3394 3323 166
3394 3456 175
3394 3469 109
3395 3343 119
3395 3441 105
3395 3400 221
3396 3342 144
3396 3321 120
3396 3478 130
3397 3383 77
3397 3283 173
3397 3423 97
3397 3489 133
3398 3212 436
3398 3240 402
3398 3545 397
3399 3281 209
3399 3416 54
3399 3491 383
3400 3347 124
3400 3343 104
3400 3395 221
3400 3462 105
3401 3232 331
3401 3304 503
3401 3874 702
3402 3389 69
3402 3427 143
3402 3437 46
3403 3341 99
3403 3434 54
3403 3500 258
3404 3357 67
3404 3413 50
3404 3442 61
3405 3376 122
3405 3273 203
3405 3451 212
3405 3488 129
3406 3336 152
3406 3347 105
3406 3462 124
3406 3468 111
3407 3350 82
3407 13301 529
3408 3360 1020
3408 3436 215
3408 3596 301
3409 3369 127
3409 3435 119
3409 3476 96
3410 3385 157
3410 3360 76
3410 3436 136
3410 3474 90
3411 3137 422
3411 2674 3281
3411 4557 3881
3412 3354 81
3412 3422 108
3412 3463 70
3413 3404 50
3413 3372 65
3413 3425 54
3413 3460 64
3414 3308 202
3414 3428 123
3415 3416 1126
3416 3415 1126
3416 3399 54
3416 3432 79
3417 3309 180
3417 3329 173
3417 3443 49
3418 3379 178
3418 3327 129
3418 3442 128
3418 3493 120
3419 3420 347
3419 3499 28
3420 3419 347
3421 3385 47
3421 3449 46
3422 3412 108
3422 3362 88
3422 3430 182
3422 3464 61
3423 3397 97
3423 3365 84
3423 3439 65
3423 3512 144
3424 3334 125
3424 3382 164
3424 3478 204
3425 3413 54
3425 3383 63
3425 3472 66
3426 3388 59
3426 3446 151
3426 3451 49
3427 3402 143
3427 3361 92
3427 3449 153
3427 3501 120
3428 3414 123
3428 3433 131
3428 3497 107
3429 2891 1074
3429 3504 965
3429 4032 1054
3430 3422 182
3430 3376 81
3430 3537 174
3431 3370 91
3431 3380 311
3431 3647 349
3432 3416 79
3432 3759 491
3432 4130 1797
3433 3428 131
3433 3350 119
3433 3438 27
3433 3586 245
3434 3403 54
3434 3349 213
3434 3510 213
3435 3409 119
3435 3443 168
3435 3563 210
3436 3410 136
3436 3360 190
3436 3408 215
3436 3492 87
3437 3402 46
3438 3433 27
3438 3350 120
3438 3444 145
3438 3588 245
3439 3423 65
3439 3368 104
3439 3450 49
3439 3511 118
3440 3332 164
3440 3390 214
3440 3584 246
3441 3395 105
3441 3375 140
3441 3503 109
3442 3418 128
3442 3404 61
3442 3460 52
3442 3519 126
3443 3381 166
3443 3417 49
3443 3435 168
3443 3454 125
3443 3526 139
3444 3438 145
3444 3338 154
3444 3456 152
3444 3514 114
3445 3330 162
3445 3328 243
3445 3470 125
3445 3533 194
3446 3426 151
3446 3393 106
3446 3484 72
3447 3448 1512
3447 2802 279
3448 3447 1512
3448 4338 158
3449 3427 153
3449 3421 46
3449 3459 47
3449 3485 58
3450 3439 49
3450 3371 119
3450 3455 107
3450 3509 98
3451 3405 212
3451 3426 49
3451 3484 134
3452 3453 147
3452 3379 114
3452 3473 84
3452 3494 66
3453 3452 147
3454 3381 106
3454 3443 125
3454 3542 146
3455 3450 107
3455 3373 120
3455 3517 106
3455 3556 313
3456 3444 152
3456 3348 156
3456 3394 175
3456 3469 136
3456 3514 192
3456 13302 192
3456 3521 111
3457 3458 1523
3457 4342 159
3458 3457 1523
3458 2803 280
3459 3449 47
3459 3467 48
3460 3442 52
3460 3413 64
3460 3472 52
3461 3384 116
3461 3503 206
3461 3506 90
3462 3406 124
3462 3400 105
3462 3505 125
3462 3508 108
3463 3412 70
3463 3464 107
3463 3495 51
3464 3463 107
3464 3422 61
3464 3539 130
3465 3335 209
3465 3466 38
3465 3325 208
3465 3380 162
3465 3789 535
3466 3465 38
3466 3179 396
3467 3459 48
3467 3474 64
3467 3543 132
3468 3393 167
3468 3406 111
3468 3508 125
3468 3518 120
3469 3456 136
3469 3394 109
3469 3475 135
3469 3528 109
3470 3363 150
3470 3445 125
3470 3476 126
3470 3533 114
3471 3391 139
3471 3341 307
3471 3500 110
3471 3580 256
3472 3460 52
3472 3425 66
3472 3489 103
3472 3592 207
3473 3452 84
3473 3493 93
3473 3546 129
3474 3467 64
3474 3410 90
3474 3492 146
3474 3530 106
3475 3469 135
3475 3323 211
3475 3483 130
3475 3540 111
3476 3409 96
3476 3470 126
3476 3551 123
3477 3308 241
3477 3487 153
3477 3559 134
3478 3396 130
3478 3324 223
3478 3424 204
3478 3710 386
3479 3480 16
3479 3482 35
3480 3479 16
3481 3482 18
3482 3481 18
3482 3479 35
3483 3475 130
3483 3345 200
3483 3486 59
3483 3630 248
3484 3451 134
3484 3446 72
3484 3518 176
3484 3558 130
3485 3449 58
3485 3501 140
3485 3554 110
3486 3483 59
3486 3495 95
3486 3635 250
3487 3477 153
3487 3497 130
3487 3566 135
3488 3405 129
3488 3498 90
3488 3535 84
3489 3472 103
3489 3397 133
3489 3512 103
3489 3587 159
3490 2674 2595
3490 1494 4889
3490 3631 304
3491 3281 373
3491 3399 383
3491 3696 939
3492 3474 146
3492 3436 87
3492 3599 191
3493 3473 93
3493 3418 120
3493 3519 144
3493 3564 129
3494 3452 66
3494 3522 61
3495 3486 95
3495 3463 51
3495 3541 81
3496 3340 268
3496 3507 182
3496 3557 120
3497 3487 130
3497 3428 107
3497 3575 136
3498 3488 90
3498 3499 97
3498 3544 117
3499 3498 97
3499 3419 28
3500 3471 110
3500 3403 258
3500 3510 67
3501 3427 120
3501 3485 140
3501 3513 144
3501 3565 110
3502 3036 2940
3503 3441 109
3503 3461 206
3503 3525 118
3504 2676 2023
3504 3429 965
3504 4126 1716
3505 3462 125
3505 3525 58
3505 3555 94
3506 3461 90
3506 3516 63
3506 3534 61
3507 3496 182
3507 3346 245
3507 3515 82
3507 3569 103
3508 3468 125
3508 3462 108
3508 3560 125
3508 3567 123
3509 3450 98
3509 3511 49
3509 3517 109
3509 3598 151
3510 3500 67
3510 3434 213
3510 3589 157
3511 3439 118
3511 3509 49
3511 3512 59
3511 3597 140
3512 3489 103
3512 3423 144
3512 3511 59
3512 3593 125
3513 3501 144
3513 3523 109
3513 3582 111
3514 3444 114
3514 3456 192
3514 13302 192
3514 3521 156
3514 3553 58
3514 3588 197
3515 3507 82
3515 3520 113
3515 3574 100
3516 3364 252
3516 3506 63
3516 3534 37
3517 3509 109
3517 3455 106
3517 3552 52
3518 3484 176
3518 3468 120
3518 3567 127
3518 3643 211
3519 3493 144
3519 3442 126
3519 3592 137
3519 3694 275
3520 3515 113
3520 3523 90
3520 3585 100
3521 3514 156
3521 3456 111
3521 3528 132
3521 3561 61
3522 3494 61
3522 3546 80
3522 3550 40
3523 3389 213
3523 3513 109
3523 3520 90
3523 3594 108
3524 3386 245
3524 3322 631
3524 3532 15
3524 3659 438
3525 3505 58
3525 3503 118
3525 3555 112
3526 3443 139
3526 3542 128
3526 3563 155
3526 3614 140
3527 3366 273
3527 3529 156
3527 3531 60
3527 3658 216
3528 3521 132
3528 3469 109
3528 3540 135
3528 3568 62
3529 3390 238
3529 3527 156
3529 3584 218
3529 3851 462
3530 3474 106
3530 3543 66
3530 3603 119
3531 3527 60
3531 3378 243
3531 3547 142
3532 3524 15
3532 3335 635
3532 3577 79
3532 3666 436
3533 3470 114
3533 3445 194
3533 3551 127
3533 3583 78
3534 3506 61
3534 3516 37
3534 3581 141
3534 3621 370
3534 3640 229
3535 3488 84
3535 3536 103
3535 3537 79
3535 3636 167
3536 3535 103
3536 3544 58
3536 3609 120
3537 3430 174
3537 3535 79
3537 3538 100
3537 3681 224
3538 3537 100
3538 3539 101
3538 3605 115
3539 3464 130
3539 3538 101
3539 3541 106
3539 3608 115
3540 3528 135
3540 3475 111
3540 3576 59
3541 3495 81
3541 3539 106
3541 3645 169
3542 3454 146
3542 3526 128
3542 3556 116
3542 3627 139
3543 3467 132
3543 3530 66
3543 3554 78
3544 3536 58
3544 3498 117
3544 3558 154
3544 3616 119
3545 3398 397
3545 3690 239
3545 3757 484
3546 3522 80
3546 3473 129
3546 3564 94
3547 3531 142
3547 3559 172
3547 3665 190
3548 3549 179
3548 3386 497
3548 3615 141
3549 3548 179
3550 3522 40
3550 3621 125
3551 3476 123
3551 3533 127
3551 3563 119
3551 3602 91
3552 3517 52
3552 3572 66
3552 3579 48
3553 3514 58
3553 3561 156
3553 3595 73
3554 3485 110
3554 3543 78
3554 3565 141
3554 3624 118
3555 3505 94
3555 3525 112
3555 3560 17
3556 3455 313
3556 3542 116
3556 3562 122
3556 3607 96
3557 3496 120
3557 3569 234
3557 3620 120
3558 3544 154
3558 3484 130
3558 3626 162
3558 3628 136
3558 3650 154
3559 3547 172
3559 3477 134
3559 3566 150
3559 3677 191
3560 3508 125
3560 3555 17
3560 3617 119
3560 3652 176
3561 3553 156
3561 3521 61
3561 3568 133
3561 3601 72
3562 3556 122
3562 3571 70
3562 3622 96
3563 3526 155
3563 3435 210
3563 3551 119
3563 3700 205
3564 3546 94
3564 3493 129
3564 3573 15
3565 3501 110
3565 3554 141
3565 3582 144
3565 3634 118
3566 3559 150
3566 3487 135
3566 3570 66
3567 3518 127
3567 3508 123
3567 3617 123
3567 3662 174
3568 3561 133
3568 3528 62
3568 3576 133
3568 3612 72
3569 3557 234
3569 3507 103
3569 3574 81
3569 3670 157
3570 3566 66
3570 3575 69
3570 3697 190
3571 3562 70
3571 3572 13
3571 3633 163
3572 3552 66
3572 3571 13
3572 3579 56
3573 3564 15
3573 3629 103
3573 3632 184
3574 3569 81
3574 3515 100
3574 3585 114
3574 3676 158
3575 3570 69
3575 3497 136
3575 3586 125
3576 3568 133
3576 3540 59
3576 3623 75
3577 3532 79
3577 3723 224
3577 3725 249
3578 3225 707
3579 3552 48
3579 3572 56
3579 3613 65
3580 3353 355
3580 3471 256
3580 3596 67
3580 3778 316
3581 3534 141
3581 3604 116
3581 3698 192
3582 3513 111
3582 3565 144
3582 3594 110
3582 3655 118
3583 3533 78
3583 3602 148
3583 3618 61
3584 3440 246
3584 3529 218
3584 3611 118
3584 3674 155
3585 3574 114
3585 3520 100
3585 3594 121
3585 3667 130
3586 3575 125
3586 3433 245
3586 3588 25
3586 3715 190
3587 3489 159
3587 3593 93
3587 3625 118
3588 3586 25
3588 3438 245
3588 3514 197
3588 3595 146
3588 3720 190
3589 3510 157
3590 3591 353
3591 3590 353
3592 3519 137
3592 3472 207
3592 3625 70
3593 3587 93
3593 3512 125
3593 3597 59
3593 3668 118
3594 3585 121
3594 3523 108
3594 3582 110
3594 3669 121
3595 3588 146
3595 3553 73
3595 3601 156
3595 3732 193
3596 3408 301
3596 3580 67
3596 3600 184
3597 3593 59
3597 3511 140
3597 3598 47
3598 3597 47
3598 3509 151
3598 3613 79
3599 3492 191
3599 3600 52
3599 3603 135
3600 3599 52
3600 3596 184
3600 3714 389
3601 3595 156
3601 3561 72
3601 3612 132
3601 3749 193
3602 3551 91
3602 3583 148
3602 3675 108
3603 3530 119
3603 3599 135
3603 3624 149
3604 3581 116
3604 3644 176
3604 3731 196
3605 3538 115
3605 3608 101
3605 3660 74
3606 2773 1800
3606 3639 91
3606 3775 388
3606 3785 391
3607 3556 96
3607 3622 127
3607 3627 151
3608 3539 115
3608 3605 101
3608 3651 63
3609 3536 120
3609 3610 34
3609 3641 50
3610 3609 34
3610 3616 41
3610 3637 50
3611 3584 118
3611 3646 149
3611 3711 151
3612 3601 132
3612 3568 72
3612 3619 72
3612 3638 60
3613 3598 79
3613 3579 65
3613 3633 55
3613 3689 136
3614 3526 140
3614 3627 127
3614 3726 154
3615 3548 141
3615 3690 249
3615 3722 165
3616 3610 41
3616 3544 119
3616 3628 75
3616 3642 45
3617 3567 123
3617 3560 119
3617 3657 102
3618 3583 61
3618 3620 35
3618 3648 51
3618 3654 70
3619 3612 72
3619 3623 62
3619 3638 62
3620 3618 35
3620 3557 120
3620 3648 51
3620 3649 55
3621 3534 370
3621 3550 125
3621 3632 65
3622 3562 96
3622 3607 127
3622 3663 62
3623 3619 62
3623 3576 75
3623 3630 131
3623 3901 351
3624 3554 118
3624 3603 149
3624 3634 138
3624 3714 127
3625 3592 70
3625 3587 118
3625 3661 91
3625 3664 69
3626 3558 162
3626 3643 50
3626 3671 75
3627 3542 139
3627 3614 127
3627 3607 151
3627 3750 162
3628 3616 75
3628 3558 136
3628 3650 89
3628 3653 44
3629 3573 103
3629 3695 103
3630 3623 131
3630 3483 248
3630 3635 82
3630 3897 326
3631 3490 304
3631 2322 4072
3631 4374 1792
3632 3621 65
3632 3573 184
3632 3692 215
3633 3613 55
3633 3571 163
3633 3663 185
3634 3565 118
3634 3624 138
3634 3655 143
3634 3733 125
3635 3630 82
3635 3486 250
3635 3645 98
3635 3896 319
3636 3535 167
3636 3641 105
3636 3704 89
3637 3610 50
3637 3641 36
3637 3642 34
3638 3612 60
3638 3619 62
3638 3912 336
3639 3606 91
3639 13297 77
3640 3534 229
3640 3652 245
3640 3698 208
3640 3656 468
3641 3636 105
3641 3609 50
3641 3637 36
3641 3728 108
3642 3637 34
3642 3616 45
3642 3653 62
3642 3679 51
3643 3626 50
3643 3518 211
3643 3662 77
3644 3604 176
3644 3702 223
3644 3742 133
3645 3635 98
3645 3541 169
3645 3651 110
3645 3894 300
3646 3611 149
3646 3678 121
3646 3760 152
3647 3431 349
3647 3370 533
3647 3819 199
3648 3618 51
3648 3620 51
3648 3649 40
3648 3654 45
3648 3673 34
3649 3648 40
3649 3620 55
3649 3670 253
3649 3673 48
3650 3628 89
3650 3558 154
3650 3671 73
3650 3680 45
3651 3645 110
3651 3608 63
3651 3660 102
3652 3560 176
3652 3640 245
3652 3656 84
3653 3642 62
3653 3628 44
3653 3680 88
3653 3683 43
3654 3618 70
3654 3648 45
3654 3673 62
3654 3675 132
3655 3582 118
3655 3634 143
3655 3669 110
3655 3756 123
3656 3652 84
3656 3657 7
3656 3640 468
3657 3617 102
3657 3656 7
3657 3684 186
3658 3527 216
3658 3665 104
3658 3829 220
3659 3524 438
3659 3666 15
3659 3722 170
3660 3651 102
3660 3605 74
3660 3681 96
3661 3625 91
3661 3701 102
3661 3712 119
3662 3643 77
3662 3567 174
3662 3684 89
3662 3699 53
3663 3622 62
3663 3633 185
3663 3786 148
3664 3625 69
3664 3668 150
3664 3672 12
3664 3708 71
3665 3658 104
3665 3547 190
3665 3677 168
3665 3829 193
3666 3659 15
3666 3532 436
3666 3764 243
3666 3957 430
3667 3585 130
3667 3685 37
3667 3688 46
3668 3664 150
3668 3593 118
3668 3689 112
3668 3743 91
3669 3594 121
3669 3655 110
3669 3685 132
3669 3772 121
3670 3649 253
3670 3569 157
3670 3676 85
3670 3768 114
3671 3650 73
3671 3626 75
3671 3686 19
3672 3664 12
3672 3712 54
3673 3654 62
3673 3648 34
3673 3649 48
3673 3740 86
3674 3584 155
3674 3711 120
3674 3754 96
3675 3602 108
3675 3654 132
3675 3700 127
3675 3769 157
3676 3670 85
3676 3574 158
3676 3688 81
3677 3665 168
3677 3559 191
3677 3697 219
3677 3844 191
3678 3646 121
3678 3710 123
3678 3799 150
3679 3642 51
3679 3683 47
3679 3737 69
3680 3653 88
3680 3650 45
3680 3693 44
3680 3703 33
3681 3660 96
3681 3537 224
3681 3704 88
3682 3232 828
3683 3679 47
3683 3653 43
3683 3707 75
3683 3738 70
3684 3662 89
3684 3657 186
3684 3699 100
3685 3667 37
3685 3669 132
3685 3705 27
3686 3671 19
3686 3687 14
3686 3691 38
3687 3686 14
3687 3699 118
3687 3765 101
3688 3676 81
3688 3667 46
3688 3716 49
3689 3668 112
3689 3613 136
3689 3762 97
3689 3804 198
3690 3545 239
3690 3615 249
3690 3830 206
3691 3686 38
3691 3693 9
3691 3782 107
3692 3632 215
3692 3695 50
3692 3702 89
3693 3680 44
3693 3691 9
3693 3703 56
3694 3519 275
3694 3695 26
3694 3701 23
3695 3629 103
3695 3694 26
3695 3692 50
3696 3491 939
3697 3677 219
3697 3570 190
3697 3715 193
3697 3863 190
3698 3640 208
3698 3581 192
3698 3731 97
3699 3687 118
3699 3662 53
3699 3684 100
3699 3730 33
3699 3765 112
3700 3563 205
3700 3675 127
3700 3726 95
3701 3694 23
3701 3661 102
3701 3706 8
3702 3644 223
3702 3713 19
3702 3692 89
3703 3680 33
3703 3693 56
3703 3707 13
3703 3818 123
3704 3681 88
3704 3636 89
3704 3728 106
3704 3922 261
3705 3685 27
3705 3716 32
3705 3781 110
3706 3701 8
3706 3729 27
3706 3739 50
3707 3683 75
3707 3703 13
3707 3738 96
3708 3664 71
3708 3767 75
3709 3262 925
3710 3478 386
3710 3678 123
3710 3837 156
3711 3611 151
3711 3674 120
3711 3760 140
3711 3792 96
3712 3661 119
3712 3672 54
3712 3777 77
3713 3702 19
3713 3744 55
3713 3745 42
3714 3624 127
3714 3600 389
3714 3733 141
3714 3800 100
3715 3697 193
3715 3586 190
3715 3720 27
3715 3879 192
3716 3688 49
3716 3705 32
3716 3783 79
3717 3036 1365
3717 3798 925
3717 4288 1319
3718 3719 36
3718 3721 45
3718 3747 35
3719 3718 36
3720 3715 27
3720 3588 190
3720 3732 144
3720 3884 192
3721 3718 45
3721 3723 60
3721 3752 35
3722 3615 165
3722 3659 170
3722 3753 71
3723 3577 224
3723 3721 60
3723 3724 60
3724 3723 60
3724 3725 43
3724 3758 36
3725 3577 249
3725 3724 43
3725 3727 19
3726 3614 154
3726 3700 95
3726 3750 125
3726 3886 191
3727 3725 19
3728 3704 106
3728 3641 108
3728 3736 66
3729 3706 27
3729 3746 26
3730 3699 33
3730 3787 69
3731 3698 97
3731 3604 196
3731 3734 19
3731 3741 20
3732 3720 144
3732 3595 193
3732 3749 156
3732 3895 190
3733 3634 125
3733 3714 141
3733 3756 143
3733 3828 106
3734 3731 19
3734 3735 21
3734 3741 7
3734 3796 184
3735 3734 21
3736 3728 66
3736 3737 10
3736 3831 107
3737 3736 10
3737 3679 69
3737 3738 22
3738 3737 22
3738 3683 70
3738 3707 96
3739 3706 50
3739 3746 48
3739 3777 115
3740 3673 86
3740 3768 242
3740 3769 97
3740 3840 122
3741 3731 20
3741 3734 7
3741 3755 18
3741 3870 175
3742 3644 133
3742 3796 64
3742 3802 181
3743 3668 91
3743 3751 32
3743 3763 21
3743 3767 75
3744 3713 55
3744 3745 35
3744 3746 31
3744 3771 31
3745 3713 42
3745 3744 35
3745 3802 125
3746 3729 26
3746 3739 48
3746 3744 31
3746 3771 32
3747 3718 35
3747 3748 49
3747 3752 45
3747 3809 67
3748 3747 49
3749 3732 156
3749 3601 193
3749 3908 190
3750 3627 162
3750 3726 125
3750 3761 57
3750 3905 197
3751 3743 32
3751 3762 28
3751 3766 18
3752 3721 35
3752 3747 45
3752 3758 120
3752 3806 62
3753 3722 71
3753 3794 98
3754 3674 96
3754 3792 119
3754 3889 169
3755 3741 18
3755 3774 24
3755 3795 123
3756 3655 123
3756 3733 143
3756 3772 111
3756 3841 103
3757 3545 484
3757 3775 34
3757 3784 34
3758 3724 36
3758 3752 120
3758 3791 40
3759 3432 491
3759 4011 621
3760 3646 152
3760 3711 140
3760 3799 128
3760 3834 96
3761 3750 57
3761 3770 54
3761 3813 58
3762 3751 28
3762 3689 97
3762 3776 18
3762 3803 60
3763 3743 21
3763 3766 26
3763 3780 64
3764 3666 243
3764 3821 87
3765 3687 101
3765 3699 112
3765 3782 57
3766 3763 26
3766 3751 18
3766 3776 24
3766 3797 37
3767 3708 75
3767 3743 75
3767 3780 18
3767 3790 35
3768 3740 242
3768 3670 114
3768 3783 182
3768 3866 114
3769 3675 157
3769 3740 97
3769 3929 224
3770 3761 54
3770 3773 32
3770 3813 67
3771 3744 31
3771 3746 32
3771 3900 155
3772 3669 121
3772 3756 111
3772 3781 83
3773 3770 32
3773 3786 97
3774 3755 24
3774 3779 9
3774 3808 62
3775 3606 388
3775 3757 34
3775 3784 18
3776 3766 24
3776 3762 18
3776 3810 49
3777 3739 115
3777 3712 77
3777 3805 94
3777 3883 130
3778 3580 316
3778 3816 106
3779 3774 9
3779 3852 316
3780 3767 18
3780 3763 64
3780 3793 21
3781 3705 110
3781 3772 83
3781 3783 126
3781 3861 118
3782 3691 107
3782 3765 57
3782 3818 96
3783 3768 182
3783 3716 79
3783 3781 126
3783 3877 115
3784 3775 18
3784 3757 34
3784 3785 17
3784 3807 27
3785 3606 391
3785 3784 17
3785 3807 25
3786 3663 148
3786 3773 97
3786 3804 156
3786 3845 69
3787 3788 98
3787 3869 101
3787 3944 633
3787 3730 69
3788 3787 98
3788 3832 294
3788 3891 181
3789 3465 535
3789 3819 85
3789 3893 137
3790 3767 35
3791 3758 40
3791 3814 26
3791 3817 33
3792 3711 96
3792 3754 119
3792 3834 139
3792 3918 169
3793 3780 21
3793 3805 41
3793 3838 60
3794 3753 98
3794 3815 26
3794 3821 50
3795 3755 123
3795 3808 100
3795 3811 35
3796 3734 184
3796 3742 64
3796 3811 21
3796 3820 27
3797 3766 37
3797 3801 43
3797 3812 25
3797 3843 58
3798 3717 925
3799 3678 150
3799 3760 128
3799 3837 126
3799 3875 96
3800 3714 100
3800 3828 144
3801 3797 43
3802 3742 181
3802 3745 125
3802 3839 92
3802 3941 213
3803 3762 60
3804 3689 198
3804 3786 156
3804 3827 150
3804 3902 129
3805 3777 94
3805 3793 41
3805 3838 46
3806 3752 62
3806 3809 44
3806 3814 112
3807 3785 25
3807 3784 27
3807 4030 501
3808 3774 62
3808 3795 100
3808 3857 82
3809 3806 44
3809 3747 67
3809 3848 222
3810 3776 49
3810 3827 38
3810 3846 44
3811 3795 35
3811 3796 21
3811 3820 27
3811 3822 23
3812 3797 25
3813 3770 67
3813 3761 58
3813 3890 100
3814 3791 26
3814 3806 112
3814 3817 33
3815 3794 26
3815 3823 56
3815 3830 23
3816 3778 106
3816 3876 316
3817 3791 33
3817 3814 33
3817 3847 134
3818 3703 123
3818 3782 96
3818 3864 165
3819 3647 199
3819 3789 85
3819 3873 72
3820 3811 27
3820 3796 27
3820 3871 74
3821 3794 50
3821 3764 87
3821 3823 5
3822 3811 23
3822 3833 28
3823 3821 5
3823 3815 56
3823 3850 46
3824 3825 129
3824 3826 284
3824 3831 11
3824 3826 141
3825 3824 129
3826 3824 284
3826 3824 141
3827 3810 38
3827 3804 150
3827 3846 37
3828 3733 106
3828 3800 144
3828 3841 142
3828 3868 49
3829 3658 220
3829 3665 193
3829 3844 167
3829 3851 144
3829 3965 237
3830 3690 206
3830 3815 23
3830 3850 29
3830 3865 53
3831 3824 11
3831 3736 107
3831 3864 38
3832 3788 294
3832 3856 85
3832 3925 136
3833 3822 28
3833 3852 30
3833 3921 121
3834 3760 96
3834 3792 139
3834 3875 129
3834 3934 168
3835 3836 117
3835 3858 176
3835 4036 655
3836 3835 117
3837 3710 156
3837 3799 126
3837 3915 96
3838 3805 46
3838 3793 60
3838 3855 22
3839 3802 92
3839 3871 79
3839 3924 164
3840 3740 122
3840 3866 185
3840 3919 104
3840 3929 249
3841 3756 103
3841 3828 142
3841 3861 139
3841 3888 54
3842 3843 38
3843 3842 38
3843 3797 58
3843 3849 24
3843 3882 50
3844 3829 167
3844 3677 191
3844 3862 203
3844 3967 225
3845 3786 69
3845 3890 152
3845 3930 137
3846 3810 44
3846 3827 37
3846 3872 43
3846 3887 54
3847 3817 134
3848 3809 222
3849 3843 24
3850 3830 29
3850 3823 46
3850 3865 54
3850 4022 395
3851 3529 462
3851 3829 144
3851 3889 226
3852 3833 30
3852 3779 316
3853 3854 1376
3853 4007 973
3854 3853 1376
3854 3146 32
3855 3838 22
3855 3859 15
3855 3898 62
3856 3832 85
3856 3904 112
3856 3936 145
3857 3808 82
3858 3835 176
3859 3860 39
3859 3855 15
3859 3883 130
3859 3911 72
3860 3859 39
3861 3781 118
3861 3841 139
3861 3877 234
3861 3943 181
3862 3844 203
3862 3863 15
3862 4009 330
3863 3862 15
3863 3697 190
3863 3867 23
3864 3831 38
3864 3818 165
3864 3922 215
3865 3830 53
3865 3850 54
3865 4012 671
3866 3840 185
3866 3768 114
3866 3877 161
3867 3863 23
3867 3878 61
3867 3879 171
3868 3828 49
3868 3888 143
3869 3787 101
3869 3892 31
3869 4016 380
3870 3741 175
3870 3953 101
3871 3820 74
3871 3839 79
3871 3921 135
3871 3924 82
3872 3846 43
3872 3887 47
3872 3902 118
3873 3819 72
3873 3880 182
3873 3893 22
3874 3306 1165
3874 3401 702
3874 3931 100
3875 3799 96
3875 3834 129
3875 3915 126
3875 3956 168
3876 3816 316
3876 3937 280
3876 3958 259
3877 3866 161
3877 3783 115
3877 3861 234
3877 4039 431
3878 3867 61
3878 13305 224
3879 3867 171
3879 3715 192
3879 3884 30
3879 4001 295
3880 3873 182
3880 3932 103
3881 3882 27
3882 3881 27
3882 3843 50
3882 3885 26
3882 3913 39
3883 3777 130
3883 3859 130
3883 3900 147
3883 3935 154
3884 3879 30
3884 3720 192
3884 3895 143
3884 3998 280
3885 3882 26
3886 3726 191
3886 3927 69
3886 3942 292
3887 3846 54
3887 3872 47
3887 3899 25
3888 3841 54
3888 3868 143
3888 3903 25
3889 3754 169
3889 3851 226
3889 3918 119
3889 3974 201
3890 3845 152
3890 3813 100
3890 3905 73
3890 3906 28
3891 3788 181
3891 3925 144
3891 3946 126
3892 3869 31
3892 3946 150
3892 4021 357
3893 3789 137
3893 3873 22
3893 3961 154
3894 3645 300
3894 3896 107
3894 3922 394
3895 3884 143
3895 3732 190
3895 3908 154
3895 3962 152
3896 3635 319
3896 3894 107
3896 3897 51
3897 3630 326
3897 3896 51
3897 3901 138
3898 3855 62
3898 3911 16
3898 3913 29
3899 3887 25
3899 3909 13
3899 3917 63
3900 3771 155
3900 3883 147
3900 3933 75
3901 3623 351
3901 3897 138
3901 3912 91
3902 3872 118
3902 3804 129
3902 3930 142
3902 3959 136
3903 3888 25
3904 3856 112
3904 3949 155
3904 3955 133
3905 3890 73
3905 3750 197
3905 3914 14
3906 3890 28
3906 3950 108
3907 3262 1265
3908 3895 154
3908 3749 190
3908 3912 172
3909 3899 13
3909 3910 43
3909 3923 71
3909 3951 125
3910 3909 43
3911 3859 72
3911 3898 16
3911 3920 36
3911 3935 81
3912 3638 336
3912 3901 91
3912 3908 172
3913 3898 29
3913 3882 39
3913 3917 30
3913 3920 15
3914 3905 14
3914 3927 98
3914 3960 136
3915 3837 96
3915 3875 126
3915 3975 167
3916 3968 215
3917 3913 30
3917 3899 63
3917 3923 12
3918 3792 169
3918 3889 119
3918 3934 138
3918 4051 407
3919 3840 104
3919 3979 216
3919 3983 176
3920 3911 36
3920 3913 15
3920 3923 32
3921 3833 121
3921 3871 135
3921 3986 204
3922 3894 394
3922 3704 261
3922 3864 215
3922 3926 17
3923 3920 32
3923 3917 12
3923 3909 71
3923 3969 130
3924 3871 82
3924 3839 164
3924 3963 124
3925 3891 144
3925 3832 136
3925 3928 20
3926 3922 17
3926 3945 45
3927 3914 98
3927 3886 69
3927 3947 165
3927 3978 137
3928 3925 20
3928 3936 65
3928 3973 130
3929 3769 224
3929 3840 249
3929 3942 37
3930 3902 142
3930 3845 137
3930 3950 149
3930 3982 144
3931 3874 100
3931 4130 1190
3931 4551 2189
3932 3880 103
3932 3954 126
3932 4008 218
3933 3900 75
3933 3948 33
3934 3834 168
3934 3918 138
3934 3956 129
3935 3883 154
3935 3911 81
3935 3969 133
3935 3977 124
3936 3928 65
3936 3856 145
3936 3955 93
3936 3985 130
3937 3876 280
3937 3943 481
3937 3990 340
3938 3939 173
3938 3940 148
3938 3970 84
3939 3938 173
3939 13298 165
3940 3938 148
3940 13304 73
3941 3802 213
3941 3948 82
3941 3963 127
3942 3886 292
3942 3929 37
3942 3966 67
3942 3979 140
3943 3861 181
3943 3937 481
3943 3990 149
3944 3945 8
3944 3787 633
3944 4016 737
3944 4020 1313
3945 3944 8
3945 3926 45
3946 3892 150
3946 3891 126
3946 3973 162
3947 3927 165
3947 3966 127
3947 3993 141
3948 3941 82
3948 3933 33
3948 3977 204
3948 3987 103
3949 3904 155
3949 3952 14
3949 3988 131
3950 3930 149
3950 3906 108
3950 3960 89
3950 3995 139
3951 3909 125
3951 3959 56
3951 3971 48
3952 3949 14
3952 3953 88
3952 3992 168
3953 3952 88
3953 3870 101
3954 3932 126
3954 3961 121
3954 4023 223
3955 3936 93
3955 3904 133
3955 3980 61
3956 3875 168
3956 3934 129
3956 3975 129
3957 3666 430
3957 3981 178
3957 3981 173
3958 3876 259
3959 3951 56
3959 3902 136
3959 3971 67
3959 3991 117
3960 3950 89
3960 3914 136
3960 3978 95
3961 3893 154
3961 3954 121
3961 4159 463
3962 3895 152
3963 3924 124
3963 3941 127
3963 3986 131
3963 4002 135
3964 3965 90
3964 3972 563
3965 3964 90
3965 3829 237
3965 3972 101
3966 3947 127
3966 3942 67
3966 4010 140
3967 3844 225
3967 3968 20
3967 3976 20
3967 4064 288
3968 3967 20
3968 3916 215
3968 4031 259
3969 3935 133
3969 3923 130
3969 3971 134
3969 4014 132
3970 3938 84
3970 13333 559
3971 3969 134
3971 3951 48
3971 3959 67
3971 4000 127
3972 3965 101
3972 3976 69
3972 3964 563
3973 3946 162
3973 3928 130
3973 3985 66
3974 3889 201
3974 3997 91
3974 4045 249
3974 13316 397
3975 3915 167
3975 3956 129
3975 4051 629
3976 3972 69
3976 3967 20
3976 4070 282
3977 3948 204
3977 3935 124
3977 3984 40
3977 4013 149
3978 3960 95
3978 3927 137
3978 3993 166
3978 4018 144
3979 3942 140
3979 3919 216
3979 3989 121
3979 4024 157
3980 3955 61
3980 3988 112
3980 3999 90
3981 3957 178
3981 3957 173
3981 3996 65
3982 3930 144
3982 3991 68
3982 3995 148
3983 3919 176
3983 3989 102
3983 4037 196
3984 3977 40
3984 4014 171
3985 3973 66
3985 3936 130
3985 3994 91
3986 3921 204
3986 3963 131
3986 4015 144
3987 3948 103
3987 4002 132
3987 4013 142
3987 4042 178
3988 3980 112
3988 3949 131
3988 4017 106
3989 3979 121
3989 3983 102
3989 4035 156
3990 3943 149
3990 3937 340
3990 4054 494
3991 3959 117
3991 3982 68
3991 4000 64
3991 4052 214
3992 3952 168
3992 4026 124
3992 4040 182
3993 3978 166
3993 3947 141
3993 4010 128
3993 4041 159
3994 3985 91
3994 3999 46
3995 3982 148
3995 3950 139
3995 4018 188
3995 4049 173
3996 3981 65
3996 4043 141
3996 4056 432
3997 3974 91
3997 4048 157
3998 3884 280
3998 4019 38
3999 3994 46
3999 3980 90
3999 4017 95
4000 3971 127
4000 3991 64
4000 4025 103
4000 4068 213
4001 3879 295
4001 4100 45
4002 3963 135
4002 3987 132
4002 4015 70
4002 4042 161
4003 4004 140
4003 4029 134
4003 4095 225
4004 4003 140
4005 4006 2234
4005 4007 3059
4005 4188 1667
4006 4005 2234
4007 4005 3059
4007 3853 973
4008 3932 218
4008 4023 102
4008 4181 388
4009 3862 330
4010 3993 128
4010 3966 140
4010 4024 129
4010 4085 196
4011 3759 621
4012 3865 671
4012 4030 199
4012 4063 166
4013 3987 142
4013 3977 149
4013 4053 159
4014 3984 171
4014 3969 132
4014 4025 138
4014 4072 164
4015 3986 144
4015 4002 70
4016 3944 737
4016 3869 380
4016 4021 20
4017 3999 95
4017 3988 106
4017 4040 180
4018 3995 188
4018 3978 144
4018 4027 23
4018 4055 227
4019 4020 15
4019 3998 38
4020 4019 15
4020 3944 1313
4020 4099 186
4021 4016 20
4021 3892 357
4021 4104 443
4022 3850 395
4022 4028 76
4022 4151 408
4023 3954 223
4023 4008 102
4023 4190 376
4024 4010 129
4024 3979 157
4024 4035 123
4024 4081 146
4025 4014 138
4025 4000 103
4025 4074 130
4026 3992 124
4026 4038 121
4026 4060 119
4027 4018 23
4027 4041 159
4027 4084 133
4028 4022 76
4028 4043 264
4028 4105 175
4029 4003 134
4030 3807 501
4030 4012 199
4030 4033 117
4031 3968 259
4032 3429 1054
4032 4101 492
4032 4429 1599
4033 4034 218
4033 4030 117
4033 4036 112
4033 4062 189
4034 4033 218
4035 4024 123
4035 3989 156
4035 4046 82
4035 4077 97
4036 3835 655
4036 4033 112
4036 4082 229
4037 3983 196
4037 4039 60
4037 4059 78
4038 4026 121
4038 4113 300
4038 4200 330
4039 4037 60
4039 3877 431
4039 4044 20
4040 4017 180
4040 3992 182
4040 4060 128
4041 4027 159
4041 3993 159
4041 4086 84
4042 4002 161
4042 3987 178
4042 4053 39
4042 4069 73
4043 4028 264
4043 3996 141
4043 4075 263
4044 4039 20
4044 4054 56
4044 4058 44
4045 3974 249
4045 4048 23
4045 4066 52
4046 4035 82
4046 4047 99
4046 4059 97
4047 4046 99
4048 3997 157
4048 4045 23
4048 4050 95
4048 4061 41
4049 3995 173
4049 4052 20
4049 4055 43
4050 4048 95
4050 4051 26
4050 4061 127
4051 3975 629
4051 3918 407
4051 4050 26
4052 3991 214
4052 4049 20
4052 4068 64
4053 4042 39
4053 4013 159
4053 4069 69
4053 4071 65
4054 4044 56
4054 3990 494
4054 4058 31
4055 4049 43
4055 4018 227
4055 4080 38
4056 3996 432
4056 4057 179
4056 4088 41
4057 4056 179
4058 4044 44
4058 4054 31
4058 4094 50
4059 4046 97
4059 4037 78
4059 4079 65
4059 4092 62
4060 4040 128
4060 4026 119
4060 4198 289
4061 4050 127
4061 4048 41
4061 4098 56
4062 4033 189
4062 4067 18
4062 4150 184
4063 4012 166
4063 4117 111
4063 4165 263
4064 3967 288
4064 4065 303
4064 4066 316
4065 4064 303
4066 4045 52
4066 4064 316
4066 4097 49
4067 4062 18
4067 4082 130
4067 4107 80
4068 4000 213
4068 4052 64
4068 4076 17
4069 4042 73
4069 4053 69
4069 4114 105
4070 3976 282
4070 13309 94
4071 4053 65
4071 4073 149
4071 4078 78
4072 4014 164
4072 4073 151
4072 4074 147
4072 4196 231
4073 4071 149
4073 4072 151
4073 4160 153
4074 4072 147
4074 4025 130
4074 4076 193
4074 4177 204
4075 4043 263
4075 4088 41
4075 4103 48
4076 4074 193
4076 4068 17
4076 4080 120
4076 4110 78
4077 4035 97
4077 4081 133
4077 4089 52
4078 4071 78
4078 4083 18
4078 4160 232
4079 4059 65
4079 4092 108
4079 4093 29
4080 4076 120
4080 4055 38
4080 4084 186
4080 4108 90
4081 4024 146
4081 4077 133
4081 4087 45
4082 4036 229
4082 4067 130
4082 4095 57
4083 4078 18
4083 4153 104
4084 4080 186
4084 4027 133
4084 4086 139
4085 4010 196
4085 4086 125
4085 4087 90
4085 4106 53
4086 4084 139
4086 4041 84
4086 4085 125
4087 4085 90
4087 4081 45
4087 4089 230
4088 4075 41
4088 4056 41
4088 4090 30
4089 4077 52
4089 4091 65
4089 4087 230
4089 13337 862
4090 4088 30
4090 4103 56
4090 4147 644
4091 4089 65
4091 4092 41
4091 4174 154
4092 4091 41
4092 4059 62
4092 4079 108
4093 4079 29
4093 4094 39
4093 4111 56
4094 4093 39
4094 4058 50
4094 4180 470
4095 4003 225
4095 4082 57
4095 4096 6
4096 4095 6
4096 4109 124
4096 4112 47
4097 4066 49
4097 4143 112
4097 4227 112
4098 4061 56
4098 4162 107
4098 4235 107
4099 4100 185
4099 4020 186
4099 4154 50
4100 4099 185
4100 4001 45
4101 4032 492
4101 4102 258
4101 4510 1410
4102 4101 258
4103 4075 48
4103 4090 56
4103 4149 87
4104 4021 443
4104 4121 47
4104 4198 435
4105 4028 175
4105 4149 528
4105 4149 689
4106 4085 53
4106 4174 432
4107 4067 80
4107 4122 99
4107 4148 68
4108 4080 90
4108 4110 25
4108 4218 356
4109 4096 124
4109 4123 171
4109 4166 90
4110 4076 78
4110 4108 25
4110 4193 167
4111 4093 56
4111 4221 130
4112 4096 47
4112 4122 85
4112 4166 207
4113 4038 300
4113 4114 20
4113 4127 23
4114 4113 20
4114 4069 105
4115 4116 427
4115 4185 494
4116 4115 427
4116 4119 173
4116 4128 18
4117 4063 111
4117 4165 157
4117 4186 125
4118 4119 381
4118 13310 86
4119 4118 381
4119 4116 173
4119 13317 447
4119 13319 284
4120 4121 316
4121 4120 316
4121 4104 47
4121 4191 297
4122 4112 85
4122 4107 99
4122 4173 418
4123 4124 320
4123 4109 171
4123 4156 119
4124 4123 320
4125 4126 58
4126 4125 58
4126 3504 1716
4126 4429 1391
4126 4449 892
4127 4113 23
4127 4152 36
4127 4168 151
4128 4116 18
4128 4129 655
4128 4136 198
4129 4128 655
4129 4184 410
4129 4184 421
4130 3931 1190
4130 3432 1797
4130 4457 2526
4131 4132 154
4131 4133 60
4131 4134 628
4132 4131 154
4132 13315 141
4133 4131 60
4133 13318 214
4134 4135 74
4134 4131 628
4134 4141 58
4135 4134 74
4135 13316 194
4136 4128 198
4136 4137 13
4136 4241 265
4137 4136 13
4137 4145 233
4137 4242 265
4138 4139 93
4138 4140 9
4138 4167 64
4139 4138 93
4139 4176 88
4139 13327 251
4140 4138 9
4140 13326 88
4141 4134 58
4141 4142 267
4141 4157 46
4141 4208 986
4142 4141 267
4142 13328 58
4143 4144 51
4143 4097 112
4143 4227 112
4144 4143 51
4144 4175 316
4144 4175 297
4145 4137 233
4145 4146 18
4145 4203 137
4146 4145 18
4146 4158 64
4147 4090 644
4147 4192 297
4147 4195 122
4148 4107 68
4149 4103 87
4149 4105 528
4149 4105 689
4150 4062 184
4151 4022 408
4151 4179 188
4151 4222 191
4152 4127 36
4152 4153 46
4152 4194 107
4152 4213 188
4153 4152 46
4153 4083 104
4154 4155 43
4154 4099 50
4155 4154 43
4155 4163 169
4155 4178 145
4155 4197 101
4156 4123 119
4156 4422 1566
4157 4141 46
4157 4161 89
4157 4162 377
4158 4146 64
4158 4164 13
4158 4178 104
4159 3961 463
4159 4192 89
4159 4270 327
4160 4078 232
4160 4073 153
4160 4196 200
4161 4157 89
4161 4171 288
4161 4217 162
4162 4157 377
4162 4098 107
4162 4235 107
4163 4155 169
4163 4183 205
4163 4232 264
4164 4158 13
4164 4204 126
4164 4204 204
4164 4205 113
4165 4063 263
4165 4117 157
4165 4186 211
4165 4292 683
4166 4109 90
4166 4173 75
4166 4112 207
4167 4138 64
4167 4183 52
4167 4187 53
4168 4127 151
4168 4189 102
4168 4216 155
4169 4170 197
4170 4169 197
4170 4195 242
4170 4223 328
4171 4161 288
4171 4201 335
4171 4274 295
4172 4173 35
4173 4172 35
4173 4166 75
4173 4122 418
4174 4106 432
4174 4091 154
4174 4237 343
4175 4144 316
4175 4144 297
4175 4176 10
4176 4175 10
4176 4139 88
4176 4187 22
4177 4074 204
4177 4193 113
4177 4224 149
4178 4155 145
4178 4158 104
4178 4225 165
4179 4151 188
4179 4186 65
4179 4202 56
4180 4094 470
4180 4226 339
4180 4230 440
4181 4008 388
4181 4182 216
4181 4190 67
4182 4181 216
4183 4167 52
4183 4163 205
4183 4187 41
4183 4332 580
4184 4129 410
4184 4185 149
4184 4129 421
4184 4240 415
4185 4184 149
4185 4115 494
4186 4117 125
4186 4179 65
4186 4165 211
4187 4176 22
4187 4167 53
4187 4183 41
4187 4228 432
4188 4005 1667
4188 2943 2053
4188 4627 1977
4189 4168 102
4189 4199 64
4189 4239 174
4190 4023 376
4190 4181 67
4190 4270 398
4191 4121 297
4192 4147 297
4192 4159 89
4192 4279 306
4193 4177 113
4193 4110 167
4193 4218 86
4194 4152 107
4194 4213 130
4194 4216 83
4195 4170 242
4195 4147 122
4195 4223 88
4196 4160 200
4196 4072 231
4196 4224 194
4197 4155 101
4197 4232 121
4197 4326 404
4198 4104 435
4198 4060 289
4198 4212 50
4198 4214 52
4198 4264 220
4199 4189 64
4199 4210 76
4199 4215 63
4200 4038 330
4201 4171 335
4201 4209 90
4201 4275 223
4202 4179 56
4202 4233 116
4202 4261 292
4203 4145 137
4203 4211 28
4203 4244 220
4204 4164 126
4204 4164 204
4204 4205 32
4204 4211 20
4205 4164 113
4205 4204 32
4206 4207 681
4207 4206 681
4208 4141 986
4208 4209 148
4208 4236 175
4209 4208 148
4209 4201 90
4209 4277 221
4209 4318 650
4210 4199 76
4211 4204 20
4211 4203 28
4211 4247 110
4212 4198 50
4212 4214 30
4212 4267 169
4212 13342 169
4213 4194 130
4213 4152 188
4213 4255 110
4214 4212 30
4214 4198 52
4214 4294 368
4215 4199 63
4215 4239 168
4215 4263 126
4216 4168 155
4216 4194 83
4216 4254 91
4216 4255 196
4217 4161 162
4217 4219 37
4217 4274 333
4218 4193 86
4218 4108 356
4218 4229 96
4219 4217 37
4219 4234 321
4219 4307 300
4220 4221 138
4220 4226 53
4220 4237 53
4221 4220 138
4221 4111 130
4222 4151 191
4222 4233 145
4222 4260 111
4223 4170 328
4223 4195 88
4223 4279 278
4223 4286 201
4224 4196 194
4224 4177 149
4224 4229 51
4225 4178 165
4225 4246 59
4225 4253 154
4226 4220 53
4226 4180 339
4226 4237 86
4227 4228 206
4227 4097 112
4227 4143 112
4228 4227 206
4228 4187 432
4228 4238 28
4229 4224 51
4229 4218 96
4229 4245 35
4230 4180 440
4230 4231 346
4230 4266 401
4231 4230 346
4232 4163 264
4232 4197 121
4232 4324 282
4233 4202 116
4233 4222 145
4233 4261 153
4233 4269 90
4234 4219 321
4234 4235 240
4234 4238 21
4234 4307 300
4235 4234 240
4235 4098 107
4235 4162 107
4236 4208 175
4236 4302 257
4236 4318 361
4237 4174 343
4237 4220 53
4237 4226 86
4237 4259 95
4238 4234 21
4238 4228 28
4238 4312 316
4239 4215 168
4239 4189 174
4239 4254 49
4240 4184 415
4240 4262 91
4240 4265 169
4241 4136 265
4241 4242 11
4241 4251 10
4241 4300 220
4242 4137 265
4242 4241 11
4242 4244 112
4242 4252 10
4243 2512 5784
4243 2773 5486
4243 4631 1592
4244 4203 220
4244 4242 112
4244 4248 75
4245 4229 35
4245 4308 84
4246 4225 59
4246 4253 56
4246 4282 129
4247 4211 110
4247 4249 45
4247 4250 89
4248 4244 75
4248 4249 15
4248 4252 185
4248 4293 161
4249 4247 45
4249 4248 15
4249 4296 164
4250 4247 89
4250 4253 63
4250 4282 183
4251 4241 10
4251 4252 11
4251 4301 205
4252 4242 10
4252 4251 11
4252 4248 185
4253 4246 56
4253 4225 154
4253 4250 63
4254 4239 49
4254 4216 91
4254 4276 93
4254 4280 258
4255 4216 196
4255 4213 110
4255 4280 108
4256 4257 107
4256 4258 87
4256 4263 71
4257 4256 107
4257 13342 136
4258 4256 87
4259 4237 95
4259 4283 272
4259 4297 937
4260 4222 111
4260 4269 153
4260 4278 90
4261 4202 292
4261 4233 153
4261 4291 142
4262 4240 91
4262 4273 77
4262 4285 241
4263 4256 71
4263 4215 126
4263 4268 79
4263 4294 132
4264 4198 220
4264 13343 56
4265 4240 169
4265 13343 129
4266 4230 401
4267 4212 169
4267 13342 169
4267 13344 55
4268 4263 79
4268 4276 128
4268 4299 174
4269 4233 90
4269 4260 153
4269 4287 78
4270 4159 327
4270 4190 398
4270 4379 466
4271 4272 134
4272 4271 134
4272 4298 118
4272 4314 213
4273 4262 77
4273 13345 178
4274 4171 295
4274 4217 333
4274 4275 269
4274 4330 191
4275 4201 223
4275 4274 269
4275 4277 81
4275 4320 161
4276 4268 128
4276 4254 93
4276 4299 83
4276 4306 242
4277 4209 221
4277 4275 81
4277 4281 70
4278 4260 90
4279 4223 278
4279 4192 306
4279 4295 54
4280 4254 258
4280 4255 108
4280 4284 17
4280 4309 480
4281 4277 70
4281 4316 165
4281 4355 239
4282 4246 129
4282 4250 183
4282 4289 25
4283 4259 272
4283 4336 400
4283 4509 714
4284 4280 17
4284 4306 70
4285 4262 241
4285 4290 42
4285 4389 687
4286 4223 201
4286 4298 86
4286 4364 255
4287 4269 78
4288 3717 1319
4288 4485 1170
4289 4282 25
4289 4315 83
4289 4326 151
4290 4285 42
4290 13351 38
4291 4261 142
4291 4292 111
4291 4310 33
4292 4165 683
4292 4291 111
4292 4311 34
4293 4248 161
4293 4296 10
4293 4340 160
4294 4214 368
4294 4263 132
4294 4321 186
4295 4279 54
4295 4322 85
4295 4331 139
4295 4366 227
4296 4249 164
4296 4293 10
4296 4315 214
4296 4344 163
4297 4259 937
4297 4336 227
4297 13348 348
4298 4272 118
4298 4286 86
4298 4314 66
4299 4268 174
4299 4276 83
4299 4321 81
4299 4328 219
4300 4241 220
4300 4301 14
4300 4323 92
4301 4251 205
4301 4300 14
4301 4325 98
4302 4236 257
4302 4353 301
4303 4304 17
4303 13351 32
4304 4303 17
4304 4305 35
4304 4389 556
4305 4304 35
4305 13345 115
4306 4276 242
4306 4284 70
4306 4328 93
4307 4219 300
4307 4234 300
4307 4312 17
4307 4362 238
4308 4309 158
4308 4245 84
4309 4308 158
4309 4280 480
4309 4337 111
4310 4291 33
4310 4311 103
4310 4313 20
4311 4292 34
4311 4310 103
4311 4349 136
4312 4307 17
4312 4238 316
4312 4373 268
4312 4385 289
4313 4310 20
4314 4298 66
4314 4272 213
4314 4317 14
4315 4289 83
4315 4296 214
4315 4382 213
4316 4281 165
4316 4345 148
4316 4371 231
4317 4314 14
4317 4319 14
4317 4331 71
4318 4236 361
4318 4209 650
4318 4370 229
4319 4317 14
4319 4335 70
4319 4358 178
4320 4275 161
4320 4330 223
4320 4334 45
4321 4294 186
4321 4299 81
4321 4357 198
4322 4295 85
4322 4333 31
4322 4372 309
4323 4300 92
4323 4325 12
4323 4327 10
4324 4232 282
4324 4343 74
4324 4356 86
4325 4301 98
4325 4323 12
4325 4329 10
4325 4386 242
4326 4197 404
4326 4289 151
4326 4352 73
4327 4323 10
4327 4329 11
4327 4378 183
4328 4299 219
4328 4306 93
4328 4357 106
4329 4325 10
4329 4327 11
4329 4378 183
4329 4390 240
4330 4320 223
4330 4274 191
4330 4362 297
4330 4409 192
4331 4317 71
4331 4295 139
4331 4335 16
4332 4183 580
4332 4385 195
4332 4472 527
4333 4322 31
4333 4466 444
4334 4320 45
4334 4355 106
4334 4410 188
4335 4319 70
4335 4331 16
4335 4348 55
4336 4297 227
4336 4283 400
4336 4539 702
4337 4309 111
4337 4487 965
4338 4339 2928
4338 3448 158
4339 4338 2928
4339 4416 111
4340 4293 160
4340 4344 13
4340 4386 126
4341 4342 2923
4341 4465 108
4342 4341 2923
4342 3457 159
4343 4324 74
4344 4296 163
4344 4340 13
4344 4382 167
4344 4386 129
4345 4316 148
4345 4420 257
4345 4433 294
4346 4347 15
4346 4402 637
4346 4408 145
4347 4346 15
4347 4363 153
4348 4335 55
4348 4366 89
4348 4393 129
4349 4311 136
4350 4351 143
4350 4360 29
4350 4369 72
4351 4350 143
4352 4326 73
4352 4356 52
4352 4361 25
4352 4367 75
4353 4354 100
4353 4302 301
4354 4353 100
4354 4372 86
4354 4379 68
4354 4421 196
4355 4281 239
4355 4334 106
4355 4371 90
4356 4324 86
4356 4352 52
4356 4359 9
4357 4321 198
4357 4328 106
4357 4365 38
4358 4319 178
4359 4356 9
4360 4350 29
4360 4380 66
4360 4381 56
4361 4352 25
4362 4330 297
4362 4307 238
4362 4404 138
4363 4347 153
4363 4460 268
4364 4286 255
4364 4388 278
4364 4393 166
4365 4357 38
4365 4389 75
4366 4348 89
4366 4295 227
4366 4401 82
4367 4352 75
4367 4368 3
4367 4384 33
4367 4436 243
4368 4367 3
4369 4350 72
4369 4381 47
4369 4383 27
4370 4318 229
4370 4394 58
4370 4407 69
4371 4316 231
4371 4355 90
4371 4420 148
4372 4322 309
4372 4354 86
4372 4401 75
4372 4426 139
4373 4312 268
4373 4411 101
4373 4450 277
4374 3631 1792
4374 4441 710
4374 4485 310
4375 4376 124
4375 4377 189
4375 4391 131
4376 4375 124
4376 4392 45
4376 4624 1909
4377 4375 189
4378 4329 183
4378 4327 183
4378 4383 13
4379 4354 68
4379 4270 466
4379 4423 121
4380 4360 66
4380 4387 13
4380 4446 213
4381 4369 47
4381 4360 56
4381 4387 41
4382 4315 213
4382 4344 167
4382 4451 270
4383 4378 13
4383 4369 27
4383 4427 153
4384 4367 33
4385 4312 289
4385 4332 195
4385 4450 270
4386 4344 129
4386 4340 126
4386 4325 242
4386 4390 12
4386 4451 191
4387 4381 41
4387 4380 13
4387 4446 203
4388 4364 278
4389 4285 687
4389 4304 556
4389 4365 75
4390 4386 12
4390 4329 240
4390 4427 232
4390 4452 185
4391 4375 131
4391 4403 535
4391 4491 304
4392 4376 45
4392 4425 111
4392 4463 202
4393 4364 166
4393 4348 129
4393 4399 11
4393 4419 97
4394 4370 58
4394 4407 33
4394 4412 40
4394 4414 38
4395 4396 28
4396 4395 28
4397 4398 30
4398 4397 30
4398 4415 58
4398 4437 128
4399 4400 7
4399 4393 11
4399 4424 100
4399 4552 621
4400 4399 7
4401 4366 82
4401 4372 75
4401 4413 26
4402 4346 637
4402 4408 414
4402 4434 216
4403 4391 535
4403 4428 185
4403 4471 199
4404 4362 138
4404 4409 191
4404 4411 20
4404 4488 356
4405 4406 254
4405 4441 404
4405 4514 413
4406 4405 254
4406 4514 430
4406 4557 1951
4407 4394 33
4407 4370 69
4407 4414 20
4407 4466 231
4408 4402 414
4408 4346 145
4408 4489 280
4409 4330 192
4409 4404 191
4409 4410 158
4410 4334 188
4410 4409 158
4410 4415 175
4410 4480 247
4411 4404 20
4411 4373 101
4411 4493 359
4412 4394 40
4412 4418 17
4413 4401 26
4413 4419 32
4414 4394 38
4414 4407 20
4414 4418 50
4414 4466 229
4415 4398 58
4415 4410 175
4415 4448 135
4416 4417 90
4416 4339 111
4417 4416 90
4417 4454 151
4417 4459 151
4418 4412 17
4418 4414 50
4418 4470 179
4419 4393 97
4419 4413 32
4419 4426 42
4419 4498 250
4420 4345 257
4420 4371 148
4420 4437 43
4421 4354 196
4421 4499 60
4422 4156 1566
4422 4428 76
4422 4469 165
4423 4379 121
4423 4426 50
4423 4498 256
4424 4399 100
4424 4430 15
4425 4392 111
4426 4419 42
4426 4372 139
4426 4423 50
4427 4390 232
4427 4383 153
4427 4452 310
4428 4403 185
4428 4422 76
4428 4458 89
4429 4126 1391
4429 4032 1599
4429 4508 279
4430 4424 15
4430 4432 20
4431 4432 12
4431 4440 38
4432 4431 12
4432 4430 20
4433 4345 294
4433 4444 31
4433 4453 110
4434 4435 31
4434 4402 216
4434 4462 101
4435 4434 31
4436 4367 243
4436 4445 50
4436 4494 222
4437 4420 43
4437 4398 128
4437 4448 55
4438 4439 1061
4438 4443 20
4439 4438 1061
4440 4431 38
4440 4442 9
4441 4405 404
4441 4374 710
4441 4561 502
4442 4440 9
4442 4443 13
4443 4438 20
4443 4442 13
4444 4433 31
4444 4466 99
4444 4473 144
4445 4436 50
4446 4387 203
4446 4380 213
4446 4447 42
4447 4446 42
4448 4437 55
4448 4415 135
4448 4461 61
4449 4126 892
4449 4457 1015
4449 4508 1134
4449 4726 1136
4450 4373 277
4450 4385 270
4450 4532 394
4451 4382 270
4451 4386 191
4451 4452 8
4451 4553 448
4452 4451 8
4452 4390 185
4452 4427 310
4453 4433 110
4454 4417 151
4454 4579 61
4455 4456 93
4455 4461 33
4455 4479 75
4456 4455 93
4457 4130 2526
4457 4449 1015
4457 4744 1333
4458 4428 89
4459 4417 151
4459 4542 61
4460 4363 268
4460 4492 253
4460 4502 152
4461 4448 61
4461 4455 33
4461 4511 350
4462 4434 101
4462 4489 524
4462 4528 339
4463 4392 202
4464 4465 240
4464 4546 59
4464 4578 59
4465 4464 240
4465 4341 108
4466 4414 229
4466 4407 231
4466 4444 99
4466 4497 147
4466 4333 444
4467 4468 8
4468 4467 8
4469 4422 165
4469 4486 96
4469 4500 171
4470 4418 179
4470 4477 83
4470 4478 36
4471 4403 199
4471 4486 345
4471 4490 262
4472 4332 527
4473 4444 144
4473 4474 110
4473 4497 97
4474 4473 110
4475 4476 16
4476 4475 16
4477 4470 83
4477 4515 249
4477 4517 162
4478 4470 36
4478 4519 162
4478 4519 162
4479 4455 75
4479 4503 159
4479 4527 192
4480 4410 247
4480 4488 22
4480 4503 88
4481 4482 22
4482 4481 22
4483 4484 67
4483 4513 435
4483 4801 2326
4484 4483 67
4484 4507 2960
4485 4374 310
4485 4288 1170
4485 4561 871
4486 4471 345
4486 4469 96
4486 4523 279
4487 4337 965
4488 4480 22
4488 4404 356
4488 4493 14
4488 4506 90
4489 4462 524
4489 4408 280
4489 4492 12
4490 4471 262
4490 4491 187
4490 4522 145
4491 4391 304
4491 4490 187
4491 4737 1179
4492 4489 12
4492 4460 253
4492 4502 106
4493 4488 14
4493 4411 359
4493 4535 245
4494 4436 222
4495 4496 27
4496 4495 27
4497 4466 147
4497 4473 97
4497 4520 144
4497 4526 166
4498 4419 250
4498 4499 190
4498 4423 256
4498 4583 391
4499 4498 190
4499 4421 60
4500 4469 171
4500 4501 218
4500 4512 65
4500 4512 539
4501 4500 218
4502 4492 106
4502 4460 152
4502 4525 98
4503 4479 159
4503 4480 88
4503 4506 22
4504 4505 35
4505 4504 35
4506 4503 22
4506 4488 90
4506 4534 156
4507 4484 2960
4507 4801 2283
4508 4449 1134
4508 4429 279
4508 4544 1355
4508 4731 1713
4509 4283 714
4510 4101 1410
4511 4461 350
4511 4521 144
4511 4529 85
4512 4500 65
4512 4500 539
4512 4523 612
4513 4483 435
4513 4536 109
4513 4536 211
4514 4406 430
4514 4405 413
4514 4562 222
4515 4477 249
4515 4516 77
4515 4517 88
4515 4571 255
4516 4515 77
4516 4526 68
4516 4572 256
4517 4477 162
4517 4515 88
4517 4518 71
4517 4570 254
4518 4517 71
4518 4519 66
4518 4569 254
4519 4478 162
4519 4478 162
4519 4518 66
4519 4566 247
4519 4566 247
4520 4497 144
4520 4529 56
4520 4559 264
4521 4511 144
4521 4527 144
4521 4547 170
4522 4490 145
4522 4524 66
4522 4524 349
4523 4486 279
4523 4524 228
4523 4512 612
4524 4522 66
4524 4523 228
4524 4522 349
4525 4502 98
4525 4537 64
4525 4552 331
4526 4516 68
4526 4497 166
4526 4559 171
4527 4521 144
4527 4479 192
4527 4534 112
4528 4462 339
4528 4530 46
4528 4558 245
4529 4520 56
4529 4511 85
4529 4547 143
4529 4548 140
4529 4550 153
4530 4528 46
4530 4531 71
4530 4549 111
4531 4530 71
4531 4537 234
4531 4556 118
4532 4450 394
4532 4533 371
4532 4606 597
4533 4532 371
4534 4527 112
4534 4506 156
4534 4535 14
4534 4576 293
4535 4534 14
4535 4493 245
4535 4582 293
4536 4513 109
4536 4513 211
4536 4538 213
4537 4531 234
4537 4525 64
4537 4565 162
4538 4536 213
4539 4336 702
4540 4541 186
4540 3267 4165
4540 4634 653
4541 4540 186
4542 4543 296
4542 4459 61
4543 4542 296
4543 4577 713
4543 5060 65
4544 4508 1355
4545 4546 295
4545 4668 65
4546 4545 295
4546 4464 59
4547 4529 143
4547 4521 170
4547 4576 183
4548 4529 140
4548 4568 151
4548 4581 184
4549 4530 111
4549 4556 107
4549 4603 294
4550 4529 153
4550 4568 143
4550 4574 151
4551 3931 2189
4551 4554 18
4551 4628 402
4552 4525 331
4552 4399 621
4552 4560 74
4553 4451 448
4554 4555 253
4554 4551 18
4554 4626 607
4555 4554 253
4556 4549 107
4556 4531 118
4556 4575 135
4557 3411 3881
4557 4406 1951
4557 4756 1877
4558 4528 245
4558 4587 288
4558 4592 209
4559 4526 171
4559 4520 264
4559 4574 67
4560 4552 74
4560 4567 53
4560 4585 136
4560 4593 207
4561 4441 502
4561 4485 871
4561 4564 337
4561 4630 350
4562 4514 222
4562 4563 47
4562 4564 209
4563 4562 47
4563 4591 418
4563 4607 201
4564 4562 209
4564 4561 337
4564 4635 381
4565 4537 162
4566 4519 247
4566 4519 247
4566 4569 152
4566 4597 185
4567 4560 53
4567 4645 435
4568 4550 143
4568 4548 151
4568 4594 165
4569 4566 152
4569 4518 254
4569 4570 74
4570 4569 74
4570 4517 254
4570 4571 88
4571 4570 88
4571 4515 255
4571 4572 76
4571 4573 0
4572 4571 76
4572 4516 256
4572 4574 90
4573 4571 0
4574 4572 90
4574 4559 67
4574 4550 151
4574 4611 185
4575 4556 135
4575 4598 458
4575 4598 151
4576 4547 183
4576 4534 293
4576 4581 17
4576 4582 23
4577 4578 498
4577 4543 713
4577 4610 426
4578 4577 498
4578 4464 59
4579 4580 759
4579 4454 61
4580 4579 759
4580 4612 422
4580 4667 623
4581 4548 184
4581 4576 17
4581 4584 22
4581 4622 290
4582 4576 23
4582 4535 293
4582 4584 18
4582 4687 607
4582 13358 607
4583 4498 391
4583 4585 52
4583 4586 46
4584 4581 22
4584 4582 18
4584 4672 555
4584 4701 635
4584 13362 635
4585 4560 136
4585 4583 52
4585 4586 43
4586 4585 43
4586 4583 46
4586 4593 47
4587 4558 288
4587 4599 258
4587 4604 92
4588 4589 15
4589 4588 15
4589 13357 63
4590 4591 377
4591 4590 377
4591 4563 418
4591 4615 231
4592 4558 209
4592 4604 164
4592 4605 58
4593 4560 207
4593 4586 47
4593 4715 507
4594 4568 165
4594 4611 96
4594 4622 189
4595 4596 30
4595 13357 3
4596 4595 30
4597 4566 185
4597 4602 19
4597 4644 259
4598 4575 458
4598 4575 151
4598 4689 341
4599 4587 258
4599 4608 172
4599 4616 53
4600 4601 13
4600 13357 36
4601 4600 13
4602 4597 19
4602 4644 254
4602 4724 506
4603 4549 294
4603 4605 97
4603 4677 279
4604 4587 92
4604 4592 164
4604 4632 100
4605 4592 58
4605 4603 97
4605 4639 155
4606 4532 597
4606 4619 57
4606 4685 424
4607 4563 201
4608 4609 42
4608 4599 172
4608 4643 157
4609 4608 42
4610 4577 426
4610 4614 15
4611 4574 185
4611 4594 96
4611 4663 227
4612 4580 422
4612 4618 15
4613 4614 20
4613 4617 12
4613 4630 156
4614 4613 20
4614 4610 15
4615 4591 231
4616 4599 53
4616 4632 254
4616 4654 216
4617 4613 12
4617 4618 20
4617 4623 28
4617 4630 156
4618 4617 20
4618 4612 15
4619 4606 57
4619 4633 72
4619 4681 297
4619 4686 334
4620 4621 23
4621 4620 23
4621 4623 36
4621 4623 45
4622 4594 189
4622 4581 290
4622 4663 257
4623 4617 28
4623 4621 36
4623 4621 45
4623 4625 14
4624 4376 1909
4624 4629 34
4624 4641 151
4625 4623 14
4626 4554 607
4626 4652 270
4626 4835 2072
4627 4188 1977
4627 4675 1785
4627 4905 2379
4628 4551 402
4628 4659 142
4629 4624 34
4629 4636 29
4629 4653 121
4630 4561 350
4630 4613 156
4630 4617 156
4630 4650 240
4631 4243 1592
4631 4642 42
4632 4616 254
4632 4604 100
4632 4639 93
4633 4619 72
4633 13359 331
4634 4540 653
4635 4564 381
4636 4629 29
4636 4640 35
4636 4647 67
4637 4638 19
4638 4637 19
4639 4632 93
4639 4605 155
4639 4661 118
4640 4636 35
4640 4651 55
4640 4658 85
4641 4642 38
4641 4624 151
4641 4646 54
4642 4641 38
4642 4631 42
4643 4608 157
4643 4648 139
4643 4654 316
4643 4705 179
4644 4602 254
4644 4645 48
4644 4597 259
4644 4716 356
4645 4644 48
4645 4567 435
4646 4641 54
4646 4649 25
4646 4662 79
4646 4723 488
4647 4636 67
4647 4651 30
4647 4660 52
4648 4643 139
4648 4657 152
4648 4705 289
4649 4646 25
4649 4676 76
4650 4630 240
4650 4757 421
4651 4647 30
4651 4640 55
4651 4655 29
4651 4664 59
4652 4626 270
4653 4629 121
4653 4660 31
4653 4671 76
4654 4643 316
4654 4616 216
4654 4661 122
4654 4705 355
4655 4651 29
4655 4658 11
4655 4673 69
4656 4657 248
4657 4656 248
4657 4648 152
4657 4706 670
4657 4733 295
4658 4655 11
4658 4640 85
4658 4683 82
4659 4628 142
4660 4653 31
4660 4647 52
4660 4664 29
4660 4671 50
4661 4654 122
4661 4639 118
4661 4677 165
4662 4646 79
4662 4669 24
4662 4674 27
4663 4611 227
4663 4622 257
4663 4672 22
4663 4716 257
4664 4660 29
4664 4651 59
4664 4673 29
4664 4680 52
4665 4666 1968
4665 4676 321
4666 4665 1968
4666 4675 47
4667 4580 623
4667 4668 478
4667 5063 3694
4668 4667 478
4668 4545 65
4669 4662 24
4669 4670 41
4669 4678 27
4670 4669 41
4670 4679 74
4670 4682 30
4671 4653 76
4671 4660 50
4671 4680 31
4672 4663 22
4672 4584 555
4672 4721 250
4672 4738 420
4673 4664 29
4673 4655 69
4673 4683 24
4673 4688 59
4674 4662 27
4674 4678 30
4674 4684 31
4675 4627 1785
4675 4666 47
4676 4665 321
4676 4649 76
4677 4661 165
4677 4603 279
4677 4689 194
4678 4674 30
4678 4669 27
4678 4682 49
4678 4690 33
4679 4670 74
4679 4682 51
4679 4691 32
4680 4671 31
4680 4664 52
4680 4688 32
4680 4691 69
4681 4619 297
4681 4695 75
4681 4714 133
4682 4678 49
4682 4670 30
4682 4679 51
4682 4694 32
4683 4673 24
4683 4658 82
4683 4696 63
4684 4674 31
4684 4690 45
4684 4693 34
4685 4606 424
4686 4619 334
4686 4687 42
4686 4695 33
4687 4582 607
4687 13358 607
4687 4686 42
4687 4695 31
4688 4680 32
4688 4673 59
4688 4696 24
4689 4677 194
4689 4598 341
4689 4699 164
4690 4684 45
4690 4678 33
4690 4694 57
4690 4702 30
4691 4679 32
4691 4680 69
4691 4692 7
4692 4691 7
4692 4694 49
4692 4704 31
4693 4684 34
4693 4702 62
4693 4703 30
4694 4690 57
4694 4682 32
4694 4692 49
4694 4708 30
4695 4687 31
4695 4686 33
4695 4681 75
4695 4701 19
4695 4714 119
4696 4688 24
4696 4683 63
4696 4710 106
4697 4698 767
4697 4706 378
4697 4751 478
4698 4697 767
4698 4737 789
4698 4767 575
4699 4689 164
4699 4700 20
4699 4709 151
4699 4725 129
4700 4699 20
4701 4584 635
4701 13362 635
4701 4695 19
4701 4736 291
4701 13365 291
4701 4738 634
4702 4693 62
4702 4690 30
4702 4708 64
4702 4711 28
4703 4693 30
4703 4711 74
4703 4711 120
4704 4692 31
4704 4708 58
4704 4710 23
4705 4643 179
4705 4654 355
4705 4648 289
4705 4719 99
4706 4707 247
4706 4657 670
4706 4697 378
4707 4706 247
4707 4746 219
4707 13363 219
4708 4702 64
4708 4694 30
4708 4704 58
4708 4712 26
4709 4699 151
4709 4713 242
4709 4730 129
4710 4704 23
4710 4696 106
4710 4712 67
4711 4703 74
4711 4702 28
4711 4712 70
4711 4703 120
4712 4711 70
4712 4708 26
4712 4710 67
4713 4709 242
4713 4715 73
4713 4729 107
4714 4695 119
4714 4681 133
4714 4735 169
4715 4713 73
4715 4593 507
4715 4758 385
4716 4644 356
4716 4663 257
4716 4721 23
4716 4732 101
4717 4718 15
4718 4717 15
4718 4728 51
4719 4705 99
4719 4720 154
4719 4733 301
4719 4750 297
4720 4719 154
4721 4716 23
4721 4672 250
4721 4734 104
4721 4747 345
4722 4723 251
4723 4722 251
4723 4646 488
4723 4739 155
4724 4602 506
4724 4732 636
4725 4699 129
4725 4730 201
4725 4742 188
4726 4449 1136
4726 4731 20
4726 4744 1382
4727 4728 17
4728 4727 17
4728 4718 51
4729 4713 107
4729 4730 160
4729 4741 168
4730 4725 201
4730 4709 129
4730 4729 160
4731 4726 20
4731 4508 1713
4731 4768 2869
4732 4724 636
4732 4716 101
4732 4734 23
4732 4762 399
4733 4657 295
4733 4719 301
4733 4752 231
4734 4732 23
4734 4721 104
4734 4764 404
4735 4714 169
4735 4831 49
4736 4701 291
4736 13365 291
4736 4837 50
4737 4491 1179
4737 4698 789
4737 4784 581
4737 4803 1089
4738 4672 420
4738 4701 634
4738 4743 127
4739 4740 314
4739 4723 155
4739 4755 207
4740 4739 314
4741 4729 168
4742 4725 188
4742 4765 259
4743 4738 127
4743 4747 84
4743 4877 1161
4744 4457 1333
4744 4768 832
4744 4726 1382
4745 4746 268
4745 4748 162
4745 4761 109
4746 4745 268
4746 4707 219
4746 13363 219
4746 13364 220
4747 4721 345
4747 4743 84
4747 4783 629
4748 4745 162
4748 4751 329
4748 4797 516
4749 4750 162
4749 4752 150
4749 4774 380
4750 4749 162
4750 4719 297
4750 4765 968
4750 4769 212
4751 4697 478
4751 4748 329
4751 4763 363
4751 4800 515
4752 4733 231
4752 4749 150
4752 4761 442
4753 4754 24
4753 13367 24
4754 4753 24
4754 13367 24
4755 4739 207
4756 4557 1877
4756 4757 546
4756 5041 3279
4757 4756 546
4757 4650 421
4758 4715 385
4758 4770 175
4758 4777 252
4759 4760 29
4759 13368 29
4760 4759 29
4760 13368 29
4761 4745 109
4761 4752 442
4761 4792 394
4762 4732 399
4762 4766 61
4762 4778 397
4763 4751 363
4763 4767 373
4763 4799 443
4764 4734 404
4764 4766 53
4764 4776 293
4765 4742 259
4765 4750 968
4765 4777 276
4766 4762 61
4766 4764 53
4766 4810 486
4767 4698 575
4767 4763 373
4767 4775 396
4767 4802 390
4768 4744 832
4768 4847 815
4768 4731 2869
4769 4750 212
4770 4758 175
4770 4813 446
4771 4772 78
4771 4773 29
4771 4774 130
4772 4771 78
4773 4771 29
4774 4771 130
4774 4749 380
4774 4814 436
4775 4767 396
4775 4784 338
4775 4808 327
4776 4764 293
4776 4779 85
4776 4782 58
4777 4765 276
4777 4758 252
4777 4780 25
4777 4787 178
4778 4762 397
4778 4779 28
4778 4788 311
4779 4778 28
4779 4776 85
4779 4781 28
4779 4782 38
4780 4777 25
4780 4790 64
4781 4779 28
4781 4795 453
4781 4809 292
4782 4779 38
4782 4776 58
4782 4783 417
4782 4809 279
4783 4747 629
4783 4782 417
4783 4798 152
4784 4737 581
4784 4775 338
4784 4789 414
4784 4821 321
4785 4786 27
4786 4785 27
4787 4777 178
4787 4788 71
4787 4804 149
4788 4778 311
4788 4787 71
4788 4804 133
4788 4812 235
4789 4784 414
4789 4803 609
4789 4844 543
4790 4791 49
4790 4780 64
4791 4790 49
4791 4795 58
4791 4796 46
4792 4761 394
4792 4793 23
4792 4797 221
4793 4792 23
4793 4794 421
4793 4826 266
4794 4793 421
4795 4791 58
4795 4796 51
4795 4781 453
4796 4795 51
4796 4791 46
4796 5091 2021
4797 4748 516
4797 4792 221
4797 4800 242
4797 4840 291
4798 4783 152
4799 4763 443
4799 4800 342
4799 4802 378
4799 4849 328
4800 4799 342
4800 4751 515
4800 4797 242
4800 4848 323
4801 4483 2326
4801 4507 2283
4801 4904 923
4802 4767 390
4802 4799 378
4802 4805 202
4802 4811 99
4803 4737 1089
4803 4789 609
4803 4807 157
4804 4787 149
4804 4788 133
4804 4806 47
4805 4802 202
4805 4808 193
4805 4819 105
4806 4804 47
4806 4818 89
4807 4803 157
4807 4815 286
4807 4906 710
4808 4775 327
4808 4805 193
4808 4821 318
4808 4819 288
4809 4781 292
4809 4810 112
4809 4782 279
4809 4857 281
4810 4809 112
4810 4766 486
4811 4802 99
4811 4819 195
4811 4856 235
4812 4788 235
4812 4813 90
4812 4820 36
4813 4812 90
4813 4770 446
4814 4774 436
4814 4842 387
4814 4881 778
4815 4807 286
4815 4866 590
4815 4927 1626
4816 4817 36
4816 4833 199
4817 4816 36
4817 4825 107
4817 4839 125
4818 4806 89
4818 4820 15
4818 4822 17
4819 4805 105
4819 4811 195
4819 4808 288
4820 4818 15
4820 4812 36
4820 4823 23
4821 4784 321
4821 4808 318
4821 4923 682
4822 4818 17
4822 4881 433
4823 4820 23
4823 4827 41
4824 4825 20
4825 4824 20
4825 4817 107
4825 4841 229
4825 4846 126
4826 4793 266
4826 4830 14
4826 4840 255
4827 4823 41
4827 4858 146
4827 4884 390
4828 4829 372
4829 4828 372
4830 4826 14
4830 4843 256
4830 4860 172
4831 4832 966
4831 4735 49
4832 4831 966
4832 4834 6
4832 4836 26
4833 4816 199
4833 4839 41
4833 4850 83
4834 4832 6
4834 4871 36
4835 4626 2072
4836 4837 958
4836 4832 26
4836 4838 4
4836 4877 738
4837 4836 958
4837 4736 50
4838 4836 4
4838 4974 38
4839 4817 125
4839 4833 41
4839 4846 105
4839 4854 81
4840 4797 291
4840 4826 255
4840 4843 14
4840 4848 282
4841 4825 229
4842 4814 387
4843 4840 14
4843 4830 256
4843 4851 282
4844 4789 543
4844 4845 202
4844 4880 188
4845 4844 202
4846 4825 126
4846 4839 105
4846 4855 127
4846 4869 81
4847 4768 815
4848 4800 323
4848 4840 282
4848 4849 351
4848 4851 16
4849 4799 328
4849 4848 351
4849 4853 16
4849 4856 343
4850 4833 83
4850 4854 41
4850 4870 53
4851 4852 15
4851 4848 16
4851 4843 282
4852 4851 15
4852 4853 338
4852 4883 273
4853 4849 16
4853 4852 338
4853 4859 342
4854 4839 81
4854 4850 41
4854 4869 105
4854 4870 94
4855 4846 127
4855 4874 147
4855 4885 161
4856 4811 235
4856 4849 343
4856 4859 13
4856 4875 326
4857 4809 281
4857 4865 19
4857 4882 222
4857 4888 296
4858 4827 146
4858 4861 64
4858 4997 1036
4859 4856 13
4859 4853 342
4859 4876 316
4859 4943 699
4860 4830 172
4860 4910 458
4860 4922 583
4861 4858 64
4862 4863 513
4863 4862 513
4863 4864 418
4863 4872 525
4863 4931 576
4864 4863 418
4865 4857 19
4865 5125 691
4866 4815 590
4866 4924 571
4866 4927 1026
4867 4868 226
4867 4956 36
4868 4867 226
4868 4873 448
4869 4846 81
4869 4854 105
4869 4878 79
4870 4850 53
4870 4854 94
4870 4899 300
4871 4872 101
4871 4834 36
4872 4871 101
4872 4863 525
4872 4972 752
4873 4874 82
4873 4868 448
4874 4873 82
4874 4855 147
4874 4891 161
4875 4856 326
4876 4859 316
4877 4743 1161
4877 4836 738
4877 4897 156
4878 4869 79
4878 4879 85
4878 4885 129
4878 4896 138
4879 4878 85
4880 4844 188
4880 4886 138
4880 4916 260
4881 4814 778
4881 4822 433
4881 4884 21
4881 4903 280
4882 4857 222
4882 4887 34
4882 4888 34
4883 4852 273
4884 4881 21
4884 4827 390
4884 4909 297
4885 4855 161
4885 4878 129
4885 4891 143
4886 4880 138
4886 4919 269
4887 4882 34
4887 4888 36
4887 4897 1132
4888 4882 34
4888 4887 36
4888 4857 296
4889 4890 25
4890 4889 25
4890 4896 82
4890 4902 139
4891 4874 161
4891 4885 143
4891 4898 187
4892 4893 198
4893 4892 198
4893 5101 1203
4894 4895 229
4894 5104 1203
4895 4894 229
4896 4878 138
4896 4890 82
4896 4898 139
4896 4908 144
4897 4887 1132
4897 4877 156
4897 4939 707
4897 5110 1484
4898 4891 187
4898 4896 139
4898 4908 208
4899 4870 300
4899 4900 50
4899 4901 12
4900 4899 50
4901 4899 12
4901 4902 49
4901 4908 265
4902 4890 139
4902 4901 49
4902 4908 80
4903 4881 280
4903 4912 47
4903 4914 121
4904 4801 923
4904 4987 532
4905 4627 2379
4905 5021 803
4906 4807 710
4906 4907 152
4906 4913 296
4907 4906 152
4907 4911 421
4907 4911 815
4907 4917 43
4908 4896 144
4908 4902 80
4908 4898 208
4908 4901 265
4909 4884 297
4909 4912 34
4909 4926 203
4910 4860 458
4910 4918 359
4910 4921 70
4911 4907 421
4911 4907 815
4911 4916 85
4911 4925 162
4912 4903 47
4912 4909 34
4912 4915 50
4912 4920 65
4913 4906 296
4913 4924 602
4913 4963 527
4914 4903 121
4914 4915 35
4914 4918 282
4915 4914 35
4915 4912 50
4915 4920 50
4916 4911 85
4916 4880 260
4916 4919 157
4917 4907 43
4917 4925 343
4917 4963 378
4918 4910 359
4918 4914 282
4918 4921 284
4919 4916 157
4919 4886 269
4919 4923 246
4920 4915 50
4920 4912 65
4920 4926 108
4921 4910 70
4921 4918 284
4921 4922 153
4921 4944 290
4922 4860 583
4922 4921 153
4922 4928 531
4922 4930 106
4923 4919 246
4923 4821 682
4923 4959 274
4924 4866 571
4924 4913 602
4924 4938 193
4925 4917 343
4925 4911 162
4925 4966 359
4925 4990 387
4926 4920 108
4926 4909 203
4926 4940 378
4927 4815 1626
4927 4866 1026
4927 4932 227
4928 4922 531
4928 4929 13
4928 4962 205
4929 4928 13
4929 4943 908
4929 4965 210
4930 4922 106
4930 4937 146
4930 4941 181
4931 4863 576
4931 4986 420
4931 5011 651
4932 4927 227
4932 4947 105
4932 5021 4619
4933 4934 759
4934 4933 759
4935 4936 45
4935 4948 100
4935 4994 738
4936 4935 45
4936 4937 310
4936 4953 180
4937 4936 310
4937 4930 146
4937 4941 151
4938 4924 193
4938 4947 1219
4938 5017 1077
4938 5064 1276
4939 4897 707
4939 5010 303
4939 5013 537
4940 4926 378
4940 4942 63
4940 4977 142
4941 4937 151
4941 4930 181
4941 4945 124
4942 4940 63
4942 4944 61
4942 4946 22
4942 4949 61
4943 4859 699
4943 4929 908
4943 5001 658
4943 5015 380
4944 4921 290
4944 4942 61
4944 4945 54
4944 4949 13
4945 4941 124
4945 4944 54
4945 4949 60
4946 4942 22
4946 4952 43
4946 4964 47
4947 4932 105
4947 4938 1219
4947 5012 359
4948 4935 100
4948 4957 25
4948 4967 37
4949 4945 60
4949 4944 13
4949 4942 61
4949 4952 13
4949 4958 71
4950 4951 855
4950 4955 411
4950 5018 378
4951 4950 855
4952 4949 13
4952 4946 43
4952 4964 18
4952 4982 177
4953 4936 180
4953 4954 87
4953 4960 59
4954 4953 87
4955 4956 863
4955 4950 411
4955 5008 228
4956 4955 863
4956 4867 36
4957 4948 25
4957 4962 11
4957 4967 21
4958 4949 71
4958 4968 70
4959 4923 274
4959 4966 361
4959 4993 109
4960 4953 59
4960 4961 154
4960 4970 122
4961 4960 154
4961 4970 72
4961 4979 168
4962 4928 205
4962 4957 11
4962 4965 13
4962 5002 155
4963 4913 527
4963 4917 378
4963 4980 49
4963 4996 121
4964 4952 18
4964 4946 47
4964 4991 79
4965 4929 210
4965 4962 13
4965 5003 148
4966 4925 359
4966 4959 361
4966 4990 402
4966 5023 557
4967 4957 21
4967 4948 37
4967 4981 23
4968 4969 123
4968 4958 70
4968 4976 91
4969 4968 123
4969 4976 65
4969 4978 134
4970 4960 122
4970 4961 72
4970 4971 9
4971 4970 9
4971 4975 91
4971 4989 131
4972 4872 752
4972 4986 44
4972 4995 101
4973 4974 843
4973 4995 106
4973 5013 253
4974 4973 843
4974 4838 38
4975 4971 91
4975 4979 8
4975 4989 43
4976 4969 65
4976 4968 91
4976 4978 104
4976 4989 165
4977 4940 142
4977 4985 47
4977 4988 45
4978 4969 134
4978 4979 9
4978 4976 104
4979 4975 8
4979 4961 168
4979 4978 9
4980 4963 49
4981 4967 23
4981 13370 68
4982 4952 177
4982 4994 95
4982 4994 389
4983 4984 282
4984 4983 282
4984 4985 52
4984 5005 144
4985 4977 47
4985 4984 52
4985 4988 56
4986 4972 44
4986 4931 420
4986 5014 226
4987 4904 532
4987 4992 14
4987 5025 766
4987 5176 2464
4988 4977 45
4988 4985 56
4988 4999 118
4989 4975 43
4989 4976 165
4989 4971 131
4990 4925 387
4990 4966 402
4990 5000 75
4991 4964 79
4991 13369 28
4992 4987 14
4992 5006 842
4992 5028 751
4992 5051 532
4993 4959 109
4993 5001 93
4993 5007 111
4994 4982 95
4994 4982 389
4994 4935 738
4995 4973 106
4995 4972 101
4995 5066 603
4996 4963 121
4996 5000 258
4996 5017 238
4997 4998 209
4997 4858 1036
4998 4997 209
4999 4988 118
5000 4996 258
5000 4990 75
5000 5022 245
5001 4943 658
5001 4993 93
5001 5007 107
5002 4962 155
5002 5003 11
5003 4965 148
5003 5002 11
5003 5004 37
5004 5003 37
5005 4984 144
5006 4992 842
5006 5181 1628
5006 5439 2561
5007 4993 111
5007 5001 107
5007 5026 258
5007 5031 432
5008 4955 228
5008 5009 132
5008 5019 152
5009 5008 132
5010 4939 303
5010 5024 411
5010 5071 485
5011 4931 651
5011 5014 91
5011 5020 210
5012 4947 359
5012 5064 511
5012 5338 1907
5013 4939 537
5013 4973 253
5013 5014 37
5013 5034 245
5014 5013 37
5014 4986 226
5014 5011 91
5014 5020 116
5015 4943 380
5015 5016 433
5015 5026 786
5016 5015 433
5017 4938 1077
5017 4996 238
5017 5027 109
5018 4950 378
5018 5019 409
5018 5069 342
5019 5008 152
5019 5018 409
5019 5044 196
5020 5014 116
5020 5011 210
5020 5035 127
5021 4905 803
5021 4932 4619
5021 5347 2234
5021 5176 4329
5021 5526 3083
5022 5000 245
5022 5023 147
5022 5105 542
5023 5022 147
5023 4966 557
5023 5054 192
5024 5010 411
5024 5034 120
5024 5059 213
5025 4987 766
5025 5162 173
5026 5007 258
5026 5015 786
5026 5031 369
5027 5017 109
5028 4992 751
5028 5172 167
5029 5030 2465
5029 5086 860
5029 5144 1907
5030 5029 2465
5030 5032 287
5030 5037 144
5031 5007 432
5031 5026 369
5031 5036 75
5032 5033 520
5032 5030 287
5032 5112 449
5033 5032 520
5033 5112 791
5033 5220 9648
5034 5024 120
5034 5013 245
5034 5035 50
5034 5042 58
5034 5057 204
5035 5034 50
5035 5020 127
5035 5038 62
5035 5042 35
5036 5031 75
5036 5054 117
5036 5131 526
5037 5030 144
5037 5086 531
5037 5203 878
5038 5035 62
5038 5042 63
5038 5043 159
5039 5040 1571
5040 5039 1571
5040 5445 210
5041 4756 3279
5041 5095 20
5042 5034 58
5042 5035 35
5042 5038 63
5042 5055 145
5043 5038 159
5043 5050 167
5043 5107 323
5044 5019 196
5044 5047 246
5044 5067 108
5045 5046 488
5045 5147 1298
5046 5045 488
5046 5062 75
5046 5085 2184
5047 5048 86
5047 5044 246
5047 5049 63
5047 5079 174
5048 5047 86
5049 5047 63
5050 5043 167
5050 5052 102
5050 5094 278
5051 4992 532
5051 5339 1499
5051 5339 1477
5052 5050 102
5052 5053 95
5052 5090 252
5053 5052 95
5053 5056 88
5053 5089 229
5054 5023 192
5054 5036 117
5054 5105 477
5055 5042 145
5055 5065 132
5055 5113 317
5056 5053 88
5056 5072 520
5056 5087 208
5057 5034 204
5057 5059 88
5057 5065 64
5058 5059 11
5058 13404 274
5059 5058 11
5059 5024 213
5059 5057 88
5060 5061 4159
5060 4543 65
5061 5060 4159
5061 5185 359
5062 5046 75
5062 5070 106
5062 5080 152
5063 4667 3694
5063 5191 358
5064 5012 511
5064 4938 1276
5064 5244 1053
5065 5057 64
5065 5066 77
5065 5055 132
5065 5068 91
5066 5065 77
5066 4995 603
5067 5044 108
5067 5069 406
5067 5127 330
5068 5065 91
5068 5073 42
5068 5201 535
5069 5067 406
5069 5018 342
5069 5078 164
5069 5119 274
5070 5062 106
5071 5010 485
5072 5056 520
5072 5075 46
5072 5081 55
5073 5074 58
5073 5068 42
5073 5077 50
5073 5082 49
5074 5073 58
5074 13404 366
5075 5072 46
5075 5076 1422
5075 5114 809
5076 5075 1422
5077 5073 50
5077 5082 44
5077 5098 698
5078 5069 164
5078 5084 554
5078 5126 358
5079 5047 174
5080 5062 152
5081 5072 55
5081 5118 207
5081 5130 367
5082 5077 44
5082 5073 49
5082 5192 417
5083 5084 485
5084 5083 485
5084 5078 554
5085 5046 2184
5085 5115 32
5086 5037 531
5086 5029 860
5086 5144 879
5087 5056 208
5087 5088 71
5087 5089 74
5087 5111 91
5088 5087 71
5089 5053 229
5089 5087 74
5089 5090 82
5089 5120 159
5090 5052 252
5090 5089 82
5090 5094 98
5090 5122 139
5091 4796 2021
5091 5108 38
5091 5151 243
5092 5093 138
5092 5097 620
5092 5149 246
5093 5092 138
5093 5129 488
5093 5138 215
5094 5050 278
5094 5090 98
5094 5100 66
5094 5116 81
5095 5096 354
5095 5041 20
5096 5095 354
5096 5150 339
5096 5228 798
5097 5092 620
5097 5153 1870
5097 5196 803
5098 5077 698
5098 5110 125
5098 5128 156
5099 5100 155
5100 5099 155
5100 5094 66
5100 5107 99
5101 5102 200
5101 5103 201
5101 4893 1203
5102 5101 200
5102 5373 1099
5103 5104 202
5103 5101 201
5103 5371 1099
5104 5103 202
5104 5106 202
5104 4894 1203
5105 5022 542
5105 5054 477
5105 5244 1290
5106 5104 202
5106 5376 1098
5107 5043 323
5107 5100 99
5107 5109 221
5108 5091 38
5108 13406 289
5109 5107 221
5109 5113 145
5109 5206 346
5110 4897 1484
5110 5098 125
5110 5134 396
5110 5207 351
5111 5087 91
5112 5032 449
5112 5033 791
5112 5203 324
5113 5055 317
5113 5109 145
5113 5117 184
5114 5075 809
5114 5115 128
5114 5209 349
5115 5114 128
5115 5085 32
5116 5094 81
5117 5113 184
5118 5081 207
5118 5165 282
5118 5219 699
5119 5069 274
5119 5123 38
5119 5126 98
5120 5089 159
5120 5121 81
5120 5163 238
5121 5120 81
5121 5122 46
5121 5163 145
5122 5090 139
5122 5121 46
5122 5159 130
5122 5173 302
5123 5119 38
5123 5139 98
5123 5158 174
5124 5125 1076
5124 5137 93
5124 5141 82
5124 5183 149
5125 5124 1076
5125 4865 691
5126 5119 98
5126 5078 358
5126 5133 107
5127 5067 330
5127 5194 184
5127 5202 1015
5128 5098 156
5128 5197 347
5128 5200 218
5129 5093 488
5129 5132 180
5129 5138 469
5129 5222 347
5130 5081 367
5130 5154 110
5130 5187 294
5131 5036 526
5131 5153 298
5131 5169 103
5132 5129 180
5132 5152 289
5132 5229 355
5133 5126 107
5134 5110 396
5134 5136 54
5134 5246 785
5135 5136 152
5135 13405 418
5136 5135 152
5136 5134 54
5136 5137 257
5136 5142 155
5137 5124 93
5137 5136 257
5137 5183 114
5138 5093 215
5138 5129 469
5138 5149 195
5138 5213 264
5139 5123 98
5139 5140 53
5139 5166 86
5139 5168 72
5140 5139 53
5141 5124 82
5141 5143 18
5142 5136 155
5142 13405 416
5143 5141 18
5143 5148 72
5143 5183 107
5144 5086 879
5144 5029 1907
5144 5234 1416
5145 5146 511
5145 5178 77
5146 5145 511
5146 5179 96
5147 5045 1298
5147 5160 123
5147 5251 425
5148 5143 72
5148 13405 135
5149 5092 246
5149 5138 195
5149 5196 127
5150 5096 339
5150 5161 68
5150 5182 70
5151 5091 243
5151 5155 308
5151 5157 29
5152 5132 289
5152 5155 151
5152 5247 402
5153 5131 298
5153 5097 1870
5153 5169 265
5154 5130 110
5154 5165 33
5154 5193 96
5155 5152 151
5155 5151 308
5155 5156 90
5155 5157 300
5156 5155 90
5156 13406 343
5157 5151 29
5157 5155 300
5157 5211 180
5158 5123 174
5158 5175 32
5158 5194 136
5159 5122 130
5159 5164 68
5159 5170 16
5160 5147 123
5160 5174 442
5160 5253 510
5161 5150 68
5161 5162 976
5161 5171 21
5162 5161 976
5162 5025 173
5163 5121 145
5163 5167 24
5163 5120 238
5164 5159 68
5164 5173 56
5164 5198 92
5165 5118 282
5165 5154 33
5165 5193 91
5166 5139 86
5166 5175 146
5166 5189 82
5166 5199 121
5167 5163 24
5167 5170 31
5168 5139 72
5168 5199 97
5169 5131 103
5169 5153 265
5169 5488 1942
5170 5159 16
5170 5167 31
5170 5195 77
5171 5161 21
5171 5172 975
5171 5184 66
5171 5208 274
5172 5171 975
5172 5028 167
5173 5164 56
5173 5122 302
5173 5198 148
5174 5160 442
5174 5204 456
5174 5239 374
5175 5158 32
5175 5166 146
5175 5189 56
5176 4987 2464
5176 5177 1298
5176 5181 8
5176 5021 4329
5177 5176 1298
5178 5145 77
5178 5192 46
5178 5223 298
5179 5146 96
5179 5180 100
5179 5231 290
5180 5179 100
5181 5006 1628
5181 5176 8
5181 5327 1519
5181 5495 1942
5182 5150 70
5182 5184 42
5182 5188 27
5183 5143 107
5183 5124 149
5183 5137 114
5183 5232 270
5184 5182 42
5184 5171 66
5184 5188 42
5185 5186 905
5185 5061 359
5186 5185 905
5186 5268 516
5187 5130 294
5187 5209 332
5187 5219 174
5188 5182 27
5188 5184 42
5188 5236 926
5189 5175 56
5189 5166 82
5189 5205 93
5189 5214 159
5190 5191 902
5190 5275 509
5191 5190 902
5191 5063 358
5192 5178 46
5192 5082 417
5192 5201 49
5192 5293 600
5193 5165 91
5193 5154 96
5193 5219 271
5194 5127 184
5194 5158 136
5194 5225 300
5194 5323 855
5195 5170 77
5195 5198 74
5195 5248 325
5196 5097 803
5196 5149 127
5196 5263 415
5197 5128 347
5197 5200 104
5197 5233 255
5198 5164 92
5198 5195 74
5198 5173 148
5199 5166 121
5199 5168 97
5199 5210 90
5200 5128 218
5200 5197 104
5200 5207 129
5200 5240 242
5201 5192 49
5201 5068 535
5201 5254 377
5201 5286 505
5202 5127 1015
5203 5112 324
5203 5037 878
5203 5215 72
5204 5174 456
5204 5218 74
5205 5189 93
5205 5210 47
5205 5214 83
5206 5109 346
5206 5238 195
5206 5254 392
5207 5110 351
5207 5200 129
5207 5249 244
5208 5171 274
5208 5237 245
5208 5252 408
5209 5114 349
5209 5187 332
5209 5217 455
5210 5205 47
5210 5199 90
5210 5216 42
5210 5216 168
5211 5157 180
5211 5212 27
5211 5257 265
5212 5211 27
5212 13406 275
5213 5138 264
5213 5222 404
5213 5260 290
5214 5189 159
5214 5205 83
5214 5216 83
5215 5203 72
5216 5210 42
5216 5214 83
5216 5210 168
5217 5209 455
5217 5218 453
5217 5250 187
5218 5204 74
5218 5217 453
5218 5221 20
5218 5224 121
5219 5193 271
5219 5187 174
5219 5118 699
5220 5033 9648
5221 5218 20
5221 5270 319
5222 5213 404
5222 5129 347
5222 5229 137
5222 5235 72
5223 5178 298
5223 5231 201
5223 5258 187
5224 5218 121
5224 5239 368
5224 5292 402
5225 5194 300
5225 5230 28
5225 5241 87
5226 5227 569
5226 5273 79
5227 5226 569
5228 5096 798
5228 5234 71
5228 5236 47
5229 5222 137
5229 5132 355
5229 5247 306
5229 5271 259
5230 5225 28
5230 5243 86
5231 5179 290
5231 5233 36
5231 5223 201
5232 5183 270
5232 5246 110
5232 5256 115
5233 5197 255
5233 5231 36
5233 5240 141
5234 5144 1416
5234 5228 71
5234 5236 55
5235 5222 72
5235 5260 373
5235 5294 340
5236 5234 55
5236 5228 47
5236 5188 926
5237 5208 245
5237 5285 364
5237 5305 601
5238 5206 195
5239 5224 368
5239 5174 374
5239 5253 245
5240 5200 242
5240 5233 141
5240 5249 153
5240 5280 255
5241 5225 87
5241 5242 20
5241 5243 27
5242 5241 20
5243 5230 86
5243 5241 27
5243 5245 23
5244 5064 1053
5244 5105 1290
5244 5338 868
5245 5243 23
5246 5232 110
5246 5134 785
5246 5256 104
5247 5229 306
5247 5152 402
5247 5257 349
5247 5259 81
5248 5195 325
5248 5255 73
5248 5283 481
5249 5207 244
5249 5240 153
5249 5289 270
5250 5217 187
5250 5270 296
5250 5320 429
5251 5147 425
5252 5208 408
5252 5285 313
5252 5332 702
5253 5239 245
5253 5160 510
5254 5201 377
5254 5206 392
5254 5278 153
5255 5248 73
5255 5261 128
5255 5276 168
5256 5232 115
5256 5246 104
5256 5341 492
5257 5247 349
5257 5211 265
5257 5287 186
5258 5223 187
5258 5266 121
5258 5301 277
5259 5247 81
5259 5271 183
5259 5287 378
5260 5213 290
5260 5235 373
5260 5267 30
5261 5255 128
5261 5262 129
5261 5264 75
5262 5261 129
5263 5196 415
5263 5288 198
5263 5310 260
5264 5265 79
5264 5261 75
5264 5279 74
5265 5264 79
5266 5258 121
5266 5280 231
5266 5312 280
5267 5260 30
5267 5277 21
5268 5269 908
5268 5186 516
5269 5268 908
5269 5531 248
5270 5250 296
5270 5221 319
5270 5292 433
5271 5229 259
5271 5259 183
5271 5290 159
5272 5273 228
5272 5291 206
5272 5321 510
5273 5272 228
5273 5226 79
5274 5275 917
5274 5540 248
5275 5274 917
5275 5190 509
5276 5255 168
5277 5267 21
5277 5288 195
5277 5345 601
5278 5254 153
5278 5286 225
5278 5295 147
5279 5264 74
5280 5240 255
5280 5266 231
5280 5284 77
5280 5328 272
5281 5282 90
5282 5281 90
5283 5248 481
5283 5295 149
5283 5395 712
5284 5280 77
5284 5289 96
5284 5334 274
5285 5252 313
5285 5237 364
5285 5332 322
5285 5360 671
5286 5201 505
5286 5278 225
5286 5311 149
5287 5259 378
5287 5257 186
5287 5306 124
5288 5263 198
5288 5277 195
5288 5336 439
5289 5249 270
5289 5284 96
5289 5340 275
5290 5271 159
5290 5298 41
5290 5299 32
5291 5272 206
5291 5324 180
5291 5359 514
5292 5270 433
5292 5224 402
5292 5333 271
5293 5192 600
5293 5301 165
5293 5314 107
5294 5235 340
5294 5298 142
5294 5345 278
5295 5278 147
5295 5283 149
5295 5311 221
5296 5297 250
5296 5302 57
5296 5313 150
5297 5296 250
5297 5313 103
5297 5329 282
5298 5294 142
5298 5290 41
5298 5300 22
5299 5290 32
5299 5300 39
5299 5306 489
5300 5298 22
5300 5299 39
5300 5330 156
5301 5258 277
5301 5293 165
5301 5312 117
5302 5296 57
5302 5318 150
5302 5351 358
5303 5304 255
5303 5325 148
5304 5303 255
5305 5237 601
5305 5307 16
5305 5353 338
5306 5299 489
5306 5287 124
5306 5317 69
5307 5305 16
5307 5342 34
5308 5309 1330
5309 5308 1330
5309 5370 417
5309 5379 1086
5310 5263 260
5310 5337 645
5310 5494 1248
5311 5286 149
5311 5295 221
5311 5314 20
5311 5401 561
5312 5266 280
5312 5301 117
5312 5322 180
5312 5335 118
5313 5296 150
5313 5297 103
5313 5318 57
5314 5293 107
5314 5311 20
5314 5319 142
5314 5404 562
5315 5316 333
5315 5333 1412
5316 5315 333
5316 5356 540
5316 5515 1429
5317 5306 69
5317 5326 48
5317 5820 2932
5318 5302 150
5318 5313 57
5318 5344 161
5319 5314 142
5319 5335 140
5319 5367 395
5320 5250 429
5320 5333 888
5320 5380 1223
5321 5272 510
5322 5312 180
5322 5328 44
5322 5364 251
5323 5194 855
5323 5331 28
5323 5408 686
5324 5291 180
5324 5325 88
5324 5346 321
5325 5324 88
5325 5303 148
5326 5317 48
5326 5330 525
5326 5350 655
5327 5181 1519
5327 5347 585
5327 5465 876
5328 5280 272
5328 5322 44
5328 5334 74
5329 5297 282
5329 5331 434
5329 5354 260
5329 5366 319
5330 5300 156
5330 5326 525
5330 5350 140
5331 5329 434
5331 5323 28
5331 5354 177
5332 5252 702
5332 5285 322
5332 5365 277
5333 5292 271
5333 5315 1412
5333 5320 888
5334 5284 274
5334 5328 74
5334 5340 91
5335 5312 118
5335 5319 140
5335 5349 120
5336 5288 439
5336 5355 253
5336 5406 436
5337 5310 645
5338 5012 1907
5338 5244 868
5338 5348 110
5339 5051 1499
5339 5051 1477
5339 5343 31
5339 5343 31
5340 5289 275
5340 5334 91
5340 5341 1114
5340 5368 227
5341 5256 492
5341 5340 1114
5341 5536 1271
5342 5343 306
5342 5307 34
5343 5342 306
5343 5339 31
5343 5339 31
5343 5396 380
5343 5439 1257
5344 5318 161
5344 5351 52
5344 5352 90
5345 5277 601
5345 5294 278
5345 5350 80
5346 5324 321
5346 5357 152
5346 5425 431
5347 5021 2234
5347 5327 585
5347 5504 1126
5348 5338 110
5348 5488 3019
5348 5526 4634
5349 5335 120
5349 5364 249
5349 5367 140
5350 5345 80
5350 5330 140
5350 5355 20
5350 5326 655
5351 5302 358
5351 5344 52
5351 5377 189
5352 5344 90
5352 5363 115
5352 5383 239
5353 5305 338
5354 5329 260
5354 5331 177
5354 5374 169
5354 5386 348
5355 5336 253
5355 5350 20
5355 5358 27
5356 5316 540
5356 5467 818
5356 5483 1312
5357 5346 152
5358 5355 27
5358 5362 253
5358 5385 211
5359 5291 514
5359 13600 1079
5360 5285 671
5360 5361 196
5360 5396 339
5360 5454 647
5361 5360 196
5362 5358 253
5363 5352 115
5363 5366 74
5363 5384 161
5364 5322 251
5364 5349 249
5364 5368 148
5365 5332 277
5365 5369 48
5365 5419 371
5366 5363 74
5366 5329 319
5366 5382 141
5366 5394 161
5367 5349 140
5367 5319 395
5367 5378 34
5367 5392 199
5368 5340 227
5368 5364 148
5368 5430 291
5369 5365 48
5370 5309 417
5370 5379 669
5370 5380 69
5371 5372 260
5371 5375 262
5371 5103 1099
5372 5371 260
5372 5373 260
5372 5407 145
5373 5372 260
5373 5102 1099
5374 5354 169
5374 5399 149
5374 5414 350
5375 5376 261
5375 5371 262
5375 5410 154
5376 5375 261
5376 5106 1098
5377 5351 189
5377 5383 89
5377 5402 150
5378 5367 34
5379 5309 1086
5379 5370 669
5379 5423 247
5379 5434 287
5380 5370 69
5380 5381 468
5380 5320 1223
5381 5380 468
5382 5366 141
5382 5399 118
5382 5413 161
5383 5377 89
5383 5352 239
5383 5393 70
5384 5363 161
5384 5394 76
5384 5398 78
5385 5358 211
5385 5400 175
5385 5411 112
5386 5354 348
5386 5387 164
5386 5405 131
5386 5414 173
5387 5386 164
5388 5389 478
5389 5388 478
5390 5391 464
5391 5390 464
5391 5395 372
5391 5423 163
5392 5367 199
5393 5383 70
5393 5398 44
5393 5418 151
5394 5384 76
5394 5366 161
5394 5412 77
5394 5413 140
5395 5283 712
5395 5391 372
5395 5397 216
5395 5458 461
5396 5360 339
5396 5343 380
5396 5446 421
5396 5471 578
5397 5395 216
5397 5403 166
5397 5417 132
5398 5393 44
5398 5384 78
5398 5412 76
5399 5382 118
5399 5374 149
5399 5421 129
5399 5422 181
5400 5385 175
5401 5311 561
5401 5403 21
5401 5404 20
5401 5476 631
5402 5377 150
5402 5418 161
5402 5452 434
5403 5401 21
5403 5397 166
5403 5409 167
5404 5314 562
5404 5401 20
5404 5430 847
5404 5481 679
5405 5386 131
5405 5433 200
5405 5435 171
5406 5336 436
5406 5411 174
5406 5436 198
5407 5372 145
5407 5580 56
5408 5323 686
5408 5433 139
5408 5444 258
5409 5403 167
5410 5375 154
5410 5503 55
5411 5406 174
5411 5385 112
5411 5424 89
5412 5398 76
5412 5394 77
5412 5426 139
5412 5438 152
5413 5394 140
5413 5382 161
5413 5426 78
5414 5374 350
5414 5386 173
5414 5435 131
5414 5442 148
5415 5416 13
5416 5415 13
5417 5397 132
5418 5402 161
5418 5393 151
5418 5438 119
5419 5365 371
5419 5420 342
5419 5448 265
5419 5454 334
5420 5419 342
5421 5399 129
5421 5440 110
5421 5443 181
5422 5399 181
5422 5442 173
5422 5443 130
5423 5391 163
5423 5379 247
5423 5434 39
5424 5411 89
5425 5346 431
5426 5412 139
5426 5413 78
5426 5440 120
5427 5428 20
5428 5427 20
5428 5429 173
5428 5437 32
5429 5428 173
5430 5368 291
5430 5404 847
5430 5451 379
5430 5490 580
5431 5432 17
5432 5431 17
5433 5405 200
5433 5408 139
5433 5449 169
5434 5423 39
5434 5379 287
5434 5458 217
5435 5414 131
5435 5405 171
5435 5449 200
5436 5406 198
5437 5428 32
5438 5418 119
5438 5412 152
5438 5441 48
5438 5452 156
5439 5343 1257
5439 5006 2561
5439 5500 591
5439 5501 1267
5440 5426 120
5440 5421 110
5440 5453 181
5440 5455 150
5441 5438 48
5441 5455 210
5441 5457 157
5442 5422 173
5442 5414 148
5442 5447 108
5443 5421 181
5443 5422 130
5443 5453 110
5444 5408 258
5444 5445 3210
5444 5474 367
5444 5475 366
5445 5444 3210
5445 5040 210
5446 5396 421
5447 5442 108
5447 5461 220
5447 5469 239
5448 5419 265
5449 5435 200
5449 5433 169
5449 5461 150
5450 5451 150
5451 5450 150
5451 5430 379
5451 5456 84
5452 5402 434
5452 5438 156
5452 5457 47
5453 5440 181
5453 5443 110
5453 5460 149
5453 5464 149
5454 5419 334
5454 5360 647
5454 5471 452
5455 5441 210
5455 5440 150
5455 5464 183
5455 5468 155
5456 5451 84
5456 5459 127
5456 5518 600
5457 5452 47
5457 5441 157
5457 5468 215
5458 5395 461
5458 5434 217
5458 5476 472
5458 5565 884
5459 5456 127
5459 5463 121
5459 5485 352
5460 5453 149
5460 5469 130
5460 5472 149
5461 5447 220
5461 5449 150
5461 5474 228
5461 5480 240
5462 5463 324
5463 5462 324
5463 5459 121
5463 5473 262
5463 5485 310
5464 5455 183
5464 5453 149
5464 5470 102
5465 5327 876
5465 5466 42
5465 5527 511
5466 5465 42
5467 5356 818
5467 5483 928
5467 5515 701
5468 5457 215
5468 5455 155
5468 5482 280
5469 5460 130
5469 5447 239
5469 5479 149
5469 5480 220
5470 5464 102
5470 5472 45
5470 5482 170
5471 5454 452
5471 5396 578
5471 5546 561
5472 5470 45
5472 5460 149
5472 5479 131
5473 5463 262
5473 5484 431
5474 5461 228
5474 5444 367
5474 5475 16
5474 5506 328
5475 5474 16
5475 5444 366
5475 5508 323
5476 5401 631
5476 5458 472
5476 5529 352
5477 5478 128
5478 5477 128
5478 5486 115
5479 5472 131
5479 5469 149
5479 5496 220
5480 5469 220
5480 5461 240
5480 5492 186
5480 5496 148
5481 5404 679
5481 5487 406
5481 5528 292
5482 5468 280
5482 5470 170
5482 5522 400
5483 5356 1312
5483 5467 928
5484 5473 431
5484 5489 104
5484 5485 139
5484 5509 145
5485 5463 310
5485 5459 352
5485 5484 139
5485 5520 186
5486 5478 115
5486 5504 295
5486 5530 278
5487 5481 406
5487 5490 446
5487 5505 119
5488 5348 3019
5488 5169 1942
5488 5499 179
5488 5912 2838
5489 5484 104
5489 5491 154
5489 5498 57
5490 5430 580
5490 5487 446
5490 5497 44
5491 5489 154
5491 5514 175
5491 5514 231
5492 5480 186
5492 5493 196
5492 5516 151
5493 5492 196
5494 5310 1248
5495 5181 1942
5495 5501 208
5495 5545 709
5496 5479 220
5496 5480 148
5496 5516 186
5496 5522 172
5497 5490 44
5497 5511 146
5497 5512 101
5498 5489 57
5498 5514 169
5498 5524 126
5499 5488 179
5499 5819 26
5500 5439 591
5500 5525 211
5500 5525 162
5501 5439 1267
5501 5495 208
5501 5619 585
5502 5503 788
5502 5582 888
5503 5502 788
5503 5410 55
5504 5486 295
5504 5347 1126
5504 5551 236
5505 5487 119
5505 5507 60
5505 5510 232
5506 5474 328
5506 5508 17
5506 5519 60
5507 5505 60
5507 5528 344
5507 5592 485
5508 5506 17
5508 5475 323
5508 5513 452
5508 5523 64
5509 5484 145
5510 5505 232
5510 5511 104
5510 5579 424
5511 5497 146
5511 5510 104
5511 5533 144
5512 5497 101
5512 5518 316
5512 5533 138
5513 5508 452
5513 5517 511
5513 5556 300
5514 5491 175
5514 5498 169
5514 5491 231
5515 5316 1429
5515 5467 701
5515 5614 584
5516 5496 186
5516 5492 151
5516 5519 45
5516 5537 144
5517 5513 511
5517 5521 500
5517 5559 299
5518 5456 600
5518 5512 316
5518 5520 323
5518 5561 300
5519 5516 45
5519 5506 60
5519 5523 14
5519 5555 279
5520 5485 186
5520 5518 323
5520 5524 241
5521 5517 500
5521 5543 252
5521 5544 150
5522 5482 400
5522 5496 172
5523 5519 14
5523 5508 64
5523 5557 292
5524 5498 126
5524 5520 241
5524 5536 577
5525 5500 211
5525 5500 162
5526 5021 3083
5526 5348 4634
5526 5695 792
5527 5465 511
5527 5530 87
5527 5532 36
5528 5507 344
5528 5481 292
5528 5529 19
5528 5617 445
5529 5528 19
5529 5476 352
5529 5538 216
5529 5730 887
5530 5527 87
5530 5486 278
5530 5551 296
5531 5532 1983
5531 5269 248
5532 5531 1983
5532 5527 36
5532 5539 13
5532 5577 412
5533 5512 138
5533 5511 144
5533 5575 267
5534 5535 1224
5535 5534 1224
5535 5555 230
5535 5562 253
5536 5341 1271
5536 5524 577
5536 5892 3278
5537 5516 144
5538 5529 216
5538 5565 342
5538 5569 343
5539 5540 1985
5539 5532 13
5539 5572 266
5539 5578 412
5540 5539 1985
5540 5274 248
5541 5542 1040
5542 5541 1040
5542 5603 395
5543 5521 252
5543 5547 36
5543 5550 61
5544 5521 150
5544 5547 208
5544 5563 141
5545 5495 709
5545 5572 571
5545 5615 377
5546 5471 561
5547 5544 208
5547 5543 36
5547 5550 60
5548 5549 188
5548 5553 49
5548 5583 319
5549 5548 188
5549 5552 125
5549 5554 45
5550 5547 60
5550 5543 61
5550 5573 169
5551 5530 296
5551 5504 236
5551 5648 409
5552 5549 125
5552 5553 14
5553 5548 49
5553 5552 14
5553 5612 306
5554 5549 45
5555 5535 230
5555 5519 279
5555 5557 20
5555 5562 39
5556 5513 300
5556 5558 13
5556 5559 512
5556 5568 355
5557 5555 20
5557 5523 292
5557 5570 46
5558 5556 13
5558 5564 152
5558 5566 512
5559 5556 512
5559 5517 299
5559 5563 496
5559 5566 13
5560 5561 528
5561 5560 528
5561 5518 300
5561 5575 367
5561 5624 249
5562 5535 253
5562 5555 39
5562 5600 182
5563 5559 496
5563 5544 141
5563 5573 269
5564 5558 152
5564 5571 200
5564 5646 289
5565 5538 342
5565 5458 884
5565 5601 415
5566 5558 512
5566 5559 13
5566 5567 137
5567 5566 137
5567 5574 626
5567 5594 217
5568 5556 355
5568 5571 11
5568 5576 233
5569 5538 343
5569 5607 418
5569 5644 256
5570 5557 46
5570 5576 67
5570 5593 128
5571 5568 11
5571 5564 200
5571 5599 362
5571 5684 378
5572 5545 571
5572 5539 266
5572 5586 153
5573 5563 269
5573 5550 169
5573 5574 13
5573 5585 194
5574 5567 626
5574 5573 13
5574 5591 198
5575 5561 367
5575 5533 267
5575 5579 150
5575 5663 276
5576 5570 67
5576 5568 233
5576 5593 117
5577 5532 412
5577 5841 2146
5578 5539 412
5578 5871 2144
5579 5575 150
5579 5510 424
5579 5592 251
5579 5630 151
5580 5581 1680
5580 5407 56
5581 5580 1680
5581 5596 103
5581 5627 159
5582 5502 888
5582 5604 104
5582 5629 158
5583 5584 784
5583 5548 319
5583 5595 55
5584 5583 784
5584 5654 31
5585 5573 194
5585 5591 19
5585 5598 85
5586 5572 153
5586 5648 299
5586 5807 1204
5587 5588 1301
5587 5605 920
5587 5625 1237
5588 5587 1301
5589 5590 1026
5589 5598 53
5589 5606 63
5590 5589 1026
5590 5602 300
5590 5602 308
5591 5574 198
5591 5585 19
5591 5610 79
5591 5628 285
5592 5579 251
5592 5507 485
5592 5618 77
5593 5570 128
5593 5576 117
5593 5599 24
5593 5600 36
5594 5567 217
5594 5597 141
5595 5583 55
5595 5736 69
5596 5581 103
5596 5627 88
5596 5642 167
5597 5594 141
5597 5616 618
5597 5643 840
5598 5585 85
5598 5589 53
5598 5606 64
5599 5593 24
5599 5571 362
5599 5839 1311
5600 5562 182
5600 5593 36
5600 5707 403
5601 5565 415
5601 5607 15
5601 5634 182
5602 5590 300
5602 5603 130
5602 5590 308
5602 5635 99
5603 5602 130
5603 5542 395
5604 5582 104
5604 5629 102
5604 5659 136
5605 5587 920
5605 5613 19
5605 5614 372
5606 5598 64
5606 5589 63
5606 5620 122
5607 5569 418
5607 5601 15
5607 5639 180
5607 5653 121
5608 5609 126
5608 5613 1602
5608 5718 411
5609 5608 126
5609 5611 202
5609 5622 33
5610 5591 79
5610 13408 383
5611 5609 202
5611 5626 33
5611 5636 220
5612 5553 306
5613 5608 1602
5613 5605 19
5613 5621 366
5613 5765 741
5614 5605 372
5614 5515 584
5614 5621 17
5614 5632 104
5615 5545 377
5615 5623 44
5615 5633 38
5616 5597 618
5616 13407 116
5617 5528 445
5617 5618 366
5617 5859 1389
5618 5592 77
5618 5617 366
5618 5630 224
5619 5501 585
5619 5623 688
5619 5790 962
5620 5606 122
5620 5628 21
5620 5631 47
5621 5613 366
5621 5614 17
5621 5640 115
5622 5609 33
5622 5626 200
5622 5651 66
5623 5619 688
5623 5615 44
5623 5637 26
5624 5561 249
5625 5587 1237
5625 5636 19
5625 5645 193
5626 5611 33
5626 5622 200
5626 5647 194
5627 5581 159
5627 5596 88
5627 5825 318
5628 5591 285
5628 5620 21
5628 5631 29
5628 5643 37
5629 5604 102
5629 5582 158
5629 5722 317
5630 5579 151
5630 5618 224
5630 5663 397
5631 5628 29
5631 5620 47
5631 5635 12
5632 5614 104
5633 5615 38
5633 5638 36
5633 5674 308
5634 5601 182
5634 5639 15
5634 5669 525
5635 5631 12
5635 5602 99
5635 5641 33
5635 5643 54
5636 5625 19
5636 5611 220
5636 5650 191
5636 5665 94
5637 5623 26
5637 5638 6
5638 5637 6
5638 5633 36
5638 5700 295
5639 5607 180
5639 5634 15
5639 5658 129
5639 5673 530
5640 5621 115
5641 5635 33
5641 5643 77
5641 5680 180
5642 5596 167
5642 5649 64
5642 5657 53
5643 5628 37
5643 5635 54
5643 5641 77
5643 5597 840
5644 5569 256
5644 5682 272
5644 5714 304
5645 5625 193
5645 5649 51
5645 5650 16
5646 5564 289
5647 5626 194
5648 5586 299
5648 5551 409
5648 5683 264
5649 5642 64
5649 5645 51
5649 5657 79
5650 5645 16
5650 5636 191
5650 5656 58
5651 5622 66
5651 5652 115
5651 5668 67
5652 5651 115
5652 5662 38
5652 5664 163
5653 5607 121
5653 5658 23
5653 5690 119
5654 5655 679
5654 5584 31
5655 5654 679
5655 5685 167
5656 5650 58
5656 5660 70
5656 5666 57
5657 5642 53
5657 5649 79
5657 5661 102
5658 5653 23
5658 5639 129
5658 5691 119
5659 5604 136
5659 5661 59
5659 5669 47
5660 5656 70
5660 5666 49
5660 5667 106
5661 5659 59
5661 5657 102
5661 5669 75
5662 5652 38
5663 5575 276
5663 5630 397
5664 5652 163
5664 5677 39
5664 5679 108
5665 5636 94
5665 5671 94
5665 5688 72
5666 5660 49
5666 5656 57
5666 5687 62
5667 5660 106
5667 5673 80
5667 5681 61
5668 5651 67
5668 5689 135
5668 5692 83
5669 5634 525
5669 5659 47
5669 5661 75
5670 5671 110
5670 5672 54
5670 5671 110
5671 5670 110
5671 5665 94
5671 5670 110
5671 5688 197
5672 5670 54
5673 5639 530
5673 5681 60
5673 5667 80
5674 5633 308
5675 5676 90
5676 5675 90
5677 5678 21
5677 5664 39
5677 5689 194
5678 5677 21
5678 5679 48
5678 5698 347
5679 5664 108
5679 5678 48
5679 5688 73
5680 5641 180
5680 5748 650
5681 5673 60
5681 5721 260
5681 5667 61
5682 5644 272
5682 5690 216
5682 5717 184
5683 5648 264
5683 5704 1857
5683 5778 676
5684 5571 378
5684 5693 64
5685 5686 76
5685 5655 167
5686 5685 76
5686 5711 39
5687 5666 62
5687 5709 38
5688 5665 72
5688 5679 73
5688 5671 197
5688 5696 62
5689 5677 194
5689 5668 135
5689 5692 75
5690 5682 216
5690 5653 119
5690 5691 12
5690 5723 191
5691 5690 12
5691 5658 119
5691 5694 115
5691 5724 190
5692 5689 75
5692 5668 83
5692 5698 73
5693 5684 64
5694 5691 115
5695 5526 792
5695 5699 82
5695 5727 182
5696 5688 62
5696 5697 14
5696 5713 449
5697 5696 14
5697 5716 23
5698 5678 347
5698 5692 73
5698 5701 71
5699 5695 82
5699 5705 89
5700 5638 295
5701 5698 71
5701 5702 129
5701 5713 40
5702 5701 129
5703 5706 22
5704 5683 1857
5704 5705 10
5704 5708 34
5705 5704 10
5705 5699 89
5706 5703 22
5706 5715 121
5706 5738 140
5707 5600 403
5707 5712 495
5707 5909 1503
5708 5704 34
5708 5726 43
5709 5710 114
5709 5687 38
5710 5709 114
5710 5750 273
5711 5712 2362
5711 5686 39
5712 5711 2362
5712 5707 495
5712 5950 2034
5713 5696 449
5713 5701 40
5713 5718 130
5714 5644 304
5714 5717 184
5714 5730 524
5714 5776 492
5715 5706 121
5715 5716 73
5715 5720 86
5715 5741 136
5716 5715 73
5716 5697 23
5717 5714 184
5717 5682 184
5717 5723 238
5718 5713 130
5718 5608 411
5718 5719 10
5719 5718 10
5719 5751 42
5720 5715 86
5720 5725 73
5720 5743 173
5721 5722 71
5721 5681 260
5721 5737 102
5722 5721 71
5722 5737 141
5722 5629 317
5723 5717 238
5723 5690 191
5723 5724 9
5723 5795 581
5724 5723 9
5724 5691 190
5724 5775 719
5724 5794 579
5725 5720 73
5725 5733 263
5725 5742 130
5726 5727 122
5726 5708 43
5727 5726 122
5727 5695 182
5727 5754 212
5727 5755 212
5727 6173 8549
5728 5729 100
5728 13408 253
5729 5728 100
5730 5529 887
5730 5714 524
5730 5788 465
5731 5732 91
5732 5731 91
5732 13407 520
5733 5725 263
5733 5734 67
5733 5740 41
5734 5733 67
5735 5736 629
5735 5768 88
5736 5735 629
5736 5595 69
5737 5721 102
5737 5722 141
5737 5827 707
5738 5706 140
5738 5741 124
5738 5745 103
5739 5740 113
5740 5733 41
5740 5739 113
5740 5746 195
5741 5738 124
5741 5715 136
5741 5756 175
5742 5725 130
5742 5743 77
5742 5747 70
5743 5720 173
5743 5742 77
5743 5753 87
5744 5745 36
5744 5750 46
5745 5744 36
5745 5738 103
5745 5749 64
5746 5740 195
5746 5747 25
5746 5764 173
5747 5742 70
5747 5746 25
5747 5753 76
5748 5680 650
5749 5745 64
5749 5757 72
5749 5759 154
5750 5710 273
5750 5744 46
5750 5762 134
5751 5752 172
5751 5719 42
5752 5751 172
5752 5761 112
5752 5764 317
5753 5743 87
5753 5747 76
5753 5758 70
5754 5727 212
5754 5786 256
5755 5727 212
5755 5787 255
5756 5741 175
5756 5758 28
5756 5759 67
5757 5749 72
5757 5760 52
5757 5763 90
5758 5756 28
5758 5753 70
5758 5766 130
5759 5749 154
5759 5756 67
5759 5760 73
5759 5769 129
5760 5757 52
5760 5759 73
5760 5769 196
5761 5752 112
5761 5773 114
5761 5791 455
5762 5750 134
5763 5757 90
5764 5746 173
5764 5752 317
5764 5770 172
5765 5613 741
5766 5758 130
5766 5769 126
5766 5770 44
5767 5768 522
5767 5927 98
5768 5767 522
5768 5735 88
5769 5759 129
5769 5766 126
5769 5760 196
5770 5766 44
5770 5764 172
5770 5777 146
5770 5791 129
5771 5772 80
5771 5777 157
5771 5781 80
5772 5771 80
5773 5761 114
5773 5774 17
5773 5800 383
5774 5773 17
5774 5798 57
5775 5724 719
5775 5782 368
5775 5794 456
5775 5872 668
5776 5714 492
5776 5779 16
5777 5771 157
5777 5770 146
5777 5781 128
5778 5683 676
5778 5780 150
5778 5797 113
5779 5776 16
5779 5785 175
5779 5789 57
5779 5795 462
5780 5778 150
5780 5783 580
5780 5828 303
5781 5771 80
5781 5777 128
5781 5784 50
5782 5775 368
5782 5784 154
5783 5780 580
5784 5781 50
5784 5782 154
5785 5779 175
5785 5792 227
5786 5754 256
5786 13411 295
5787 5755 255
5787 13412 295
5788 5730 465
5788 5792 112
5788 5815 190
5789 5779 57
5789 5793 200
5789 5808 140
5790 5619 962
5791 5770 129
5791 5761 455
5791 5800 84
5792 5788 112
5792 5785 227
5792 5815 160
5793 5789 200
5793 5796 28
5793 5802 86
5794 5724 579
5794 5775 456
5794 5795 13
5794 5886 665
5795 5779 462
5795 5723 581
5795 5794 13
5795 5803 81
5796 5793 28
5796 5805 201
5796 5806 86
5797 5778 113
5798 5799 98
5798 5774 57
5799 5798 98
5799 5818 108
5799 5949 1472
5800 5791 84
5800 5773 383
5800 5801 23
5801 5800 23
5801 5835 54
5802 5793 86
5802 5806 28
5802 5813 34
5803 5795 81
5803 5810 126
5803 5831 145
5804 5805 35
5805 5804 35
5805 5796 201
5805 5824 111
5806 5796 86
5806 5802 28
5806 5814 28
5807 5586 1204
5807 5817 248
5807 5984 1503
5808 5789 140
5808 5809 109
5808 5813 174
5808 5836 146
5809 5808 109
5809 5810 196
5809 5843 208
5810 5809 196
5810 5803 126
5810 5844 180
5811 5812 36
5812 5811 36
5813 5802 34
5813 5808 174
5813 5816 34
5814 5806 28
5814 5816 50
5814 5821 96
5815 5788 190
5815 5792 160
5815 5858 269
5816 5813 34
5816 5814 50
5816 5832 91
5817 5807 248
5817 5829 17
5818 5799 108
5818 5834 148
5818 5849 163
5819 5820 4044
5819 5499 26
5820 5819 4044
5820 5317 2932
5820 5830 58
5821 5814 96
5821 5824 78
5821 5846 139
5822 5823 20
5823 5822 20
5824 5805 111
5824 5821 78
5824 5837 73
5825 5826 848
5825 5627 318
5826 5825 848
5826 5878 29
5827 5737 707
5827 5883 28
5828 5829 413
5828 5780 303
5828 5840 234
5828 5986 1124
5829 5828 413
5829 5817 17
5830 5820 58
5830 5851 35
5831 5803 145
5831 5838 109
5831 5857 172
5832 5816 91
5832 5833 30
5832 5847 101
5833 5832 30
5833 5836 159
5833 5850 94
5834 5835 218
5834 5818 148
5834 5861 212
5835 5834 218
5835 5801 54
5836 5833 159
5836 5808 146
5836 5843 140
5836 5866 221
5837 5824 73
5837 5848 48
5837 5858 143
5838 5831 109
5838 5844 74
5838 5860 206
5839 5599 1311
5839 5856 119
5839 5880 371
5840 5828 234
5841 5842 58
5841 5577 2146
5842 5841 58
5842 5853 379
5842 5888 736
5843 5836 140
5843 5809 208
5843 5845 52
5844 5810 180
5844 5838 74
5844 5845 89
5845 5843 52
5845 5844 89
5845 5863 165
5846 5821 139
5846 5847 42
5846 5848 76
5847 5846 42
5847 5832 101
5847 5866 335
5848 5837 48
5848 5846 76
5848 5864 164
5849 5818 163
5849 5865 211
5849 5865 253
5850 5833 94
5851 5852 62
5851 5830 35
5852 5851 62
5852 5955 3212
5852 5997 1039
5853 5842 379
5853 13411 79
5854 5855 398
5855 5854 398
5855 5869 551
5855 5956 856
5856 5839 119
5856 13415 234
5857 5831 172
5857 5860 143
5857 5868 109
5858 5815 269
5858 5837 143
5858 5913 549
5859 5617 1389
5859 5874 126
5859 5911 454
5860 5838 206
5860 5857 143
5860 5867 127
5861 5834 212
5861 5862 9
5861 5875 161
5861 5898 475
5862 5861 9
5863 5845 165
5863 5867 41
5863 5877 170
5864 5848 164
5865 5849 211
5865 5849 253
5865 5884 162
5866 5836 221
5866 5847 335
5866 5893 233
5867 5863 41
5867 5860 127
5867 5876 107
5868 5857 109
5868 5876 271
5868 5887 161
5869 5855 551
5870 5871 504
5870 5895 397
5870 5907 523
5871 5870 504
5871 5578 2144
5872 5775 668
5872 5873 305
5872 5886 334
5872 5930 508
5873 5872 305
5874 5859 126
5874 5955 694
5874 6011 694
5875 5861 161
5875 5884 172
5875 5898 183
5876 5867 107
5876 5868 271
5876 5885 57
5877 5863 170
5877 5885 144
5877 5893 160
5878 5879 370
5878 5826 29
5879 5878 370
5879 5905 49
5880 5839 371
5880 5881 91
5880 6015 1117
5881 5880 91
5881 13417 459
5882 5883 383
5882 5903 56
5883 5882 383
5883 5827 28
5884 5865 162
5884 5875 172
5884 5915 239
5885 5876 57
5885 5877 144
5885 5901 98
5886 5794 665
5886 5872 334
5886 5887 11
5887 5868 161
5887 5886 11
5887 5901 274
5887 5920 409
5888 5842 736
5888 5889 245
5888 5993 1374
5889 5888 245
5889 13412 264
5890 5891 74
5891 5890 74
5891 5894 86
5891 5899 108
5892 5536 3278
5892 5911 320
5892 5914 374
5893 5866 233
5893 5877 160
5893 5897 65
5894 5891 86
5894 5896 64
5894 5899 38
5895 5870 397
5895 13412 354
5896 5894 64
5896 5904 36
5896 5897 173
5897 5893 65
5897 5900 26
5897 5896 173
5898 5861 475
5898 5875 183
5898 5917 250
5899 5891 108
5899 5894 38
5899 5904 62
5900 5897 26
5900 5901 225
5900 5923 222
5901 5885 98
5901 5887 274
5901 5900 225
5902 5903 70
5902 5942 357
5902 6027 749
5903 5902 70
5903 5882 56
5904 5899 62
5904 5896 36
5905 5906 101
5905 5879 49
5906 5905 101
5906 5941 343
5906 6155 1210
5907 5908 626
5907 5870 523
5907 5996 1146
5908 5907 626
5908 13411 354
5909 5910 325
5909 5707 1503
5909 6010 876
5910 5909 325
5910 13415 373
5911 5892 320
5911 5859 454
5911 5913 88
5911 5914 57
5912 5488 2838
5912 5921 186
5912 6036 843
5913 5911 88
5913 5858 549
5913 5923 196
5914 5892 374
5914 5911 57
5914 5931 347
5915 5884 239
5915 5916 58
5915 5949 469
5916 5915 58
5916 5917 70
5917 5898 250
5917 5916 70
5917 5932 431
5918 5919 781
5918 5921 53
5919 5918 781
5919 6192 81
5920 5887 409
5920 5922 16
5920 5945 233
5921 5912 186
5921 5918 53
5922 5920 16
5922 5930 180
5922 5946 233
5923 5913 196
5923 5900 222
5923 5938 257
5924 5925 20
5925 5924 20
5926 5927 1279
5926 5933 149
5926 5978 381
5927 5926 1279
5927 5767 98
5928 5929 400
5929 5928 400
5929 5958 208
5930 5922 180
5930 5872 508
5930 5940 513
5931 5914 347
5931 5939 141
5931 5965 234
5932 5917 431
5932 5940 257
5933 5926 149
5934 5935 113
5934 5936 38
5934 5987 367
5935 5934 113
5936 5934 38
5937 5938 176
5937 5939 175
5937 13404 5769
5938 5937 176
5938 5923 257
5938 5943 100
5939 5931 141
5939 5937 175
5939 5989 614
5940 5930 513
5940 5932 257
5941 5906 343
5941 13419 554
5942 5902 357
5942 13419 524
5943 5938 100
5943 5944 105
5943 5952 98
5944 5943 105
5944 5965 1206
5944 6050 1206
5945 5920 233
5945 5946 15
5945 5952 143
5946 5945 15
5946 5922 233
5946 5967 123
5947 5948 32
5948 5947 32
5948 5953 44
5948 5961 93
5949 5915 469
5949 5799 1472
5949 5959 339
5949 6004 273
5950 5951 1810
5950 5712 2034
5950 5983 186
5950 5992 420
5951 5950 1810
5952 5943 98
5952 5945 143
5952 5967 191
5953 5948 44
5953 5954 26
5953 5957 32
5954 5953 26
5955 5852 3212
5955 5874 694
5955 6011 694
5956 5855 856
5956 5958 20
5956 5959 331
5957 5953 32
5958 5956 20
5958 5929 208
5958 6058 477
5959 5960 716
5959 5956 331
5959 5949 339
5960 5959 716
5961 5948 93
5961 5962 36
5961 5980 206
5962 5961 36
5963 5964 41
5964 5963 41
5964 5966 33
5964 5968 18
5965 5931 234
5965 5944 1206
5965 6050 1206
5966 5964 33
5967 5952 191
5967 5946 123
5967 5985 213
5968 5964 18
5968 5969 40
5968 5970 22
5969 5968 40
5970 5968 22
5970 5973 30
5970 5974 8
5971 5972 150
5972 5971 150
5973 5970 30
5974 5970 8
5974 5975 44
5974 5980 37
5975 5974 44
5976 5977 32
5977 5976 32
5978 5926 381
5978 5979 9
5978 6053 277
5979 5978 9
5979 5980 60
5979 6009 172
5980 5974 37
5980 5979 60
5980 5961 206
5981 5982 1441
5982 5981 1441
5982 5994 775
5983 5950 186
5983 6010 153
5983 6034 429
5984 5807 1503
5985 5967 213
5985 5988 177
5985 6070 756
5986 5828 1124
5987 5934 367
5988 5985 177
5988 6050 321
5989 5939 614
5989 6016 133
5989 6051 547
5990 5991 370
5991 5990 370
5992 5950 420
5992 6034 175
5992 6055 439
5993 5888 1374
5993 6079 55
5994 5995 125
5994 5982 775
5995 5994 125
5995 13418 256
5996 5907 1146
5996 6082 51
5997 5852 1039
5997 6093 2178
5997 6191 663
5998 5999 225
5999 5998 225
6000 6001 221
6001 6000 221
6002 6003 158
6003 6002 158
6004 5949 273
6005 6006 69
6005 6008 42
6005 6018 37
6006 6005 69
6006 6019 42
6006 6023 96
6007 6008 22
6008 6007 22
6008 6005 42
6008 6013 23
6008 6018 60
6009 5979 172
6010 5983 153
6010 5909 876
6010 6015 16
6010 6099 549
6011 6012 193
6011 5874 694
6011 5955 694
6012 6011 193
6012 6057 175
6012 6065 265
6013 6014 27
6013 6008 23
6013 6028 41
6014 6013 27
6015 6010 16
6015 5880 1117
6015 6060 294
6016 6017 436
6016 5989 133
6016 6050 246
6017 6016 436
6018 6008 60
6018 6005 37
6018 6020 11
6018 6024 12
6019 6006 42
6019 6020 53
6019 6023 55
6019 6031 33
6020 6018 11
6020 6019 53
6020 6024 12
6021 6022 444
6021 6066 593
6021 6090 257
6022 6021 444
6022 6032 183
6022 6049 97
6023 6019 55
6023 6006 96
6023 6025 30
6024 6018 12
6024 6020 12
6024 6026 10
6025 6023 30
6025 6029 16
6025 6038 500
6026 6024 10
6026 6028 66
6026 6035 29
6027 5902 749
6027 6043 51
6027 6070 289
6028 6013 41
6028 6026 66
6028 6037 33
6029 6025 16
6029 6030 13
6029 6040 28
6030 6029 13
6030 6031 67
6031 6019 33
6031 6030 67
6031 6035 69
6031 6041 28
6032 6022 183
6032 6033 716
6032 6069 123
6033 6032 716
6034 5992 175
6034 5983 429
6034 6107 443
6035 6026 29
6035 6031 69
6035 6037 75
6035 6044 24
6036 5912 843
6036 6133 36
6037 6028 33
6037 6035 75
6037 6045 25
6038 6025 500
6038 6046 258
6038 6059 137
6039 6040 14
6039 6041 66
6040 6039 14
6040 6029 28
6040 6042 6
6041 6031 28
6041 6039 66
6041 6044 64
6041 6047 24
6042 6040 6
6042 6046 14
6043 6027 51
6043 6169 423
6044 6035 24
6044 6041 64
6044 6045 85
6045 6037 25
6045 6044 85
6045 6056 40
6046 6042 14
6046 6038 258
6046 6047 81
6047 6041 24
6047 6048 64
6047 6046 81
6048 6047 64
6048 6056 93
6048 6061 55
6049 6022 97
6049 6074 87
6049 6077 151
6050 6016 246
6050 5988 321
6050 6052 207
6050 5944 1206
6050 5965 1206
6051 6052 140
6051 5989 547
6051 6075 169
6052 6051 140
6052 6050 207
6053 5978 277
6054 6055 193
6055 6054 193
6055 5992 439
6055 6107 166
6055 6140 446
6056 6045 40
6056 6048 93
6056 6062 479
6057 6012 175
6057 6065 240
6057 6093 847
6058 5958 477
6058 6066 27
6058 6078 71
6059 6038 137
6059 6067 49
6059 6140 284
6060 6015 294
6060 6110 260
6060 6160 401
6061 6048 55
6061 6063 94
6061 6098 105
6062 6056 479
6062 6097 251
6062 6106 110
6063 6064 14
6063 6061 94
6063 6068 16
6064 6063 14
6065 6057 240
6065 6012 265
6065 6268 1618
6066 6058 27
6066 6021 593
6066 6112 121
6067 6059 49
6067 6084 66
6067 6085 63
6068 6063 16
6068 6072 151
6068 6076 20
6069 6032 123
6069 6071 108
6069 6111 107
6070 5985 756
6070 6027 289
6070 6155 460
6071 6069 108
6071 6074 35
6071 6115 104
6072 6073 30
6072 6068 151
6072 6088 46
6072 6088 154
6073 6072 30
6074 6049 87
6074 6071 35
6074 6077 102
6075 6051 169
6075 6094 97
6075 6174 676
6076 6068 20
6076 6083 40
6076 6089 31
6076 6089 173
6077 6049 151
6077 6074 102
6077 6090 478
6077 6122 126
6078 6058 71
6078 6181 188
6079 6080 560
6079 5993 55
6080 6079 560
6081 6082 536
6082 6081 536
6082 5996 51
6083 6076 40
6083 6088 106
6083 6089 35
6084 6067 66
6084 6085 56
6084 6095 86
6085 6067 63
6085 6084 56
6085 6096 31
6086 6087 77
6086 6096 144
6086 6098 307
6087 6086 77
6088 6072 46
6088 6083 106
6088 6072 154
6089 6076 31
6089 6076 173
6089 6083 35
6090 6021 257
6090 6077 478
6090 6142 117
6091 6092 31
6092 6091 31
6093 6057 847
6093 5997 2178
6093 6240 607
6094 6075 97
6094 6164 425
6094 6168 474
6095 6084 86
6095 6096 111
6095 6113 143
6096 6085 31
6096 6095 111
6096 6086 144
6096 6113 32
6097 6062 251
6097 6108 158
6097 6148 108
6098 6061 105
6098 6086 307
6098 6100 126
6098 6143 87
6099 6010 549
6099 6110 15
6099 6161 327
6100 6098 126
6100 6101 114
6100 6124 37
6101 6100 114
6101 6106 319
6101 6126 38
6102 6103 436
6103 6102 436
6104 6105 607
6104 6114 737
6104 6116 32
6105 6104 607
6106 6062 110
6106 6101 319
6106 6108 56
6106 6123 31
6107 6055 166
6107 6034 443
6107 6161 163
6107 6175 439
6108 6109 138
6108 6106 56
6108 6097 158
6109 6108 138
6110 6099 15
6110 6060 260
6110 6118 24
6110 6166 326
6111 6069 107
6111 6115 114
6111 6194 268
6112 6066 121
6112 6128 163
6112 6131 39
6113 6096 32
6113 6095 143
6113 6137 52
6114 6104 737
6115 6071 104
6115 6111 114
6115 6122 97
6115 6158 111
6116 6104 32
6116 6117 251
6116 6245 528
6117 6116 251
6118 6110 24
6118 6119 213
6118 6163 128
6119 6118 213
6120 6121 46
6121 6120 46
6122 6077 126
6122 6115 97
6122 6157 84
6123 6106 31
6124 6100 37
6124 6125 42
6124 6126 113
6125 6124 42
6126 6101 38
6126 6124 113
6126 6127 45
6127 6126 45
6128 6112 163
6128 6131 180
6128 6132 92
6129 6130 20
6130 6129 20
6131 6112 39
6131 6128 180
6131 6167 476
6132 6128 92
6132 6141 30
6133 6134 312
6133 6036 36
6134 6133 312
6134 6172 37
6135 6136 163
6135 6138 109
6135 6146 136
6136 6135 163
6136 6146 46
6136 6162 342
6137 6113 52
6137 6139 134
6137 6140 265
6138 6135 109
6138 6184 30
6139 6137 134
6139 6143 303
6139 6149 21
6140 6137 265
6140 6059 284
6140 6055 446
6140 6149 401
6140 6175 156
6140 6178 157
6141 6142 73
6141 6132 30
6142 6141 73
6142 6090 117
6142 6205 679
6143 6098 87
6143 6139 303
6143 6144 60
6144 6143 60
6144 6145 247
6144 6150 17
6145 6144 247
6145 6147 253
6145 6151 18
6146 6136 46
6146 6135 136
6146 6182 162
6147 6145 253
6147 6148 228
6147 6154 16
6148 6097 108
6148 6147 228
6148 6152 44
6149 6139 21
6149 6140 401
6149 6150 362
6149 6212 239
6150 6144 17
6150 6149 362
6150 6151 248
6150 6165 57
6151 6145 18
6151 6150 248
6151 6154 253
6151 6213 238
6152 6153 493
6152 6148 44
6152 6156 17
6152 6253 558
6153 6152 493
6154 6147 16
6154 6151 253
6154 6156 257
6154 6214 237
6155 6070 460
6155 5906 1210
6155 6177 265
6156 6152 17
6156 6154 257
6156 6252 547
6157 6122 84
6158 6115 111
6159 6160 126
6160 6159 126
6160 6060 401
6160 6218 263
6161 6107 163
6161 6099 327
6161 6166 17
6161 6219 436
6162 6136 342
6162 6190 189
6162 6232 464
6163 6118 128
6164 6094 425
6164 6198 723
6164 13419 140
6165 6150 57
6166 6161 17
6166 6110 326
6166 6221 437
6167 6131 476
6167 6177 756
6167 6225 855
6168 6094 474
6168 6169 130
6168 6224 425
6169 6168 130
6169 6174 246
6169 6043 423
6170 6171 69
6171 6170 69
6172 6173 197
6172 6134 37
6173 6172 197
6173 6176 35
6173 5727 8549
6174 6169 246
6174 6075 676
6174 6224 325
6174 6225 428
6175 6140 156
6175 6107 439
6175 6178 14
6175 6219 180
6176 6173 35
6176 6369 219
6177 6155 265
6177 6167 756
6177 6208 238
6178 6140 157
6178 6175 14
6178 6209 232
6178 6220 185
6179 6180 98
6180 6179 98
6180 6197 228
6180 6204 111
6181 6182 109
6181 6078 188
6182 6181 109
6182 6146 162
6182 6187 21
6183 6184 441
6183 6216 1081
6183 6217 266
6184 6183 441
6184 6138 30
6185 6186 1957
6185 6189 215
6185 6199 200
6186 6185 1957
6187 6182 21
6187 6201 114
6187 6215 139
6188 6189 697
6189 6188 697
6189 6185 215
6189 6302 1203
6190 6162 189
6190 6227 246
6191 5997 663
6191 6193 1709
6191 6479 1917
6192 6193 1074
6192 5919 81
6193 6192 1074
6193 6191 1709
6193 6370 1223
6194 6111 268
6194 6195 67
6194 6207 37
6195 6194 67
6195 6205 100
6195 6210 90
6196 6197 68
6197 6196 68
6197 6180 228
6197 6200 61
6198 6164 723
6199 6185 200
6200 6197 61
6200 6206 61
6200 6228 122
6201 6187 114
6202 6203 629
6203 6202 629
6203 6271 3524
6204 6180 111
6204 6215 49
6204 6228 353
6205 6142 679
6205 6195 100
6205 6210 108
6206 6200 61
6206 6231 120
6207 6194 37
6207 6244 80
6208 6177 238
6208 6226 153
6209 6178 232
6209 6212 255
6210 6205 108
6210 6195 90
6210 6211 651
6211 6210 651
6211 6309 32
6212 6149 239
6212 6209 255
6212 6213 610
6212 6260 392
6213 6151 238
6213 6212 610
6213 6214 249
6213 6250 236
6214 6154 237
6214 6213 249
6214 6222 219
6215 6204 49
6215 6187 139
6215 6229 117
6216 6183 1081
6216 6312 32
6217 6183 266
6217 6243 31
6218 6160 263
6219 6175 180
6219 6161 436
6219 6220 17
6219 6221 18
6220 6178 185
6220 6219 17
6220 6223 16
6220 6282 626
6221 6219 18
6221 6166 437
6221 6223 17
6222 6214 219
6222 6251 214
6223 6220 16
6223 6221 17
6223 6284 619
6224 6168 425
6224 6174 325
6224 6246 179
6225 6174 428
6225 6230 28
6225 6167 855
6226 6208 153
6226 6227 222
6226 13446 68
6227 6226 222
6227 6190 246
6228 6200 122
6228 6204 353
6228 6231 60
6229 6215 117
6229 6233 22
6229 6234 548
6230 6225 28
6230 13447 61
6231 6206 120
6231 6228 60
6231 6239 47
6232 6162 464
6232 6246 293
6233 6229 22
6233 6247 106
6233 6255 432
6234 6229 548
6235 6236 142
6235 6245 316
6236 6235 142
6236 6237 567
6236 6341 884
6237 6236 567
6238 6239 80
6239 6238 80
6239 6231 47
6239 6254 235
6240 6093 607
6240 6241 268
6240 6702 3162
6241 6240 268
6242 6243 239
6242 6244 124
6242 6418 2946
6243 6242 239
6243 6217 31
6244 6242 124
6244 6207 80
6245 6116 528
6245 6235 316
6245 6294 558
6246 6224 179
6246 6232 293
6247 6233 106
6247 6255 318
6248 6249 103
6248 6253 857
6248 6257 402
6249 6248 103
6250 6213 236
6250 6251 506
6250 6260 567
6250 6276 230
6251 6222 214
6251 6250 506
6251 6252 279
6251 6263 142
6252 6156 547
6252 6253 14
6252 6251 279
6252 6285 299
6253 6152 558
6253 6252 14
6253 6248 857
6253 6286 306
6254 6239 235
6254 6255 58
6254 6256 27
6255 6233 432
6255 6247 318
6255 6254 58
6256 6254 27
6256 6269 20
6257 6248 402
6257 6308 1210
6257 6358 1591
6258 6259 668
6258 6272 203
6258 6278 278
6258 6306 278
6259 6258 668
6260 6250 567
6260 6212 392
6260 6282 283
6260 6293 302
6261 6262 1885
6262 6261 1885
6263 6251 142
6263 6277 415
6263 6303 291
6264 6265 146
6264 6266 153
6264 6267 264
6264 6362 895
6265 6264 146
6265 6289 384
6265 6292 401
6266 6264 153
6266 6279 458
6267 6264 264
6267 13448 488
6268 6065 1618
6268 6395 1303
6268 6484 1706
6269 6270 135
6269 6256 20
6270 6269 135
6270 6298 34
6271 6272 84
6271 6275 59
6271 6316 415
6271 6203 3524
6272 6271 84
6272 6258 203
6272 6278 371
6273 6274 107
6273 13460 417
6274 6273 107
6274 6326 574
6274 13447 226
6275 6271 59
6275 6281 211
6275 6283 208
6275 6297 327
6276 6250 230
6276 6277 111
6276 6293 395
6277 6276 111
6277 6263 415
6277 6322 411
6278 6272 371
6278 6258 278
6278 6306 278
6279 6280 61
6279 6266 458
6279 6287 132
6280 6279 61
6280 13451 286
6281 6275 211
6281 13453 95
6282 6260 283
6282 6220 626
6282 6284 13
6282 6440 1031
6283 6275 208
6283 13454 102
6284 6282 13
6284 6223 619
6284 6442 1030
6285 6252 299
6285 6286 20
6285 6303 243
6285 6319 251
6286 6253 306
6286 6285 20
6286 6317 233
6287 6279 132
6287 6288 168
6287 6326 528
6288 6287 168
6288 13452 217
6289 6265 384
6289 13455 180
6290 6291 855
6290 13449 179
6291 6290 855
6291 6568 1573
6292 6265 401
6292 6324 21
6293 6276 395
6293 6260 302
6293 6355 537
6294 6245 558
6294 6313 120
6294 6315 173
6294 6318 181
6295 6296 845
6295 6572 1584
6296 6295 845
6296 13450 166
6297 6275 327
6298 6299 184
6298 6270 34
6299 6298 184
6299 6352 585
6299 6362 1039
6300 6301 331
6300 13448 420
6301 6300 331
6301 6326 371
6301 6334 326
6301 6352 327
6302 6189 1203
6302 6394 572
6302 6400 1194
6303 6285 243
6303 6263 291
6303 6322 263
6304 6305 46
6305 6304 46
6305 6308 92
6305 6354 431
6306 6307 114
6306 6316 121
6306 6258 278
6306 6278 278
6307 6306 114
6308 6257 1210
6308 6305 92
6308 6360 442
6309 6310 1676
6309 6211 32
6310 6309 1676
6310 6314 35
6311 6312 1658
6311 6321 34
6312 6311 1658
6312 6216 32
6313 6294 120
6313 6339 107
6314 6315 33
6314 6310 35
6315 6314 33
6315 6294 173
6315 6318 148
6316 6271 415
6316 6306 121
6316 6388 432
6317 6286 233
6317 6423 81
6318 6315 148
6318 6294 181
6318 6371 2177
6319 6285 251
6319 6420 72
6320 6321 417
6320 6323 45
6320 6327 28
6321 6320 417
6321 6311 34
6322 6303 263
6322 6277 411
6322 6355 405
6323 6320 45
6323 6327 41
6323 6382 2133
6324 6325 223
6324 6292 21
6325 6324 223
6325 6350 21
6326 6274 574
6326 6287 528
6326 6301 371
6326 6399 439
6327 6320 28
6327 6323 41
6327 6335 100
6328 6329 83
6328 13455 91
6329 6328 83
6329 6348 25
6330 6331 81
6330 6344 28
6331 6330 81
6331 13460 93
6332 6333 1202
6332 13469 677
6333 6332 1202
6333 13449 272
6334 6301 326
6334 6343 28
6335 6327 100
6335 6340 28
6336 6337 1204
6336 13450 274
6337 6336 1204
6337 13470 657
6338 6339 34
6338 6340 228
6338 6486 1005
6339 6338 34
6339 6313 107
6340 6338 228
6340 6335 28
6341 6236 884
6342 6343 45
6342 6344 44
6342 6410 372
6343 6342 45
6343 6334 28
6344 6342 44
6344 6330 28
6345 6346 2352
6345 6347 46
6345 6351 51
6346 6345 2352
6347 6345 46
6347 6353 25
6347 6380 221
6348 6349 131
6348 6329 25
6349 6348 131
6349 6350 135
6349 6404 289
6350 6349 135
6350 6325 21
6351 6345 51
6351 6353 59
6351 6359 92
6352 6301 327
6352 6299 585
6352 6461 769
6353 6351 59
6353 6347 25
6353 6401 367
6354 6305 431
6354 6356 51
6354 6390 143
6355 6322 405
6355 6293 537
6355 6440 809
6356 6354 51
6356 6357 59
6356 6412 249
6357 6356 59
6357 6412 264
6357 6419 387
6358 6257 1591
6358 6367 53
6358 6372 95
6359 6351 92
6359 6371 298
6359 6552 950
6360 6361 113
6360 6308 442
6360 6368 49
6361 6360 113
6362 6299 1039
6362 6264 895
6362 6363 21
6363 6362 21
6363 6366 103
6363 6396 140
6364 6365 293
6365 6364 293
6366 6363 103
6366 6376 1420
6366 6381 129
6367 6358 53
6367 6411 586
6367 6472 931
6368 6360 49
6368 6373 17
6368 6392 404
6369 6370 1957
6369 6176 219
6370 6369 1957
6370 6193 1223
6370 6648 2660
6370 6711 1477
6371 6318 2177
6371 6359 298
6371 6374 228
6372 6358 95
6373 6368 17
6373 6405 45
6374 6371 228
6374 6377 52
6375 6376 303
6375 6381 504
6375 6393 253
6376 6375 303
6376 6366 1420
6376 6416 195
6377 6378 64
6377 6374 52
6378 6377 64
6378 6379 38
6379 6380 96
6379 6378 38
6380 6379 96
6380 6347 221
6380 6385 215
6381 6366 129
6381 6375 504
6381 6393 194
6382 6323 2133
6382 6384 51
6383 6384 69
6383 6387 39
6384 6383 69
6384 6382 51
6385 6380 215
6385 6430 27
6386 6387 26
6386 6389 129
6386 6401 100
6387 6386 26
6387 6383 39
6388 6316 432
6388 6650 648
6389 6386 129
6389 6391 156
6389 6401 104
6390 6354 143
6390 6407 173
6390 6414 134
6391 6389 156
6391 6434 27
6392 6368 404
6393 6381 194
6393 6375 253
6393 6416 451
6394 6302 572
6395 6268 1303
6395 6399 156
6395 6428 259
6395 6737 1819
6396 6363 140
6397 6398 21
6398 6397 21
6399 6326 439
6399 6395 156
6399 6428 199
6400 6302 1194
6401 6386 100
6401 6389 104
6401 6353 367
6402 6403 73
6403 6402 73
6403 6406 45
6403 6413 53
6404 6349 289
6404 7878 5888
6405 6406 76
6405 6373 45
6406 6405 76
6406 6403 45
6406 6417 97
6407 6390 173
6408 6409 89
6409 6408 89
6410 6342 372
6410 7883 5890
6411 6367 586
6412 6356 249
6412 6357 264
6412 6414 80
6412 6419 77
6413 6403 53
6414 6390 134
6414 6412 80
6414 6415 103
6414 6437 167
6415 6414 103
6415 6417 125
6415 6425 79
6416 6393 451
6416 6376 195
6416 6429 164
6416 7479 5097
6417 6406 97
6417 6415 125
6417 6443 179
6418 6242 2946
6419 6412 77
6419 6357 387
6419 6424 29
6420 6421 546
6420 6319 72
6421 6420 546
6421 6422 16
6421 6453 220
6421 6456 625
6422 6423 548
6422 6421 16
6422 6534 530
6423 6422 548
6423 6317 81
6424 6419 29
6425 6415 79
6425 6427 40
6425 6432 30
6426 6427 47
6427 6426 47
6427 6425 40
6427 6436 102
6428 6395 259
6428 6399 199
6428 6461 274
6429 6416 164
6429 6792 53
6430 6431 1001
6430 6385 27
6431 6430 1001
6431 6445 94
6432 6425 30
6432 6435 61
6432 6436 45
6433 6434 990
6433 6448 90
6434 6433 990
6434 6391 27
6435 6432 61
6435 6437 58
6435 6438 31
6436 6427 102
6436 6432 45
6436 6438 61
6436 6439 26
6437 6435 58
6437 6414 167
6437 6533 421
6438 6436 61
6438 6435 31
6438 6441 41
6438 6444 28
6439 6436 26
6440 6355 809
6440 6282 1031
6440 6442 17
6440 6517 415
6441 6438 41
6442 6440 17
6442 6284 1030
6442 6585 622
6443 6417 179
6443 6458 431
6443 6468 187
6444 6438 28
6445 6446 152
6445 6452 144
6445 6431 94
6446 6445 152
6446 6449 41
6446 6452 57
6447 6448 98
6447 6460 110
6447 6654 907
6448 6447 98
6448 6433 90
6449 6446 41
6450 6451 25
6451 6450 25
6452 6445 144
6452 6446 57
6452 6723 1367
6453 6421 220
6453 6457 111
6453 6470 140
6454 6455 8
6455 6454 8
6456 6421 625
6456 6471 192
6456 6490 216
6457 6453 111
6457 6459 94
6457 6470 244
6458 6443 431
6458 6464 117
6458 6477 167
6459 6457 94
6459 6471 274
6459 6498 207
6460 6447 110
6460 6465 47
6460 6478 179
6461 6428 274
6461 6352 769
6461 6692 1081
6461 7563 4062
6462 6463 415
6462 6485 133
6463 6462 415
6463 6510 168
6464 6458 117
6464 6473 350
6464 6527 200
6465 6460 47
6465 6469 51
6465 6503 196
6466 6467 196
6467 6466 196
6467 6547 363
6467 6661 687
6468 6443 187
6468 6477 363
6468 6520 163
6469 6465 51
6470 6453 140
6470 6457 244
6470 6476 48
6471 6459 274
6471 6456 192
6471 6493 77
6471 6512 137
6472 6367 931
6472 6474 16
6472 6475 22
6473 6464 350
6474 6472 16
6474 6475 15
6474 6550 181
6475 6472 22
6475 6474 15
6475 6509 134
6476 6470 48
6476 6498 148
6476 6589 354
6477 6458 167
6477 6468 363
6477 6526 97
6478 6460 179
6478 6502 62
6478 6503 73
6479 6191 1917
6479 6499 128
6479 6642 402
6480 6481 24
6480 6494 33
6480 6554 183
6481 6480 24
6482 6483 188
6483 6482 188
6483 6521 121
6483 6534 128
6484 6268 1706
6484 6737 2090
6485 6462 133
6485 6486 185
6485 6516 78
6486 6338 1005
6486 6485 185
6486 6575 230
6487 6488 74
6488 6487 74
6488 6489 126
6488 6491 19
6489 6488 126
6489 6490 56
6489 6506 34
6490 6456 216
6490 6489 56
6490 6493 158
6490 6532 86
6491 6488 19
6491 6492 67
6491 6495 11
6492 6491 67
6493 6471 77
6493 6490 158
6493 6511 37
6494 6480 33
6495 6491 11
6495 6496 8
6495 6504 33
6496 6495 8
6496 6497 66
6496 6500 18
6497 6496 66
6498 6476 148
6498 6459 207
6498 6559 190
6498 6602 398
6499 6479 128
6499 6531 260
6500 6496 18
6500 6501 212
6500 6523 72
6501 6500 212
6502 6478 62
6502 6528 72
6502 6539 82
6503 6465 196
6503 6478 73
6503 6528 60
6504 6495 33
6504 6505 85
6504 6522 41
6505 6504 85
6505 6506 50
6505 6524 34
6506 6489 34
6506 6505 50
6506 6525 36
6507 6508 52
6508 6507 52
6509 6475 134
6509 6533 424
6509 6550 134
6510 6463 168
6510 6515 213
6510 6566 150
6511 6493 37
6511 6536 50
6511 6537 126
6512 6471 137
6512 6537 66
6512 6538 72
6513 6514 19
6514 6513 19
6515 6510 213
6515 6516 169
6515 6566 365
6516 6485 78
6516 6515 169
6516 6546 62
6517 6440 415
6517 6523 343
6517 6565 159
6518 6519 77
6518 6560 97
6518 6593 390
6519 6518 77
6520 6468 163
6520 6526 315
6520 6578 172
6520 6579 173
6521 6483 121
6521 6530 53
6521 6562 142
6522 6504 41
6522 6524 59
6522 6540 128
6523 6500 72
6523 6517 343
6523 6596 193
6524 6505 34
6524 6522 59
6524 6525 51
6525 6506 36
6525 6524 51
6525 6540 36
6526 6477 97
6526 6520 315
6526 6527 205
6526 6582 165
6527 6464 200
6527 6526 205
6527 6554 276
6527 6586 167
6528 6503 60
6528 6502 72
6528 6539 126
6529 6530 146
6530 6529 146
6530 6521 53
6530 6544 98
6530 6592 175
6531 6499 260
6531 6561 222
6531 6564 172
6531 6584 382
6532 6490 86
6532 6535 83
6532 6543 20
6533 6437 421
6533 6509 424
6533 6576 140
6534 6483 128
6534 6422 530
6534 6562 123
6535 6532 83
6535 6536 76
6535 6574 135
6536 6511 50
6536 6535 76
6536 6548 28
6537 6512 66
6537 6511 126
6537 6549 39
6537 6551 65
6538 6512 72
6538 6542 16
6538 6551 72
6539 6502 82
6539 6528 126
6539 6553 43
6540 6525 36
6540 6522 128
6540 6543 55
6541 6542 123
6542 6541 123
6542 6538 16
6542 6559 60
6543 6532 20
6543 6540 55
6543 6570 114
6544 6545 147
6544 6530 98
6544 6605 163
6544 6619 375
6545 6544 147
6546 6516 62
6546 6567 144
6546 6567 771
6547 6467 363
6548 6536 28
6548 6549 81
6548 6577 110
6549 6537 39
6549 6548 81
6549 6558 29
6550 6509 134
6550 6474 181
6550 6639 359
6551 6537 65
6551 6538 72
6551 6555 14
6552 6359 950
6552 6573 597
6552 6859 1373
6553 6539 43
6553 6563 63
6553 6628 231
6554 6480 183
6554 6527 276
6554 6556 276
6554 6588 101
6555 6551 14
6555 6558 63
6555 6581 87
6556 6557 47
6556 6554 276
6556 6560 188
6556 6590 102
6557 6556 47
6558 6555 63
6558 6549 29
6558 6580 85
6559 6498 190
6559 6542 60
6559 6581 150
6559 6644 314
6560 6518 97
6560 6556 188
6560 6591 102
6561 6531 222
6561 6630 130
6562 6521 142
6562 6534 123
6562 6592 132
6563 6553 63
6564 6531 172
6564 6658 270
6565 6517 159
6565 6587 61
6565 6596 182
6566 6510 150
6566 6515 365
6567 6546 144
6567 6575 94
6567 6546 771
6568 6569 1284
6568 6291 1573
6569 6568 1284
6569 6583 202
6570 6543 114
6570 6574 82
6571 6572 1267
6571 6621 198
6572 6571 1267
6572 6295 1584
6573 6552 597
6574 6535 135
6574 6570 82
6574 6577 78
6575 6486 230
6575 6567 94
6575 6805 1153
6576 6533 140
6576 6578 264
6576 6678 582
6577 6548 110
6577 6574 78
6577 6580 82
6578 6520 172
6578 6576 264
6578 6579 17
6578 6729 589
6579 6520 173
6579 6578 17
6579 6582 300
6579 6677 284
6580 6558 85
6580 6577 82
6580 6581 62
6581 6559 150
6581 6555 87
6581 6580 62
6582 6526 165
6582 6579 300
6582 6586 211
6582 6680 283
6583 6584 63
6583 6569 202
6584 6583 63
6584 6531 382
6584 6629 623
6585 6442 622
6585 6587 24
6585 6595 22
6585 6611 278
6586 6527 167
6586 6582 211
6586 6588 256
6586 6666 230
6587 6565 61
6587 6585 24
6587 6594 18
6587 6596 139
6588 6554 101
6588 6586 256
6588 6590 277
6588 6633 113
6589 6476 354
6589 6606 43
6589 6608 41
6590 6556 102
6590 6588 277
6590 6591 189
6590 6638 112
6591 6560 102
6591 6590 189
6591 6593 260
6591 6641 111
6592 6530 175
6592 6562 132
6592 6604 22
6592 6606 19
6593 6518 390
6593 6591 260
6593 6598 304
6593 6607 17
6594 6587 18
6594 6595 24
6594 6599 49
6594 6613 43
6595 6594 24
6595 6585 22
6595 6603 50
6595 6614 45
6596 6523 193
6596 6565 182
6596 6587 139
6596 6615 290
6597 6598 203
6597 13471 505
6598 6597 203
6598 6593 304
6598 6600 58
6599 6594 49
6599 6613 62
6599 6625 377
6600 6601 147
6600 6598 58
6600 6673 413
6601 6600 147
6601 13472 519
6602 6498 398
6603 6595 50
6603 6614 68
6603 6618 221
6604 6592 22
6604 6605 90
6604 6606 23
6604 6712 702
6605 6544 163
6605 6604 90
6605 6619 342
6606 6604 23
6606 6592 19
6606 6589 43
6606 6608 42
6606 6623 79
6607 6593 17
6607 6671 215
6607 6672 215
6608 6606 42
6608 6589 41
6608 6622 92
6609 6610 137
6609 6653 392
6609 6679 230
6610 6609 137
6611 6585 278
6611 6612 192
6611 6618 18
6611 6661 352
6612 6611 192
6613 6599 62
6613 6594 43
6613 6844 882
6614 6595 45
6614 6603 68
6614 6744 564
6615 6596 290
6615 6625 26
6615 6626 363
6616 6617 119
6617 6616 119
6617 6628 78
6617 6632 49
6618 6603 221
6618 6611 18
6618 6624 68
6618 6624 111
6619 6544 375
6619 6605 342
6619 6653 167
6620 6621 518
6620 6636 172
6620 6659 208
6621 6620 518
6621 6571 198
6622 6608 92
6622 6631 130
6622 6684 247
6623 6606 79
6623 6643 92
6623 6647 107
6624 6618 68
6624 6618 111
6624 6668 280
6625 6615 26
6625 6599 377
6625 6635 363
6625 6662 130
6626 6615 363
6626 6627 18
6626 6635 22
6627 6626 18
6627 6637 21
6627 6644 264
6628 6553 231
6628 6617 78
6628 6656 107
6629 6584 623
6629 6630 157
6629 6947 75
6630 6629 157
6630 6561 130
6631 6622 130
6631 6644 66
6631 6652 59
6632 6617 49
6632 6634 207
6632 6646 47
6633 6588 113
6633 6638 279
6633 6667 180
6634 6632 207
6635 6626 22
6635 6625 363
6635 6637 17
6635 6688 164
6636 6620 172
6636 6665 69
6637 6627 21
6637 6635 17
6637 6645 229
6637 6685 164
6638 6590 112
6638 6633 279
6638 6641 187
6638 6669 116
6639 6550 359
6639 6640 81
6639 6682 166
6640 6639 81
6641 6591 111
6641 6638 187
6641 6670 128
6642 6479 402
6642 6648 48
6642 6657 80
6643 6623 92
6644 6631 66
6644 6559 314
6644 6627 264
6644 6645 36
6644 6651 33
6644 6652 69
6645 6644 36
6645 6637 229
6645 6651 53
6646 6632 47
6646 6655 60
6646 6656 84
6647 6623 107
6647 6681 129
6647 6704 420
6648 6370 2660
6648 6642 48
6648 6657 48
6649 6650 409
6649 6710 341
6649 6720 429
6649 13478 429
6650 6649 409
6650 6388 648
6651 6644 33
6651 6645 53
6651 6698 351
6652 6631 59
6652 6644 69
6652 6683 186
6653 6609 392
6653 6619 167
6653 6674 163
6654 6447 907
6654 6727 515
6654 6804 981
6655 6646 60
6655 6656 149
6655 6676 96
6656 6628 107
6656 6646 84
6656 6655 149
6657 6648 48
6657 6642 80
6657 6702 397
6658 6659 56
6658 6564 270
6659 6658 56
6659 6620 208
6659 6660 46
6660 6659 46
6660 6664 217
6661 6611 352
6661 6467 687
6661 6668 18
6661 6700 355
6662 6625 130
6662 6743 1006
6662 6747 408
6662 6748 864
6663 6664 131
6663 6665 182
6663 6955 1949
6664 6663 131
6664 6660 217
6665 6663 182
6665 6636 69
6666 6586 230
6666 6667 166
6666 6687 55
6667 6633 180
6667 6666 166
6667 6669 364
6668 6624 280
6668 6661 18
6668 6706 355
6668 6744 994
6669 6638 116
6669 6667 364
6669 6670 221
6669 6738 368
6670 6641 128
6670 6669 221
6670 6671 219
6670 6739 364
6671 6607 215
6671 6670 219
6671 6672 15
6671 6740 362
6672 6607 215
6672 6671 15
6672 6673 682
6672 6791 494
6673 6600 413
6673 6672 682
6673 6799 646
6673 6800 673
6674 6653 163
6674 6675 12
6674 6696 150
6675 6674 12
6675 6679 178
6675 6699 155
6676 6655 96
6677 6579 284
6677 6680 298
6677 6773 446
6678 6576 582
6678 6682 254
6678 6726 292
6679 6609 230
6679 6675 178
6679 6682 274
6679 6707 213
6680 6582 283
6680 6677 298
6680 6687 215
6680 6780 449
6681 6647 129
6681 6684 162
6681 6703 224
6682 6639 166
6682 6679 274
6682 6678 254
6682 6694 98
6683 6652 186
6683 6684 76
6683 6693 130
6684 6681 162
6684 6622 247
6684 6683 76
6685 6686 90
6685 6637 164
6685 6688 16
6685 6750 353
6686 6685 90
6686 6689 124
6686 6751 354
6687 6666 55
6687 6680 215
6687 6734 310
6688 6685 16
6688 6635 164
6688 6749 352
6689 6686 124
6689 6697 99
6689 6709 330
6690 6691 94
6690 6717 397
6690 6752 424
6691 6690 94
6692 6461 1081
6692 6861 340
6693 6683 130
6693 6698 23
6693 6728 298
6694 6695 142
6694 6682 98
6694 6708 113
6695 6694 142
6696 6674 150
6696 6699 12
6696 6712 127
6697 6689 99
6697 6719 260
6697 6753 259
6698 6693 23
6698 6651 351
6698 6709 110
6698 6772 482
6699 6675 155
6699 6696 12
6699 6713 127
6699 6722 266
6700 6661 355
6700 6701 171
6700 6706 17
6700 6756 420
6701 6700 171
6702 6657 397
6702 6240 3162
6702 6822 604
6703 6681 224
6703 6705 191
6703 6728 151
6704 6647 420
6704 6705 65
6704 6714 112
6705 6704 65
6705 6703 191
6705 6721 124
6706 6668 355
6706 6700 17
6706 6758 419
6707 6679 213
6707 6708 151
6707 6724 108
6708 6694 113
6708 6707 151
6708 6725 109
6709 6698 110
6709 6689 330
6709 6719 90
6709 6817 515
6710 6649 341
6710 6716 62
6710 6720 84
6711 6370 1477
6712 6696 127
6712 6604 702
6712 6713 9
6712 6714 15
6713 6699 127
6713 6712 9
6713 6715 15
6713 6757 305
6714 6712 15
6714 6704 112
6714 6715 10
6714 6736 141
6715 6713 15
6715 6714 10
6715 6759 315
6715 6889 821
6716 6710 62
6716 13473 383
6717 6690 397
6717 6718 32
6717 6735 140
6718 6717 32
6719 6709 90
6719 6697 260
6719 6753 241
6720 6649 429
6720 13478 429
6720 6710 84
6720 13474 152
6721 6705 124
6721 6730 147
6721 6736 72
6722 6699 266
6722 6724 117
6722 6757 120
6723 6452 1367
6723 6764 133
6724 6707 108
6724 6722 117
6724 6725 149
6725 6708 109
6725 6724 149
6725 6726 315
6725 6761 139
6726 6678 292
6726 6725 315
6726 6733 18
6727 6654 515
6727 6830 143
6728 6703 151
6728 6693 298
6728 6762 184
6729 6578 589
6729 6733 747
6729 6771 140
6730 6721 147
6731 6732 207
6731 6766 214
6731 6807 279
6732 6731 207
6732 6760 283
6733 6726 18
6733 6729 747
6733 6763 122
6734 6687 310
6734 6738 525
6734 6781 133
6735 6717 140
6736 6714 141
6736 6721 72
6736 6837 461
6737 6395 1819
6737 6484 2090
6738 6669 368
6738 6734 525
6738 6739 221
6738 6786 130
6739 6670 364
6739 6738 221
6739 6740 219
6740 6671 362
6740 6739 219
6740 6790 132
6741 6742 12
6742 6741 12
6743 6662 1006
6743 6746 197
6743 6846 322
6744 6614 564
6744 6668 994
6744 6845 317
6745 6746 260
6746 6745 260
6746 6743 197
6746 6747 121
6746 6849 320
6747 6662 408
6747 6746 121
6747 6748 344
6747 6850 320
6748 6662 864
6748 6747 344
6748 6858 399
6749 6688 352
6749 6750 12
6749 6924 762
6750 6685 353
6750 6749 12
6750 6751 88
6750 6848 364
6751 6686 354
6751 6750 88
6751 6753 126
6752 6690 424
6752 6756 25
6752 6862 649
6753 6719 241
6753 6697 259
6753 6751 126
6753 6815 219
6754 6755 17
6755 6754 17
6756 6700 420
6756 6752 25
6756 6758 16
6756 6865 649
6757 6722 120
6757 6713 305
6757 6761 304
6758 6706 419
6758 6756 16
6758 6766 41
6758 6869 650
6759 6715 315
6759 6769 137
6759 6816 221
6760 6732 283
6760 6807 210
6760 6835 428
6761 6725 139
6761 6757 304
6761 6763 317
6761 6770 14
6762 6728 184
6762 6839 36
6763 6733 122
6763 6761 317
6763 6767 275
6763 6775 17
6763 6776 15
6764 6765 71
6764 6723 133
6765 6764 71
6765 6800 218
6765 6814 189
6766 6731 214
6766 6758 41
6766 6809 218
6766 6833 271
6766 6840 273
6767 6763 275
6767 6768 145
6767 6779 15
6768 6767 145
6768 6771 323
6768 6782 17
6769 6759 137
6769 6770 165
6769 6824 163
6770 6761 14
6770 6769 165
6770 6774 226
6770 6825 164
6771 6729 140
6771 6768 323
6771 6773 21
6771 6784 15
6772 6698 482
6772 6903 38
6773 6677 446
6773 6771 21
6773 6778 240
6773 6785 15
6774 6770 226
6774 6775 83
6774 6857 254
6775 6763 17
6775 6774 83
6775 6776 14
6775 6882 357
6776 6763 15
6776 6775 14
6776 6777 176
6776 6851 237
6777 6776 176
6777 6779 95
6777 6853 239
6778 6773 240
6778 6780 68
6778 6787 14
6779 6767 15
6779 6777 95
6779 6782 144
6779 6854 238
6780 6680 449
6780 6778 68
6780 6781 210
6780 6788 14
6781 6734 133
6781 6780 210
6781 6786 524
6781 6789 15
6782 6768 17
6782 6779 144
6782 6783 192
6782 6881 389
6783 6782 192
6783 6784 132
6783 6923 576
6784 6771 15
6784 6783 132
6784 6785 21
6784 6954 695
6785 6773 15
6785 6784 21
6785 6787 240
6785 6868 315
6786 6738 130
6786 6781 524
6786 6790 440
6786 6795 15
6787 6778 14
6787 6785 240
6787 6788 68
6787 6832 186
6788 6780 14
6788 6787 68
6788 6789 209
6789 6781 15
6789 6788 209
6789 6795 523
6789 6827 145
6790 6740 132
6790 6786 440
6790 6791 15
6790 6797 16
6791 6672 494
6791 6790 15
6791 6796 515
6791 6798 16
6792 6793 2517
6792 6429 53
6793 6792 2517
6793 6794 270
6793 6911 513
6793 7412 2636
6794 6793 270
6794 6806 169
6795 6786 15
6795 6789 523
6795 6797 440
6795 6826 133
6796 6791 515
6796 6799 499
6796 6801 66
6797 6790 16
6797 6795 440
6797 6798 16
6797 6867 277
6798 6791 16
6798 6797 16
6798 6801 452
6798 6866 272
6799 6673 646
6799 6796 499
6799 6800 114
6800 6673 673
6800 6799 114
6800 6765 218
6801 6796 66
6801 6798 452
6801 6802 72
6801 6866 529
6802 6801 72
6802 6803 542
6802 6870 598
6803 6802 542
6803 6804 31
6803 6814 185
6804 6803 31
6804 6654 981
6805 6806 231
6805 6808 76
6805 6575 1153
6806 6805 231
6806 6794 169
6807 6760 210
6807 6731 279
6807 6833 203
6807 6855 187
6808 6805 76
6808 6812 112
6809 6766 218
6809 6834 180
6809 6872 279
6810 6811 20
6811 6810 20
6812 6813 195
6812 6808 112
6813 6812 195
6813 6859 251
6813 6936 449
6814 6765 189
6814 6803 185
6814 6828 101
6815 6753 219
6815 6847 170
6815 6848 152
6816 6759 221
6816 6838 123
6816 6852 165
6817 6709 515
6817 6823 38
6817 6837 123
6818 6823 25
6819 6820 25
6820 6819 25
6820 6821 15
6820 6862 935
6821 6820 15
6822 6702 604
6822 6831 209
6822 7009 665
6823 6817 38
6823 6818 25
6823 6847 209
6824 6769 163
6824 6825 164
6824 6852 190
6825 6770 164
6825 6824 164
6825 6856 90
6826 6795 133
6826 6827 536
6826 6894 284
6827 6789 145
6827 6826 536
6827 6832 288
6828 6814 101
6828 6829 14
6828 7053 1038
6829 6830 342
6829 6828 14
6829 6864 101
6829 7056 1044
6830 6829 342
6830 6727 143
6831 6822 209
6831 6893 360
6831 6915 285
6832 6787 186
6832 6827 288
6832 6868 362
6833 6807 203
6833 6766 271
6833 6840 17
6833 6886 191
6834 6809 180
6834 6898 277
6834 6921 432
6835 6760 428
6835 6836 167
6835 6842 238
6835 6895 215
6836 6835 167
6836 6855 112
6836 6876 137
6837 6736 461
6837 6817 123
6837 6888 219
6838 6816 123
6838 6839 297
6838 6900 327
6839 6838 297
6839 6762 36
6840 6833 17
6840 6766 273
6840 6872 209
6840 6887 190
6841 6842 261
6842 6841 261
6842 6835 238
6842 6843 148
6842 6873 117
6843 6842 148
6843 6845 173
6843 6873 293
6844 6613 882
6844 6845 27
6844 6930 298
6845 6844 27
6845 6744 317
6845 6843 173
6845 6926 284
6846 6743 322
6846 6849 165
6846 6931 324
6847 6823 209
6847 6815 170
6847 6888 213
6848 6815 152
6848 6750 364
6848 6920 388
6849 6746 320
6849 6846 165
6849 6850 122
6849 6875 119
6850 6747 320
6850 6849 122
6850 6891 472
6850 6933 292
6851 6776 237
6851 6853 177
6851 6883 120
6852 6824 190
6852 6816 165
6852 6877 160
6853 6777 239
6853 6851 177
6853 6854 92
6853 6884 118
6854 6779 238
6854 6853 92
6854 6874 101
6855 6836 112
6855 6807 187
6855 6886 205
6856 6825 90
6856 6857 226
6856 6878 102
6857 6774 254
6857 6856 226
6857 6880 102
6858 6748 399
6858 6879 147
6858 6891 183
6859 6813 251
6859 6552 1373
6859 6988 464
6860 6861 653
6860 7352 43
6861 6860 653
6861 6692 340
6862 6752 649
6862 6863 211
6862 6865 28
6862 6820 935
6863 6862 211
6864 6829 101
6864 7031 936
6864 7050 733
6865 6756 649
6865 6862 28
6865 6869 18
6865 6959 544
6866 6801 529
6866 6798 272
6866 6867 15
6866 6870 13
6867 6866 15
6867 6797 277
6867 6871 13
6867 6894 333
6868 6785 315
6868 6832 362
6868 6963 402
6869 6758 650
6869 6865 18
6869 6965 543
6870 6802 598
6870 6866 13
6870 6871 14
6870 6958 311
6871 6870 14
6871 6867 13
6871 6892 231
6871 6940 240
6872 6840 209
6872 6809 279
6872 6898 179
6873 6842 117
6873 6843 293
6873 6901 115
6874 6854 101
6874 6881 25
6874 6885 28
6875 6849 119
6876 6836 137
6877 6852 160
6877 6878 206
6877 6900 124
6878 6856 102
6878 6877 206
6878 6880 226
6878 6929 170
6879 6858 147
6879 6942 242
6879 6962 371
6880 6857 102
6880 6878 226
6880 6882 84
6881 6782 389
6881 6874 25
6881 6890 26
6882 6775 357
6882 6880 84
6882 6883 15
6882 7006 469
6883 6851 120
6883 6882 15
6883 6884 175
6883 7004 460
6884 6853 118
6884 6883 175
6884 6885 74
6885 6874 28
6885 6884 74
6885 6890 42
6886 6855 205
6886 6833 191
6886 6887 17
6886 6913 145
6887 6886 17
6887 6840 190
6887 6913 147
6887 6917 207
6888 6837 219
6888 6847 213
6888 6889 12
6888 6920 172
6889 6715 821
6889 6888 12
6889 6896 72
6889 6922 172
6890 6881 26
6890 6885 42
6890 6923 151
6891 6858 183
6891 6850 472
6891 6935 197
6892 6871 231
6892 6899 100
6892 6964 238
6893 6831 360
6893 6906 133
6893 7349 2256
6894 6867 333
6894 6826 284
6894 6899 14
6894 6910 134
6895 6835 215
6895 6901 195
6895 6913 388
6896 6897 256
6896 6889 72
6896 6916 91
6897 6896 256
6898 6872 179
6898 6834 277
6898 6945 249
6898 6953 193
6899 6892 100
6899 6894 14
6899 6914 129
6900 6877 124
6900 6838 327
6900 6902 22
6900 7044 717
6901 6873 115
6901 6895 195
6901 6907 170
6902 6900 22
6902 6903 623
6902 6950 184
6902 7008 477
6903 6902 623
6903 6772 38
6904 6905 12
6904 6908 190
6904 6928 379
6905 6904 12
6905 6912 189
6905 6934 369
6905 6944 116
6906 6893 133
6906 6909 61
6906 6909 431
6907 6901 170
6908 6904 190
6908 6912 12
6908 6918 245
6909 6906 61
6909 6915 95
6909 6906 431
6910 6894 134
6910 6914 16
6910 6946 190
6911 6793 513
6911 7461 1894
6911 7547 2325
6912 6908 12
6912 6905 189
6912 6919 145
6912 6997 283
6913 6895 388
6913 6886 145
6913 6887 147
6913 6928 34
6913 7019 328
6914 6899 129
6914 6910 16
6914 6949 191
6914 6986 237
6915 6831 285
6915 6909 95
6915 6956 245
6915 6961 142
6916 6896 91
6916 6950 782
6916 7020 480
6917 6887 207
6917 6953 181
6917 7017 324
6918 6908 245
6918 6925 12
6918 6926 133
6919 6912 145
6919 6925 102
6919 6943 75
6920 6888 172
6920 6848 388
6920 6922 9
6920 6924 13
6921 6834 432
6921 6945 96
6921 7007 378
6922 6889 172
6922 6920 9
6922 6927 13
6922 7046 647
6923 6783 576
6923 6890 151
6923 6954 134
6924 6920 13
6924 6749 762
6924 6927 9
6924 6941 64
6925 6918 12
6925 6919 102
6925 6932 133
6925 6969 143
6926 6845 284
6926 6918 133
6926 6930 31
6926 6932 15
6927 6922 13
6927 6924 9
6927 6941 63
6927 7049 648
6928 6904 379
6928 6913 34
6928 6934 14
6928 7084 593
6929 6878 170
6930 6844 298
6930 6926 31
6930 6931 72
6930 6932 29
6930 7137 749
6931 6846 324
6931 6930 72
6931 6933 216
6931 6985 207
6932 6930 29
6932 6926 15
6932 6925 133
6932 7002 252
6933 6850 292
6933 6931 216
6933 6935 274
6933 6987 189
6934 6905 369
6934 6928 14
6934 7005 265
6935 6891 197
6935 6933 274
6935 6962 153
6936 6813 449
6937 6938 5046
6937 6939 184
6937 7375 1944
6938 6937 5046
6938 7265 3842
6938 7470 3007
6939 6937 184
6940 6871 240
6940 6960 70
6940 6964 230
6941 6927 63
6941 6924 64
6941 6942 45
6941 6951 39
6942 6941 45
6942 6879 242
6942 6952 39
6943 6919 75
6943 6967 103
6943 6968 88
6944 6905 116
6944 6995 186
6944 7010 452
6945 6898 249
6945 6921 96
6945 7012 225
6946 6910 190
6946 6949 14
6946 6990 241
6947 6948 2154
6947 6629 75
6948 6947 2154
6948 7162 337
6949 6914 191
6949 6946 14
6949 6992 243
6949 7003 196
6950 6902 184
6950 6916 782
6950 7020 318
6950 7042 471
6951 6941 39
6951 6952 38
6951 6976 241
6952 6942 39
6952 6951 38
6952 6975 130
6953 6917 181
6953 6898 193
6953 7015 202
6954 6784 695
6954 6923 134
6954 6963 23
6954 7004 318
6955 6663 1949
6955 7121 395
6956 6915 245
6956 6961 140
6956 6974 457
6957 6958 869
6958 6957 869
6958 6870 311
6958 6960 15
6958 7061 445
6959 6865 544
6959 6970 84
6960 6958 15
6960 6940 70
6960 6996 147
6961 6956 140
6961 6915 142
6961 6974 168
6962 6879 371
6962 6935 153
6962 6989 143
6962 7016 241
6963 6868 402
6963 6954 23
6963 7011 315
6963 7059 457
6964 6940 230
6964 6892 238
6964 6986 225
6964 7022 214
6965 6869 543
6965 6966 15
6965 7134 670
6966 6965 15
6966 6980 82
6967 6943 103
6967 6968 20
6967 6998 118
6968 6943 88
6968 6967 20
6968 6969 84
6969 6925 143
6969 6968 84
6969 6999 119
6970 6971 28
6970 6959 84
6971 6970 28
6971 6972 530
6971 6977 25
6971 6979 18
6972 6971 530
6973 6974 64
6974 6973 64
6974 6961 168
6974 6956 457
6975 6952 130
6975 7016 148
6975 7027 240
6976 6951 241
6976 7027 222
6976 7072 538
6977 6971 25
6977 6978 548
6977 6979 21
6977 6981 1617
6977 7104 451
6978 6977 548
6979 6980 23
6979 6971 18
6979 6977 21
6979 7102 446
6980 6979 23
6980 6966 82
6981 6977 1617
6981 6984 187
6982 6983 190
6982 6984 347
6982 7116 515
6983 6982 190
6984 6981 187
6984 6982 347
6984 7060 332
6985 6931 207
6985 6987 257
6985 7036 195
6986 6964 225
6986 6914 237
6986 7003 184
6986 7040 215
6987 6933 189
6987 6985 257
6987 6989 298
6987 7037 190
6988 6859 464
6988 6993 156
6988 7054 278
6989 6962 143
6989 6987 298
6989 7039 179
6990 6946 241
6990 6991 12
6990 6992 16
6991 6990 12
6991 6994 16
6991 7000 61
6992 6949 243
6992 6990 16
6992 6994 14
6992 7028 113
6993 6988 156
6993 7025 514
6993 7054 238
6994 6992 14
6994 6991 16
6994 7024 231
6994 7070 316
6995 6944 186
6995 6997 184
6995 7010 270
6995 7045 179
6996 6960 147
6996 7022 229
6996 7064 298
6997 6912 283
6997 6995 184
6997 6998 114
6997 7089 347
6998 6967 118
6998 6997 114
6998 6999 106
6999 6969 119
6999 6998 106
6999 7002 134
6999 7090 358
7000 6991 61
7000 7001 169
7000 7023 169
7001 7000 169
7002 6932 252
7002 6999 134
7002 7092 344
7003 6986 184
7003 6949 196
7003 7028 231
7003 7055 212
7004 6954 318
7004 6883 460
7004 7006 14
7004 7011 22
7005 6934 265
7005 7010 132
7005 7083 316
7006 7004 14
7006 6882 469
7006 7018 21
7006 7044 299
7007 6921 378
7007 7012 316
7007 7074 295
7008 6902 477
7008 7021 67
7008 7030 106
7009 6822 665
7010 6995 270
7010 6944 452
7010 7005 132
7010 7043 140
7011 6963 315
7011 7004 22
7011 7018 17
7011 7079 434
7012 6945 225
7012 7007 316
7012 7013 128
7012 7077 295
7013 7014 303
7013 7012 128
7013 7015 134
7014 7013 303
7015 6953 202
7015 7013 134
7015 7017 211
7015 7078 297
7016 6975 148
7016 6962 241
7016 7051 241
7017 6917 324
7017 7015 211
7017 7019 169
7018 7011 17
7018 7006 21
7018 7035 165
7018 7085 434
7019 6913 328
7019 7017 169
7019 7081 398
7020 6950 318
7020 6916 480
7020 7046 167
7020 7103 463
7021 7008 67
7021 7026 30
7021 7029 34
7022 6996 229
7022 6964 214
7022 7040 224
7022 7093 302
7023 7000 169
7023 7024 14
7023 7038 209
7024 6994 231
7024 7023 14
7024 7041 210
7024 7096 300
7025 6993 514
7026 7021 30
7026 7033 33
7026 7047 137
7027 6976 222
7027 6975 240
7027 7051 146
7028 7003 231
7028 6992 113
7028 7067 207
7029 7021 34
7029 7033 29
7029 7034 104
7030 7008 106
7030 7034 27
7030 7042 79
7031 7032 509
7031 6864 936
7031 7050 224
7031 7379 1182
7032 7031 509
7033 7026 33
7033 7029 29
7033 7034 330
7034 7029 104
7034 7030 27
7034 7033 330
7035 7018 165
7035 7048 128
7035 7058 163
7036 6985 195
7036 7037 255
7036 7073 178
7037 6987 190
7037 7036 255
7037 7039 282
7037 7075 178
7038 7023 209
7038 7041 13
7038 7059 400
7039 6989 179
7039 7037 282
7039 7076 180
7040 7022 224
7040 6986 215
7040 7055 187
7040 7108 297
7041 7024 210
7041 7038 13
7041 7068 399
7041 7111 304
7042 7030 79
7042 6950 471
7042 7066 185
7042 7103 317
7043 7010 140
7043 7045 302
7043 7086 172
7044 7006 299
7044 6900 717
7044 7047 23
7044 7048 25
7045 6995 179
7045 7043 302
7045 7088 175
7046 7020 167
7046 6922 647
7046 7049 11
7046 7143 491
7047 7044 23
7047 7026 137
7047 7052 25
7047 7066 195
7048 7035 128
7048 7044 25
7048 7052 24
7048 7058 110
7049 7046 11
7049 6927 648
7049 7146 483
7050 7031 224
7050 6864 733
7050 7057 59
7051 7027 146
7051 7016 241
7051 7072 175
7051 7080 182
7052 7048 24
7052 7047 25
7052 7122 525
7052 7264 1047
7053 6828 1038
7053 7056 11
7053 7061 216
7054 6988 278
7054 6993 238
7054 7279 1150
7055 7040 187
7055 7003 212
7055 7067 230
7055 7133 297
7056 6829 1044
7056 7053 11
7056 7069 217
7056 7082 319
7057 7050 59
7057 7062 204
7057 7178 437
7058 7035 163
7058 7048 110
7058 7242 887
7059 7038 400
7059 6963 457
7059 7068 17
7059 7079 174
7060 6984 332
7060 7065 323
7060 7119 181
7061 7053 216
7061 6958 445
7061 7064 16
7061 7069 14
7062 7057 204
7062 7063 321
7062 7095 87
7063 7062 321
7064 7061 16
7064 6996 298
7064 7071 14
7064 7093 230
7065 7060 323
7066 7047 195
7066 7042 185
7066 7118 330
7067 7055 230
7067 7028 207
7067 7159 298
7068 7041 399
7068 7059 17
7068 7087 164
7069 7056 217
7069 7061 14
7069 7071 16
7070 6994 316
7070 7096 229
7070 7160 298
7071 7069 16
7071 7064 14
7071 7097 232
7072 6976 538
7072 7051 175
7072 7091 107
7072 7126 163
7073 7036 178
7073 7075 256
7073 7115 684
7074 7007 295
7074 7077 316
7074 7112 127
7074 7112 605
7075 7037 178
7075 7073 256
7075 7076 282
7076 7039 180
7076 7075 282
7076 7080 338
7076 7115 126
7077 7012 295
7077 7074 316
7077 7078 262
7077 7109 110
7078 7015 297
7078 7077 262
7078 7081 277
7078 7110 108
7079 7059 174
7079 7011 434
7079 7085 16
7079 7087 22
7080 7051 182
7080 7076 338
7080 7123 143
7081 7078 277
7081 7019 398
7081 7110 386
7082 7056 319
7082 7107 187
7082 7161 259
7083 7005 316
7083 7084 17
7083 7086 133
7083 7100 38
7084 7083 17
7084 6928 593
7084 7098 38
7085 7079 16
7085 7018 434
7085 7101 58
7086 7043 172
7086 7083 133
7086 7088 341
7087 7068 164
7087 7079 22
7087 7101 35
7087 7223 590
7088 7045 175
7088 7086 341
7088 7089 111
7088 7114 104
7089 6997 347
7089 7088 111
7089 7090 161
7090 6999 358
7090 7089 161
7090 7092 190
7091 7072 107
7091 7094 129
7091 7127 129
7092 7002 344
7092 7090 190
7092 7136 150
7093 7064 230
7093 7022 302
7093 7097 15
7093 7108 227
7094 7091 129
7094 7105 241
7094 7130 121
7095 7062 87
7096 7070 229
7096 7024 300
7096 7111 209
7096 7179 298
7097 7071 232
7097 7093 15
7097 7113 225
7097 7440 1690
7098 7084 38
7098 7099 89
7098 7100 17
7098 7131 114
7099 7098 89
7100 7083 38
7100 7098 17
7100 7132 114
7101 7087 35
7101 7085 58
7101 7225 558
7102 6979 446
7102 7523 328
7103 7042 317
7103 7020 463
7103 7118 99
7104 6977 451
7104 7533 322
7105 7106 186
7105 7094 241
7105 7130 309
7106 7105 186
7107 7082 187
7107 7124 193
7107 7218 348
7108 7093 227
7108 7040 297
7108 7113 15
7108 7133 183
7109 7077 110
7109 7110 260
7109 7112 316
7110 7078 108
7110 7109 260
7110 7081 386
7111 7096 209
7111 7041 304
7111 7217 298
7112 7109 316
7112 7074 127
7112 7074 605
7113 7097 225
7113 7108 15
7113 7139 182
7114 7088 104
7115 7076 126
7115 7073 684
7115 7123 345
7116 6982 515
7116 7117 256
7116 7119 348
7117 7116 256
7118 7066 330
7118 7103 99
7118 7122 27
7118 7143 177
7119 7060 181
7119 7116 348
7119 7169 141
7120 7121 495
7120 7222 363
7120 7255 536
7121 7120 495
7121 6955 395
7122 7052 525
7122 7118 27
7122 7152 179
7122 7280 666
7123 7080 143
7123 7115 345
7123 7126 244
7124 7125 318
7124 7107 193
7124 7224 304
7125 7124 318
7126 7072 163
7126 7123 244
7126 7127 109
7127 7091 129
7127 7126 109
7127 7130 133
7128 7129 402
7128 7131 432
7128 7138 24
7129 7128 402
7129 7135 24
7129 7151 407
7130 7094 121
7130 7127 133
7130 7105 309
7131 7098 114
7131 7128 432
7131 7132 19
7131 7141 23
7132 7100 114
7132 7131 19
7132 7136 939
7132 7142 23
7133 7108 183
7133 7055 297
7133 7139 15
7133 7159 229
7134 6965 670
7134 7170 63
7135 7129 24
7135 7138 402
7135 7158 399
7135 7228 285
7136 7092 150
7136 7132 939
7136 7137 27
7136 7147 25
7137 6930 749
7137 7136 27
7137 7140 573
7137 7148 25
7138 7128 24
7138 7135 402
7138 7141 432
7139 7113 182
7139 7133 15
7139 7164 229
7140 7137 573
7140 7144 580
7140 7150 26
7141 7131 23
7141 7138 432
7141 7142 19
7141 7210 185
7142 7132 23
7142 7141 19
7142 7147 939
7142 7211 185
7143 7118 177
7143 7046 491
7143 7146 14
7143 7152 29
7144 7140 580
7144 7145 11
7144 7154 26
7145 7144 11
7145 7149 634
7145 7155 26
7146 7143 14
7146 7049 483
7146 7149 163
7146 7153 30
7147 7136 25
7147 7142 939
7147 7148 27
7147 7213 184
7148 7137 25
7148 7147 27
7148 7150 570
7148 7240 344
7149 7146 163
7149 7145 634
7149 7157 24
7150 7140 26
7150 7148 570
7150 7154 582
7150 7216 178
7151 7129 407
7151 7197 60
7152 7122 179
7152 7143 29
7152 7153 13
7152 7260 445
7153 7152 13
7153 7146 30
7153 7157 184
7153 7261 441
7154 7144 26
7154 7150 582
7154 7155 10
7154 7248 348
7155 7145 26
7155 7154 10
7155 7156 403
7155 7247 347
7156 7155 403
7156 7157 231
7156 7235 276
7157 7149 24
7157 7156 231
7157 7153 184
7158 7135 399
7158 7209 64
7159 7133 229
7159 7067 298
7159 7160 16
7159 7164 15
7160 7159 16
7160 7070 298
7160 7168 15
7160 7179 228
7161 7082 259
7161 7165 18
7161 7278 418
7162 7163 717
7162 6948 337
7163 7162 717
7163 7220 193
7163 7221 196
7164 7139 229
7164 7159 15
7164 7168 16
7165 7161 18
7165 7173 48
7165 7195 123
7166 7167 293
7166 7193 212
7166 7202 106
7167 7166 293
7168 7164 16
7168 7160 15
7168 7192 228
7169 7119 141
7169 7170 1799
7169 7180 54
7170 7169 1799
7170 7134 63
7171 7172 17
7171 7177 25
7172 7171 17
7173 7165 48
7173 7195 98
7173 7206 500
7174 7175 223
7174 7180 524
7174 7189 25
7174 13485 206
7175 7174 223
7176 7177 20
7177 7176 20
7177 7171 25
7178 7057 437
7178 7226 310
7178 7285 373
7179 7160 228
7179 7096 298
7179 7192 15
7179 7217 209
7180 7169 54
7180 7174 524
7180 7183 572
7180 7198 23
7181 7182 134
7181 7257 440
7181 7281 343
7182 7181 134
7182 7196 194
7182 7299 393
7183 7180 572
7183 7184 184
7183 7201 25
7184 7183 184
7184 7185 32
7184 7203 32
7185 7184 32
7185 7186 31
7185 7204 29
7186 7185 31
7186 7191 32
7186 7204 29
7187 7188 78
7187 7190 5
7188 7187 78
7188 7189 150
7188 7267 293
7189 7174 25
7189 7188 150
7189 7194 191
7189 7230 162
7190 7187 5
7191 7186 32
7191 7197 958
7191 7207 39
7192 7168 228
7192 7179 15
7192 7219 210
7193 7166 212
7194 7189 191
7194 7198 346
7194 7251 230
7195 7165 123
7195 7173 98
7195 7206 50
7196 7182 194
7196 7210 241
7196 7301 380
7197 7191 958
7197 7151 60
7198 7180 23
7198 7194 346
7198 7201 570
7198 7253 230
7199 7200 45
7199 7200 92
7200 7199 45
7200 7202 17
7200 7199 92
7201 7183 25
7201 7198 570
7201 7203 187
7202 7200 17
7202 7166 106
7202 7258 255
7203 7184 32
7203 7201 187
7203 7204 46
7203 7214 47
7204 7186 29
7204 7185 29
7204 7203 46
7204 7207 46
7204 7214 30
7204 7215 32
7205 7206 21
7206 7205 21
7206 7195 50
7206 7173 500
7207 7191 39
7207 7204 46
7207 7208 355
7207 7215 47
7208 7209 608
7208 7207 355
7208 7277 253
7209 7208 608
7209 7158 64
7210 7141 185
7210 7196 241
7210 7211 17
7210 7302 352
7211 7142 185
7211 7210 17
7211 7212 430
7211 7303 352
7212 7211 430
7212 7213 509
7212 7306 352
7213 7147 184
7213 7212 509
7213 7317 351
7214 7204 30
7214 7203 47
7214 7272 225
7215 7207 47
7215 7204 32
7215 7271 224
7216 7150 178
7216 7241 529
7216 7243 172
7216 7244 549
7217 7179 209
7217 7111 298
7217 7219 16
7217 7229 260
7218 7107 348
7219 7192 210
7219 7217 16
7219 7233 248
7220 7163 193
7220 7256 72
7221 7163 196
7221 7366 67
7222 7120 363
7222 7370 68
7223 7087 590
7223 7225 17
7223 7229 79
7224 7124 304
7224 7298 291
7224 7394 618
7225 7223 17
7225 7101 558
7225 7232 71
7226 7178 310
7226 7227 219
7226 7231 86
7226 7350 373
7227 7226 219
7228 7135 285
7229 7217 260
7229 7223 79
7229 7232 20
7229 7233 19
7230 7189 162
7230 7236 70
7230 7287 246
7231 7226 86
7232 7229 20
7232 7225 71
7232 7234 17
7232 7252 253
7233 7219 248
7233 7229 19
7233 7234 25
7234 7233 25
7234 7232 17
7234 7254 236
7235 7156 276
7235 7247 450
7235 7291 187
7236 7237 55
7236 7230 70
7236 7238 61
7236 7288 189
7237 7236 55
7238 7239 59
7238 7236 61
7238 7250 62
7238 7297 187
7239 7238 59
7240 7148 344
7240 7241 161
7240 7319 193
7241 7216 529
7241 7240 161
7241 7243 412
7242 7058 887
7242 7252 108
7242 7259 56
7243 7216 172
7243 7241 412
7243 7244 427
7243 7326 187
7244 7216 549
7244 7243 427
7244 7248 154
7245 7246 75
7245 7267 42
7245 7268 44
7246 7245 75
7246 13486 167
7247 7235 450
7247 7155 347
7247 7248 12
7247 7335 191
7248 7247 12
7248 7154 348
7248 7244 154
7248 7337 192
7249 7250 56
7250 7249 56
7250 7238 62
7250 7263 67
7250 7315 185
7251 7194 230
7251 7253 347
7251 7262 28
7252 7232 253
7252 7242 108
7252 7259 68
7253 7198 230
7253 7251 347
7253 7371 256
7254 7234 236
7254 7266 83
7254 7284 94
7255 7120 536
7255 7256 800
7255 7367 965
7255 7369 757
7255 7358 565
7256 7255 800
7256 7220 72
7257 7181 440
7258 7202 255
7259 7252 68
7259 7242 56
7259 7264 23
7259 7266 17
7260 7152 445
7260 7261 19
7260 7275 21
7260 7280 324
7261 7260 19
7261 7153 441
7261 7276 20
7261 7291 575
7262 7251 28
7262 7263 27
7262 7368 228
7263 7262 27
7263 7250 67
7263 7339 183
7264 7259 23
7264 7052 1047
7264 7273 18
7264 7290 325
7265 6938 3842
7265 7403 326
7266 7254 83
7266 7259 17
7266 7273 23
7266 7284 80
7267 7188 293
7267 7245 42
7267 7268 29
7267 7296 98
7268 7267 29
7268 7245 44
7268 7269 247
7268 7270 4
7269 7268 247
7270 7268 4
7271 7215 224
7271 7272 16
7271 7274 321
7271 7374 232
7272 7271 16
7272 7214 225
7272 7372 230
7273 7266 23
7273 7264 18
7273 7293 335
7273 7395 417
7274 7271 321
7274 7277 88
7274 7435 539
7275 7260 21
7275 7276 19
7275 7283 317
7275 7439 509
7276 7275 19
7276 7261 20
7276 7294 576
7276 7437 507
7277 7208 253
7277 7274 88
7277 7418 447
7278 7161 418
7278 7292 148
7278 7480 670
7279 7054 1150
7279 7282 8
7279 7944 2372
7280 7122 666
7280 7260 324
7280 7283 14
7280 7290 510
7281 7181 343
7282 7279 8
7282 7286 48
7282 7289 46
7283 7280 14
7283 7275 317
7283 7293 517
7283 7454 524
7284 7254 94
7284 7266 80
7284 7440 617
7285 7178 373
7285 7350 306
7285 7407 310
7286 7282 48
7286 7305 64
7287 7230 246
7287 7288 11
7287 7295 30
7288 7236 189
7288 7287 11
7288 7297 64
7289 7282 46
7289 7313 65
7290 7264 325
7290 7280 510
7290 7293 16
7291 7261 575
7291 7235 187
7291 7294 16
7291 7335 484
7292 7278 148
7292 7298 325
7292 7480 793
7293 7273 335
7293 7290 16
7293 7283 517
7293 7395 800
7294 7276 576
7294 7291 16
7294 7346 492
7295 7287 30
7295 7342 148
7295 7343 131
7295 7345 71
7296 7267 98
7297 7238 187
7297 7288 64
7297 7315 62
7298 7224 291
7298 7292 325
7298 7584 1457
7299 7182 393
7299 7300 245
7299 7301 238
7299 7309 15
7300 7299 245
7300 7388 160
7301 7196 380
7301 7299 238
7301 7302 240
7302 7210 352
7302 7301 240
7302 7303 19
7302 7320 18
7303 7211 352
7303 7302 19
7303 7306 416
7303 7321 18
7304 7305 11
7304 7312 11
7304 7318 17
7305 7304 11
7305 7286 64
7306 7212 352
7306 7303 416
7306 7307 57
7307 7308 72
7307 7306 57
7307 7311 186
7308 7307 72
7309 7299 15
7309 7310 64
7309 7330 248
7310 7309 64
7310 7314 128
7310 7328 17
7311 7307 186
7311 7316 158
7311 7331 18
7312 7304 11
7312 7313 10
7312 7325 20
7312 7377 187
7313 7312 10
7313 7289 65
7314 7310 128
7314 7320 286
7314 7329 15
7315 7250 185
7315 7297 62
7315 7339 64
7316 7311 158
7316 7317 120
7316 7332 18
7317 7213 351
7317 7316 120
7317 7319 26
7317 7333 18
7318 7304 17
7318 7348 29
7319 7240 193
7319 7317 26
7319 7322 158
7319 7334 16
7320 7302 18
7320 7314 286
7320 7321 18
7320 7417 291
7321 7303 18
7321 7320 18
7321 7324 414
7321 7414 288
7322 7319 158
7322 7323 159
7322 7336 18
7323 7322 159
7323 7326 257
7323 7338 19
7324 7321 414
7324 7327 57
7324 7420 293
7325 7312 20
7325 7353 29
7326 7243 187
7326 7323 257
7326 7337 581
7326 7340 20
7327 7324 57
7327 7331 187
7327 7423 319
7328 7310 17
7328 7329 130
7328 7330 308
7328 7382 123
7329 7314 15
7329 7328 130
7329 7385 139
7330 7309 248
7330 7328 308
7330 7397 173
7331 7311 18
7331 7327 187
7331 7332 159
7332 7316 18
7332 7331 159
7332 7333 120
7333 7317 18
7333 7332 120
7333 7334 26
7333 7428 317
7334 7319 16
7334 7333 26
7334 7336 157
7334 7427 316
7335 7291 484
7335 7247 191
7335 7337 11
7335 7346 18
7336 7322 18
7336 7334 157
7336 7338 162
7337 7335 11
7337 7248 192
7337 7326 581
7337 7346 16
7338 7323 19
7338 7336 162
7338 7340 255
7338 7431 318
7339 7263 183
7339 7315 64
7339 7344 9
7340 7326 20
7340 7338 255
7340 7346 586
7340 7432 316
7341 7342 17
7342 7341 17
7342 7295 148
7342 7344 58
7342 7345 124
7343 7295 131
7343 7345 63
7344 7339 9
7344 7342 58
7344 7355 31
7345 7342 124
7345 7295 71
7345 7343 63
7346 7294 492
7346 7335 18
7346 7337 16
7346 7340 586
7347 7348 37
7347 7357 39
7348 7347 37
7348 7318 29
7349 6893 2256
7349 7358 214
7349 7563 2021
7350 7285 306
7350 7226 373
7350 7394 290
7350 7426 311
7351 7352 1618
7351 7406 230
7351 7436 708
7352 7351 1618
7352 6860 43
7353 7354 36
7353 7325 29
7354 7353 36
7354 7365 38
7355 7344 31
7356 7357 13
7356 7364 11
7356 7380 60
7357 7356 13
7357 7347 39
7358 7349 214
7358 7255 565
7359 7360 55
7360 7359 55
7360 7361 82
7360 7362 27
7360 7415 208
7361 7360 82
7362 7363 86
7362 7360 27
7362 7368 385
7362 7416 208
7363 7362 86
7364 7356 11
7364 7365 14
7364 7381 60
7364 7384 75
7365 7364 14
7365 7354 38
7366 7367 529
7366 7221 67
7367 7366 529
7367 7255 965
7367 7419 543
7368 7262 228
7368 7362 385
7368 7371 348
7368 7506 492
7369 7255 757
7369 7370 528
7369 7421 561
7370 7369 528
7370 7222 68
7371 7253 256
7371 7368 348
7371 7373 540
7371 7510 492
7372 7272 230
7372 7373 253
7372 7374 16
7372 7434 246
7373 7372 253
7373 7371 540
7373 7434 490
7374 7271 232
7374 7372 16
7374 7433 245
7375 6937 1944
7375 7376 10
7375 7511 519
7376 7375 10
7376 7711 33
7377 7312 187
7377 7386 59
7377 7884 1850
7378 7379 98
7378 7846 1408
7379 7378 98
7379 7031 1182
7379 7407 225
7380 7356 60
7380 7391 22
7381 7364 60
7381 7392 22
7382 7328 123
7382 7383 77
7382 7385 130
7382 7411 131
7383 7382 77
7384 7364 75
7385 7329 139
7385 7382 130
7385 7393 91
7385 7410 100
7386 7387 37
7386 7377 59
7386 7400 43
7387 7386 37
7388 7389 272
7388 7300 160
7389 7388 272
7389 7477 221
7390 7391 34
7390 7392 34
7390 7412 191
7391 7390 34
7391 7380 22
7392 7390 34
7392 7381 22
7393 7385 91
7394 7350 290
7394 7224 618
7394 7458 319
7395 7273 417
7395 7293 800
7395 7442 276
7396 7397 223
7396 7485 222
7397 7396 223
7397 7330 173
7398 7399 97
7399 7398 97
7400 7386 43
7401 7402 327
7402 7401 327
7402 7403 13
7402 7515 410
7403 7265 326
7403 7402 13
7403 7508 397
7404 7405 10
7405 7404 10
7406 7351 230
7406 7591 148
7407 7379 225
7407 7285 310
7407 7426 307
7407 7475 333
7408 7409 171
7409 7408 171
7410 7385 100
7411 7382 131
7412 6793 2636
7412 7390 191
7412 7561 498
7412 8042 2032
7413 7414 293
7413 7420 116
7413 7452 160
7414 7413 293
7414 7321 288
7414 7417 17
7414 7491 256
7415 7360 208
7415 7416 27
7415 7429 254
7415 7505 288
7416 7362 208
7416 7415 27
7416 7504 284
7417 7414 17
7417 7320 291
7417 7422 404
7417 7579 524
7418 7277 447
7418 7435 177
7418 7459 167
7419 7367 543
7419 7443 64
7420 7324 293
7420 7413 116
7420 7423 61
7420 7495 257
7421 7369 561
7421 7446 62
7422 7417 404
7423 7327 319
7423 7420 61
7423 7424 157
7423 7496 231
7424 7423 157
7424 7425 156
7424 7497 232
7425 7424 156
7425 7428 174
7425 7498 231
7426 7407 307
7426 7350 311
7426 7441 125
7427 7334 316
7427 7428 27
7427 7431 317
7427 7582 464
7428 7427 27
7428 7333 317
7428 7425 174
7428 7499 230
7429 7415 254
7429 7430 73
7429 7438 106
7430 7429 73
7431 7338 318
7431 7427 317
7431 7432 258
7431 7556 380
7432 7340 316
7432 7431 258
7432 7488 212
7433 7374 245
7433 7434 16
7433 7435 409
7433 7521 251
7434 7433 16
7434 7372 246
7434 7373 490
7434 7520 249
7435 7418 177
7435 7274 539
7435 7433 409
7436 7351 708
7436 7449 643
7436 7479 141
7437 7276 507
7437 7439 12
7437 7462 1366
7438 7429 106
7439 7275 509
7439 7437 12
7439 7454 319
7440 7284 617
7440 7097 1690
7440 7442 22
7440 7494 215
7441 7426 125
7441 7458 138
7441 7540 275
7442 7440 22
7442 7395 276
7442 7500 597
7442 7502 228
7443 7444 370
7443 7419 64
7444 7443 370
7444 7624 60
7445 7446 344
7445 7447 13
7445 7448 28
7445 7453 51
7446 7445 344
7446 7421 62
7447 7445 13
7447 7629 61
7448 7445 28
7448 7450 9
7449 7436 643
7449 7543 249
7449 7547 753
7450 7448 9
7450 7451 245
7450 7453 39
7451 7450 245
7452 7413 160
7452 7492 335
7452 7493 143
7453 7445 51
7453 7450 39
7453 7471 112
7454 7283 524
7454 7439 319
7454 7486 480
7455 7456 238
7455 7457 148
7455 7481 93
7456 7455 238
7457 7455 148
7458 7441 138
7458 7394 319
7458 7544 256
7459 7460 1267
7459 7418 167
7459 7478 63
7460 7459 1267
7461 6911 1894
7462 7437 1366
7462 7463 392
7462 7488 155
7463 7462 392
7464 7465 1461
7464 13473 2173
7465 7464 1461
7465 13492 321
7466 7467 1468
7466 13491 88
7467 7466 1468
7467 13475 2452
7468 7469 168
7469 7468 168
7470 6938 3007
7470 7593 547
7471 7472 15
7471 7453 112
7471 7476 41
7472 7471 15
7472 7476 54
7473 7474 217
7474 7473 217
7475 7407 333
7475 7540 431
7475 7830 943
7476 7472 54
7476 7471 41
7476 7563 309
7477 7478 422
7477 7389 221
7478 7477 422
7478 7459 63
7478 7484 17
7478 7487 19
7478 7526 283
7479 6416 5097
7479 7436 141
7479 7543 699
7479 7548 182
7480 7278 670
7480 7292 793
7480 7584 301
7481 7455 93
7481 7558 218
7481 7566 297
7482 7483 1959
7483 7482 1959
7484 7485 420
7484 7478 17
7484 7487 12
7484 7549 180
7485 7484 420
7485 7396 222
7486 7454 480
7486 7500 339
7486 7647 435
7487 7484 12
7487 7478 19
7487 7536 278
7487 7620 415
7488 7462 155
7488 7432 212
7488 7556 404
7488 7613 753
7489 7490 199
7489 7501 38
7489 7509 171
7490 7489 199
7490 7507 90
7490 7512 45
7491 7414 256
7491 7492 81
7491 7574 264
7492 7452 335
7492 7491 81
7492 7493 206
7493 7452 143
7493 7492 206
7493 7495 79
7493 7557 175
7494 7440 215
7494 7502 24
7494 7503 103
7494 7600 383
7495 7420 257
7495 7493 79
7495 7496 60
7495 7575 233
7496 7423 231
7496 7495 60
7496 7497 180
7496 7577 232
7497 7424 232
7497 7496 180
7497 7498 156
7498 7425 231
7498 7497 156
7498 7499 175
7499 7428 230
7499 7498 175
7499 7583 233
7500 7442 597
7500 7486 339
7500 7722 668
7501 7489 38
7501 7512 175
7501 7509 169
7501 7535 53
7502 7494 24
7502 7442 228
7502 7603 377
7503 7494 103
7503 7524 92
7503 7532 91
7504 7416 284
7504 7505 29
7504 7506 377
7504 7514 20
7505 7504 29
7505 7415 288
7505 7519 22
7505 7550 329
7506 7368 492
7506 7504 377
7506 7510 349
7506 7518 19
7507 7490 90
7508 7403 397
7508 7516 13
7508 7552 856
7509 7489 171
7509 7501 169
7509 7553 183
7510 7371 492
7510 7506 349
7510 7520 791
7510 7525 18
7511 7375 519
7511 7513 12
7511 7541 46
7512 7501 175
7512 7490 45
7512 7517 24
7512 7542 56
7513 7511 12
7513 7615 32
7514 7504 20
7514 7518 374
7514 7519 27
7514 7595 259
7515 7402 410
7515 7516 15
7515 7621 328
7516 7508 13
7516 7515 15
7516 7527 10
7517 7512 24
7518 7506 19
7518 7514 374
7518 7525 350
7518 7596 250
7519 7514 27
7519 7505 22
7519 7554 324
7519 7594 254
7520 7434 249
7520 7510 791
7520 7521 18
7520 7530 15
7521 7433 251
7521 7520 18
7521 7526 392
7521 7531 15
7522 7523 1060
7522 7631 380
7523 7522 1060
7523 7102 328
7524 7503 92
7524 13492 266
7525 7510 18
7525 7518 350
7525 7530 791
7525 7598 249
7526 7478 283
7526 7521 392
7526 7536 16
7526 7537 17
7527 7516 10
7527 7560 857
7527 7619 316
7528 7529 225
7528 7555 220
7528 7558 288
7529 7528 225
7530 7520 15
7530 7525 791
7530 7531 18
7530 7685 492
7531 7521 15
7531 7530 18
7531 7537 385
7531 7686 491
7532 7503 91
7532 13496 134
7533 7534 1076
7533 7104 322
7534 7533 1076
7534 7632 378
7535 7501 53
7535 7542 141
7535 7553 198
7535 7569 158
7536 7487 278
7536 7526 16
7536 7537 11
7536 7683 483
7537 7536 11
7537 7526 17
7537 7531 385
7537 7688 493
7538 7539 38
7539 7538 38
7539 7562 212
7539 7562 210
7540 7475 431
7540 7441 275
7540 7544 115
7541 7511 46
7541 7607 50
7542 7535 141
7542 7512 56
7542 7549 127
7542 7587 189
7543 7479 699
7543 7449 249
7543 7630 828
7543 7693 479
7544 7540 115
7544 7458 256
7544 7830 905
7545 7546 313
7546 7545 313
7546 7601 107
7547 7449 753
7547 6911 2325
7547 7559 83
7548 7479 182
7548 7604 107
7549 7542 127
7549 7484 180
7549 7617 237
7550 7505 329
7550 7551 150
7550 7554 17
7550 7609 315
7551 7550 150
7552 7508 856
7553 7509 183
7553 7535 198
7553 7565 49
7553 7569 130
7554 7519 324
7554 7550 17
7554 7612 308
7555 7528 220
7555 7622 241
7555 7815 1747
7556 7488 404
7556 7431 380
7556 7582 333
7557 7493 175
7558 7528 288
7558 7589 147
7558 7481 218
7559 7547 83
7559 7630 212
7559 7847 1183
7560 7527 857
7561 7412 498
7561 7862 1911
7561 8038 1780
7562 7539 212
7562 7539 210
7562 7589 220
7563 7349 2021
7563 6461 4062
7563 7476 309
7563 7590 2555
7564 7565 155
7564 7573 155
7565 7564 155
7565 7553 49
7565 7617 376
7566 7567 84
7566 7481 297
7567 7566 84
7567 7568 572
7567 7802 1611
7568 7567 572
7569 7553 130
7569 7535 158
7569 7576 18
7569 7587 104
7570 7571 173
7570 7572 148
7570 7600 176
7571 7570 173
7571 13491 230
7572 7570 148
7572 13495 170
7573 7564 155
7573 7627 383
7573 7657 272
7574 7491 264
7574 7575 218
7574 7579 18
7574 7706 416
7575 7495 233
7575 7574 218
7575 7577 73
7576 7569 18
7577 7496 232
7577 7575 73
7577 7578 139
7577 7702 369
7578 7577 139
7578 7580 116
7578 7597 61
7579 7574 18
7579 7417 524
7579 7663 522
7579 7783 601
7580 7578 116
7580 7581 121
7580 7661 255
7581 7580 121
7581 7583 160
7581 7626 137
7582 7427 464
7582 7583 27
7582 7556 333
7582 7744 465
7583 7582 27
7583 7499 233
7583 7581 160
7583 7700 351
7584 7480 301
7584 7298 1457
7584 7785 584
7585 7586 17
7586 7585 17
7587 7569 104
7587 7542 189
7587 7588 18
7587 7592 71
7588 7587 18
7589 7562 220
7589 7558 147
7589 7622 171
7589 7654 204
7590 7591 548
7590 7604 719
7590 7563 2555
7591 7590 548
7591 7406 148
7592 7587 71
7593 7470 547
7593 7599 608
7594 7519 254
7594 7595 28
7594 7670 250
7595 7514 259
7595 7594 28
7595 7596 304
7595 7671 250
7596 7518 250
7596 7595 304
7596 7598 350
7596 7674 245
7597 7578 61
7597 7608 37
7597 7611 125
7598 7525 249
7598 7596 350
7598 7678 242
7599 7593 608
7599 7606 44
7600 7570 176
7600 7494 383
7600 7603 23
7600 7682 313
7601 7602 437
7601 7546 107
7602 7601 437
7602 7623 316
7602 7658 412
7603 7600 23
7603 7502 377
7603 7691 324
7604 7590 719
7604 7548 107
7605 7606 15
7605 7607 369
7605 7770 431
7606 7605 15
7606 7599 44
7607 7605 369
7607 7541 50
7608 7597 37
7608 7611 87
7608 7655 110
7609 7550 315
7609 7610 106
7609 7612 18
7609 7825 1245
7610 7609 106
7611 7597 125
7611 7608 87
7611 7655 194
7612 7554 308
7612 7609 18
7612 7697 396
7612 7828 1255
7613 7614 1841
7613 7652 189
7613 7488 753
7614 7613 1841
7614 7642 96
7615 7616 520
7615 7513 32
7616 7615 520
7616 7695 1325
7616 7923 1287
7617 7565 376
7617 7549 237
7617 7618 7
7618 7617 7
7618 7620 9
7618 7627 16
7619 7527 316
7619 7621 10
7619 7646 39
7620 7618 9
7620 7487 415
7620 7683 453
7621 7619 10
7621 7515 328
7621 7646 36
7621 7780 3051
7622 7589 171
7622 7555 241
7622 7659 211
7622 7673 192
7623 7602 316
7623 7647 207
7623 7658 104
7624 7625 735
7624 7444 60
7625 7624 735
7625 7724 172
7626 7581 137
7627 7573 383
7627 7618 16
7627 7689 463
7627 7715 271
7628 7629 731
7628 7732 171
7629 7628 731
7629 7447 61
7630 7543 828
7630 7559 212
7630 7753 350
7630 7877 765
7631 7522 380
7631 7906 327
7632 7534 378
7632 7797 327
7633 7634 251
7633 7639 63
7634 7633 251
7634 7644 95
7635 7636 135
7635 7637 70
7635 7640 69
7635 7653 31
7636 7635 135
7637 7635 70
7638 7639 760
7638 13496 168
7639 7638 760
7639 7633 63
7640 7635 69
7640 7641 20
7640 7772 367
7641 7640 20
7642 7643 249
7642 7614 96
7643 7642 249
7643 7648 63
7644 7645 2041
7644 7634 95
7645 7644 2041
7645 7750 41
7646 7619 39
7646 7621 36
7646 7656 61
7647 7486 435
7647 7623 207
7647 7679 137
7648 7649 768
7648 7643 63
7649 7648 768
7649 13495 369
7650 7651 628
7651 7650 628
7651 7662 266
7651 7999 1626
7652 7613 189
7652 7757 43
7653 7635 31
7653 7668 172
7653 7672 111
7654 7589 204
7654 7666 896
7654 7673 210
7655 7608 110
7655 7611 194
7656 7646 61
7656 7660 16
7656 7667 610
7656 7707 1053
7657 7573 272
7657 7715 387
7657 7754 271
7658 7623 104
7658 7602 412
7658 7664 33
7659 7622 211
7660 7656 16
7660 7669 524
7660 7712 1043
7661 7580 255
7661 7696 98
7661 7702 322
7662 7651 266
7662 7778 455
7662 7779 468
7663 7579 522
7663 7713 310
7663 7723 156
7664 7658 33
7664 7665 307
7664 7679 206
7664 7708 577
7665 7664 307
7666 7654 896
7667 7656 610
7667 13498 328
7667 13501 111
7668 7653 172
7668 7672 99
7668 7682 91
7668 7705 136
7669 7660 524
7669 7680 236
7669 7864 561
7670 7594 250
7670 7671 26
7670 7697 385
7670 7789 279
7671 7595 250
7671 7670 26
7671 7674 283
7671 7788 278
7672 7653 111
7672 7668 99
7672 7705 72
7673 7654 210
7673 7622 192
7673 7825 376
7674 7596 245
7674 7671 283
7674 7678 297
7675 7676 114
7675 7677 13
7675 7687 93
7675 7690 599
7676 7675 114
7676 7687 21
7676 7692 124
7677 7675 13
7677 7694 589
7677 7719 339
7678 7598 242
7678 7674 297
7678 7685 791
7678 7841 374
7679 7647 137
7679 7664 206
7679 7708 70
7680 7669 236
7680 7681 58
7680 7703 94
7681 7680 58
7681 7684 62
7682 7668 91
7682 7600 313
7682 7691 26
7682 7752 236
7683 7620 453
7683 7536 483
7683 7688 15
7683 7689 14
7684 7681 62
7684 7709 256
7684 7714 101
7685 7530 492
7685 7678 791
7685 7686 21
7685 7791 248
7686 7531 491
7686 7685 21
7686 7688 382
7686 7792 248
7687 7675 93
7687 7676 21
7687 7701 124
7688 7683 15
7688 7537 493
7688 7686 382
7688 7689 16
7688 7882 478
7689 7627 463
7689 7683 14
7689 7688 16
7689 7799 274
7690 7675 599
7690 7694 15
7690 7801 762
7691 7682 26
7691 7603 324
7691 7795 290
7691 7854 593
7692 7676 124
7692 7701 21
7692 7716 135
7693 7543 479
7693 7753 616
7694 7690 15
7694 7677 589
7694 7742 115
7694 7811 765
7695 7616 1325
7695 7782 744
7695 7849 370
7696 7661 98
7696 7704 22
7696 7700 301
7697 7670 385
7697 7612 396
7697 7755 243
7697 7918 604
7698 7699 123
7698 7766 222
7698 7785 320
7699 7698 123
7700 7583 351
7700 7696 301
7700 7744 145
7701 7687 124
7701 7692 21
7701 7716 123
7702 7661 322
7702 7577 369
7702 7706 76
7703 7680 94
7703 13505 152
7704 7696 22
7704 7726 59
7704 7729 75
7705 7672 72
7705 7668 136
7705 7752 119
7706 7702 76
7706 7574 416
7706 7848 331
7707 7656 1053
7707 7712 21
7707 7781 519
7708 7679 70
7708 7722 257
7708 7664 577
7709 7684 256
7709 7762 365
7709 7865 582
7710 7711 2520
7710 7782 194
7710 7784 554
7711 7710 2520
7711 7376 33
7712 7660 1043
7712 7707 21
7712 7790 525
7712 7816 240
7713 7663 310
7713 7734 41
7714 7684 101
7714 13506 142
7715 7657 387
7715 7627 271
7715 7799 436
7715 7826 248
7716 7701 123
7716 7692 135
7716 7720 27
7717 7718 58
7717 7738 47
7717 7740 110
7718 7717 58
7719 7677 339
7719 7728 27
7720 7721 13
7720 7716 27
7721 7720 13
7721 7727 14
7721 7770 544
7722 7500 668
7722 7708 257
7722 7904 400
7723 7663 156
7723 7821 207
7723 7829 429
7724 7725 421
7724 7625 172
7725 7724 421
7725 13508 127
7726 7704 59
7726 7737 62
7726 7743 37
7727 7728 14
7727 7721 14
7727 7775 546
7727 8164 1653
7728 7727 14
7728 7719 27
7729 7704 75
7729 7730 56
7729 7737 16
7729 7777 138
7730 7729 56
7731 7732 430
7731 13507 34
7732 7731 430
7732 7628 171
7733 7734 67
7733 7754 194
7733 7761 192
7734 7733 67
7734 7713 41
7735 7736 304
7735 7795 241
7735 7831 291
7736 7735 304
7736 7813 622
7736 7822 274
7737 7726 62
7737 7729 16
7737 7746 39
7738 7739 59
7738 7717 47
7738 7741 13
7739 7738 59
7740 7717 110
7740 7935 19
7741 7738 13
7742 7694 115
7742 7745 132
7742 7875 855
7743 7726 37
7743 7746 61
7743 7747 112
7744 7582 465
7744 7700 145
7745 7742 132
7745 7780 195
7746 7743 61
7746 7737 39
7746 7760 24
7747 7743 112
7747 7769 131
7747 7793 183
7748 7749 509
7748 7802 100
7749 7748 509
7749 13499 292
7749 13504 90
7750 7751 846
7750 7645 41
7751 7750 846
7751 7834 137
7752 7705 119
7752 7682 236
7752 7772 67
7753 7693 616
7753 7630 350
7753 7871 455
7753 8013 661
7754 7733 194
7754 7657 271
7754 7761 15
7754 7826 397
7755 7697 243
7756 7757 847
7756 7840 139
7757 7756 847
7757 7652 43
7758 7759 1998
7758 7888 70
7759 7758 1998
7759 13477 2745
7760 7746 24
7760 7769 17
7760 7777 115
7761 7733 192
7761 7754 15
7761 7827 397
7761 7872 253
7762 7709 365
7762 7815 101
7763 7764 2003
7763 13479 2685
7764 7763 2003
7764 7893 68
7765 7766 323
7766 7765 323
7766 7698 222
7766 7787 47
7767 7768 92
7767 7770 110
7767 7774 12
7768 7767 92
7768 7771 329
7768 7773 13
7769 7747 131
7769 7760 17
7769 7793 53
7770 7721 544
7770 7605 431
7770 7767 110
7770 7775 13
7771 7768 329
7771 7776 12
7771 7809 231
7772 7640 367
7772 7752 67
7772 7787 64
7773 7768 13
7773 7774 90
7773 7776 322
7774 7767 12
7774 7773 90
7774 7775 113
7774 7810 215
7775 7727 546
7775 7770 13
7775 7774 113
7775 7810 63
7776 7773 322
7776 7771 12
7776 7812 230
7776 8062 832
7777 7760 115
7777 7729 138
7777 7793 236
7778 7662 455
7778 7779 19
7778 7915 302
7779 7662 468
7779 7778 19
7779 7817 420
7779 8099 971
7780 7621 3051
7780 7745 195
7781 7707 519
7781 7786 132
7781 7790 17
7782 7695 744
7782 7710 194
7782 7870 577
7782 7938 321
7783 7579 601
7783 7796 284
7783 7850 142
7784 7710 554
7784 7814 416
7784 7852 146
7785 7584 584
7785 7698 320
7785 7836 132
7785 7886 519
7786 7781 132
7786 7800 19
7786 7801 544
7787 7766 47
7787 7772 64
7787 7836 206
7788 7671 278
7788 7789 28
7788 7794 290
7788 7912 250
7789 7788 28
7789 7670 279
7789 7912 247
7790 7712 525
7790 7781 17
7790 7800 134
7790 7891 203
7791 7685 248
7791 7792 17
7791 7919 625
7791 7920 249
7792 7686 248
7792 7791 17
7792 7920 247
7793 7747 183
7793 7769 53
7793 7777 236
7794 7788 290
7795 7691 290
7795 7735 241
7795 7900 280
7796 7783 284
7796 7821 259
7796 7880 326
7797 7798 120
7797 7632 327
7797 13526 542
7798 7797 120
7798 7942 313
7798 8156 1254
7799 7715 436
7799 7689 274
7799 7879 195
7800 7790 134
7800 7786 19
7800 7811 546
7800 7895 202
7801 7690 762
7801 7786 544
7801 7811 16
7802 7567 1611
7802 7748 100
7803 7804 79
7803 13505 161
7804 7803 79
7804 7805 80
7804 7864 141
7805 7804 80
7805 13501 275
7806 7807 81
7806 7808 81
7806 7865 139
7807 7806 81
7807 13504 292
7808 7806 81
7808 13506 160
7809 7771 231
7809 7812 14
7809 7855 249
7810 7775 63
7810 7774 215
7810 8063 690
7811 7801 16
7811 7694 765
7811 7800 546
7811 7875 148
7812 7776 230
7812 7809 14
7812 7861 249
7813 7736 622
7813 7822 447
7813 7904 347
7814 7784 416
7814 7820 256
7815 7555 1747
7815 7762 101
7816 7712 240
7816 7891 615
7816 7993 453
7817 7779 420
7817 7820 96
7817 7947 384
7818 7819 353
7818 7819 53
7819 7818 353
7819 7818 53
7819 7868 204
7820 7817 96
7820 7814 256
7821 7796 259
7821 7723 207
7821 7829 313
7821 7880 153
7822 7736 274
7822 7813 447
7822 7831 154
7823 7824 243
7823 7845 34
7824 7823 243
7824 7832 39
7825 7673 376
7825 7609 1245
7825 7828 19
7825 8115 2100
7826 7754 397
7826 7715 248
7826 7827 12
7826 7879 417
7827 7761 397
7827 7826 12
7827 7889 416
7827 7943 254
7828 7825 19
7828 7612 1255
7828 8045 1190
7829 7821 313
7829 7723 429
7829 7880 428
7830 7475 943
7830 7544 905
7830 7851 40
7831 7735 291
7831 7822 154
7831 7900 226
7832 7833 8
7832 7824 39
7833 7832 8
7833 7866 77
7833 7869 100
7834 7835 454
7834 7751 137
7835 7834 454
7835 7924 252
7836 7785 132
7836 7787 206
7836 7843 21
7837 7838 18
7838 7837 18
7838 7842 69
7838 7860 39
7839 7840 449
7839 7930 257
7840 7839 449
7840 7756 139
7841 7678 374
7841 7842 29
7841 7858 37
7842 7838 69
7842 7841 29
7842 7859 38
7843 7836 21
7843 7854 20
7843 7987 400
7844 7845 177
7844 7933 74
7845 7844 177
7845 7823 34
7846 7378 1408
7846 7856 133
7846 7909 102
7847 7559 1183
7847 7862 33
7847 7954 407
7848 7706 331
7848 8390 2718
7849 7695 370
7849 7881 89
7850 7783 142
7850 8137 918
7851 7830 40
7851 7853 104
7851 7873 249
7852 7784 146
7852 7857 28
7852 7870 57
7853 7851 104
7853 7856 49
7853 7909 175
7854 7843 20
7854 7691 593
7854 8015 532
7854 8072 740
7855 7809 249
7855 7861 13
7855 7917 216
7856 7846 133
7856 7853 49
7856 7863 52
7857 7852 28
7857 7874 28
7858 7841 37
7858 7859 29
7858 7916 89
7859 7858 29
7859 7842 38
7859 7860 68
7860 7859 68
7860 7838 39
7860 7876 31
7861 7812 249
7861 7855 13
7861 7922 217
7861 8118 842
7862 7847 33
7862 7561 1911
7862 8038 581
7863 7856 52
7863 8043 1030
7863 8123 1030
7864 7804 141
7864 7669 561
7864 8082 603
7865 7709 582
7865 7806 139
7865 8076 592
7866 7833 77
7866 7869 39
7867 7868 29
7868 7867 29
7868 7819 204
7868 7884 43
7869 7833 100
7869 7866 39
7869 7911 66
7870 7782 577
7870 7852 57
7870 7885 28
7871 7753 455
7871 7877 19
7871 8034 558
7872 7761 253
7872 7921 85
7872 7943 400
7873 7851 249
7873 7965 252
7873 7985 1561
7874 7857 28
7874 7890 28
7874 7947 567
7875 7811 148
7875 7742 855
7875 7895 590
7875 8037 445
7876 7860 31
7877 7871 19
7877 7630 765
7877 7956 289
7878 6404 5888
7878 8097 879
7878 13522 229
7879 7826 417
7879 7799 195
7879 7882 12
7879 7889 16
7880 7796 326
7880 7821 153
7880 7829 428
7881 7849 89
7881 7923 192
7881 7981 671
7882 7879 12
7882 7688 478
7882 7892 16
7882 7920 620
7883 6410 5890
7883 7969 282
7883 8110 950
7884 7377 1850
7884 7868 43
7884 7998 332
7885 7870 28
7885 7890 57
7885 8051 489
7886 7785 519
7887 7888 476
7887 7960 140
7888 7887 476
7888 7758 70
7889 7827 416
7889 7879 16
7889 7892 13
7889 7991 282
7890 7874 28
7890 7885 57
7890 8050 476
7891 7816 615
7891 7790 203
7891 7895 134
7891 7953 149
7892 7889 13
7892 7882 16
7892 7920 629
7892 7994 282
7893 7894 473
7893 7764 68
7894 7893 473
7894 7945 148
7895 7891 134
7895 7800 202
7895 7875 590
7895 7955 148
7896 7897 11
7896 7898 11
7896 7907 13
7897 7896 11
7897 7899 68
7897 7902 3
7898 7896 11
7899 7897 68
7899 7901 6
7899 7913 30
7900 7795 280
7900 7831 226
7900 8015 533
7901 7899 6
7901 7903 15
7901 7903 13
7902 7897 3
7902 7908 10
7903 7901 15
7903 7901 13
7903 7910 24
7904 7813 347
7904 7722 400
7904 8206 1372
7905 7906 358
7905 7963 282
7905 13527 283
7906 7905 358
7906 8134 1204
7906 7631 327
7907 7896 13
7907 7908 11
7907 7911 32
7908 7902 10
7908 7907 11
7908 7914 15
7909 7846 102
7909 7853 175
7909 7957 289
7910 7903 24
7911 7907 32
7911 7869 66
7911 7958 164
7912 7788 250
7912 7789 247
7912 7916 445
7912 7918 166
7913 7899 30
7913 7931 124
7913 7931 61
7914 7908 15
7915 7778 302
7915 8101 680
7915 8106 700
7916 7858 89
7916 7912 445
7916 7919 401
7917 7855 216
7917 7922 14
7917 8004 616
7918 7912 166
7918 7697 604
7918 7948 323
7919 7791 625
7919 7916 401
7919 7920 403
7920 7792 247
7920 7791 249
7920 7919 403
7920 7882 620
7920 7892 629
7921 7872 85
7921 8009 430
7921 8033 606
7922 7861 217
7922 7917 14
7922 7992 508
7923 7616 1287
7923 7881 192
7923 7981 186
7924 7925 191
7924 7835 252
7925 7924 191
7925 7963 388
7925 7980 378
7926 7927 127
7927 7926 127
7927 7928 61
7927 7951 94
7928 7927 61
7929 7930 190
7929 7983 377
7929 8001 384
7930 7929 190
7930 7839 257
7931 7913 124
7931 7913 61
7931 7936 11
7932 7933 142
7932 7934 164
7932 7974 182
7933 7932 142
7933 7844 74
7934 7935 455
7934 7939 14
7934 7932 164
7935 7934 455
7935 7740 19
7936 7931 11
7936 7937 7
7936 7949 97
7937 7936 7
7937 13519 27
7937 13519 20
7937 13520 24
7938 7782 321
7938 7939 28
7938 8035 314
7939 7934 14
7939 7938 28
7939 8023 396
7940 7941 5
7941 7940 5
7942 7798 313
7942 13521 16
7943 7872 400
7943 7827 254
7943 7991 388
7944 7279 2372
7945 7946 104
7945 7894 148
7946 7945 104
7946 7982 223
7946 8031 318
7947 7874 567
7947 7817 384
7947 8047 359
7948 7918 323
7948 8179 1943
7949 7936 97
7949 7950 99
7949 7984 106
7950 7949 99
7951 7927 94
7951 7952 40
7951 7989 124
7952 7951 40
7953 7891 149
7953 7955 133
7953 7993 762
7954 7847 407
7954 7956 68
7954 7976 60
7955 7953 133
7955 7895 148
7955 8037 612
7956 7877 289
7956 7954 68
7956 7973 57
7957 7909 289
7958 7911 164
7958 7961 35
7958 7964 32
7959 7960 237
7959 7966 102
7959 7979 97
7960 7959 237
7960 7887 140
7961 7958 35
7961 7962 5
7961 7964 9
7962 7961 5
7962 7975 31
7963 7925 388
7963 7905 282
7964 7958 32
7964 7961 9
7964 7971 20
7965 7873 252
7965 7988 43
7965 7997 167
7966 7959 102
7966 13522 301
7967 7968 369
7967 13517 114
7968 7967 369
7968 7995 115
7969 7970 112
7969 7883 282
7969 8012 163
7970 7969 112
7970 13525 41
7971 7972 39
7971 7964 20
7971 7984 163
7972 7971 39
7973 7956 57
7973 7976 45
7973 8053 347
7974 7975 23
7974 7932 182
7974 8023 177
7975 7974 23
7975 7962 31
7976 7954 60
7976 7973 45
7976 8153 928
7977 7978 372
7977 8003 115
7978 7977 372
7978 13518 106
7979 7959 97
7979 13544 323
7980 7925 378
7980 13527 73
7981 7923 186
7981 8004 56
7981 7881 671
7982 7946 223
7982 13535 153
7983 7929 377
7983 13530 71
7984 7949 106
7984 7986 4
7984 7971 163
7985 7873 1561
7985 7987 64
7985 8005 75
7986 7984 4
7986 8020 18
7987 7985 64
7987 7843 400
7987 8005 62
7988 7965 43
7988 7990 10
7988 8010 168
7989 7951 124
7989 7998 35
7989 8008 131
7989 8014 94
7990 7988 10
7991 7943 388
7991 7889 282
7991 7994 12
7991 8041 201
7992 7922 508
7992 8007 110
7992 8130 529
7993 7816 453
7993 7953 762
7993 8068 1098
7993 8248 1454
7994 7991 12
7994 7892 282
7994 8006 215
7994 8058 279
7995 7996 273
7995 7968 115
7996 7995 273
7996 13532 13
7997 7965 167
7997 8010 42
7997 8011 190
7998 7884 332
7998 7989 35
7998 8171 1121
7999 8000 638
7999 7651 1626
7999 8106 2402
8000 7999 638
8001 7929 384
8001 8089 164
8002 8003 265
8003 8002 265
8003 7977 115
8004 7917 616
8004 7981 56
8004 8007 14
8004 8025 234
8005 7985 75
8005 7987 62
8005 8071 293
8006 7994 215
8007 7992 110
8007 8004 14
8007 8029 237
8008 7989 131
8008 8014 34
8008 8026 83
8009 7921 430
8009 8033 102
8009 8041 373
8010 7988 168
8010 7997 42
8010 8016 22
8011 7997 190
8012 7969 163
8013 7753 661
8014 7989 94
8014 8008 34
8014 8032 83
8015 7854 532
8015 7900 533
8015 8072 872
8015 8140 554
8016 8010 22
8017 8018 13
8017 8024 20
8017 8110 492
8018 8017 13
8019 8020 104
8020 8019 104
8020 7986 18
8021 8022 48
8021 13556 74
8022 8021 48
8022 13530 36
8023 7974 177
8023 7939 396
8023 8039 187
8024 8017 20
8025 8004 234
8025 8029 14
8025 8046 252
8026 8008 83
8026 8032 30
8026 8095 295
8027 8028 23
8028 8027 23
8029 8007 237
8029 8025 14
8029 8044 58
8029 8048 248
8030 8031 279
8030 13522 192
8031 8030 279
8031 7946 318
8031 8040 47
8032 8014 83
8032 8026 30
8032 8036 34
8033 7921 606
8033 8009 102
8033 8049 207
8034 7871 558
8035 7938 314
8035 8052 226
8036 8032 34
8037 7955 612
8037 7875 445
8037 8081 305
8037 8100 308
8037 8589 8541
8038 7862 581
8038 7561 1780
8038 8096 228
8039 8023 187
8040 8031 47
8040 8098 42
8041 8009 373
8041 7991 201
8041 8054 72
8042 7412 2032
8042 8043 518
8042 8075 218
8042 8103 205
8043 8042 518
8043 7863 1030
8043 8123 1030
8044 8029 58
8045 7828 1190
8045 8120 920
8045 8144 598
8046 8025 252
8046 8048 13
8046 8105 507
8047 7947 359
8047 8050 428
8047 8099 261
8048 8029 248
8048 8046 13
8048 8107 507
8048 8148 480
8049 8033 207
8050 7890 476
8050 8047 428
8050 8051 27
8050 8135 346
8051 7885 489
8051 8050 27
8051 8052 484
8051 8135 336
8052 8035 226
8052 8051 484
8052 8105 152
8053 7973 347
8053 8150 720
8053 8150 1262
8054 8041 72
8054 8058 13
8054 8240 1145
8055 8056 257
8055 13538 273
8056 8055 257
8056 8057 206
8056 8087 299
8057 8056 206
8057 13526 214
8058 8054 13
8058 7994 279
8058 8064 167
8058 8240 1134
8059 8060 247
8059 8061 256
8059 8094 299
8060 8059 247
8060 13557 157
8061 8059 256
8061 13550 182
8062 7776 832
8062 8063 306
8062 8119 241
8063 7810 690
8063 8062 306
8063 8149 395
8064 8058 167
8065 8066 370
8065 8070 63
8066 8065 370
8066 8113 61
8067 8068 592
8068 8067 592
8068 7993 1098
8068 8082 363
8068 8248 1594
8069 8070 293
8069 8078 125
8070 8069 293
8070 8065 63
8071 8005 293
8071 8072 22
8071 8160 620
8072 8071 22
8072 7854 740
8072 8015 872
8072 8124 243
8073 8074 368
8073 8117 60
8074 8073 368
8074 8079 64
8075 8042 218
8076 7865 592
8076 8082 20
8076 8091 16
8076 8102 429
8077 8078 316
8077 8086 369
8078 8077 316
8078 8069 125
8079 8080 291
8079 8074 64
8080 8079 291
8080 8083 122
8081 8037 305
8081 8163 493
8082 8076 20
8082 7864 603
8082 8068 363
8082 8091 17
8082 8252 1187
8083 8084 316
8083 8080 122
8084 8083 316
8084 8092 375
8085 8086 359
8085 8087 360
8086 8085 359
8086 8077 369
8087 8056 299
8087 8085 360
8088 8089 142
8088 8090 134
8088 8134 247
8089 8088 142
8089 8001 164
8090 8088 134
8090 13556 37
8091 8076 16
8091 8082 17
8091 8104 423
8091 8263 1327
8092 8093 362
8092 8084 375
8093 8092 362
8093 8094 361
8094 8059 299
8094 8093 361
8095 8026 295
8096 8038 228
8096 8153 452
8096 8200 1014
8097 7878 879
8097 8098 161
8097 8325 2306
8098 8097 161
8098 8040 42
8099 8047 261
8099 7779 971
8099 8101 14
8099 8155 465
8100 8037 308
8100 8170 511
8101 8099 14
8101 7915 680
8101 8154 625
8101 8157 464
8102 8076 429
8102 8109 78
8103 8042 205
8103 8121 119
8103 8151 344
8104 8091 423
8104 8112 82
8105 8046 507
8105 8052 152
8105 8107 14
8105 8135 490
8106 7915 700
8106 7999 2402
8107 8048 507
8107 8105 14
8107 8139 488
8108 8109 25
8108 8111 19
8108 8115 475
8109 8108 25
8109 8102 78
8110 8017 492
8110 7883 950
8110 8125 161
8111 8108 19
8111 8112 22
8111 8120 480
8111 8184 538
8112 8111 22
8112 8104 82
8113 8114 498
8113 8066 61
8114 8113 498
8114 8253 241
8115 7825 2100
8115 8108 475
8115 8120 16
8116 8117 498
8116 8257 242
8117 8116 498
8117 8073 60
8118 7861 842
8118 8119 319
8118 8145 164
8119 8062 241
8119 8118 319
8119 8146 164
8120 8045 920
8120 8115 16
8120 8111 480
8120 8173 376
8121 8103 119
8121 8136 80
8121 8141 319
8122 8123 434
8122 8141 52
8123 8122 434
8123 7863 1030
8123 8043 1030
8124 8072 243
8124 8133 60
8124 8142 135
8125 8126 323
8125 8110 161
8125 8208 789
8126 8125 323
8126 13562 110
8127 8128 302
8127 13558 29
8128 8127 302
8128 8129 357
8128 8156 215
8129 8128 357
8129 13557 94
8130 7992 529
8130 8148 379
8130 8181 472
8131 8132 73
8132 8131 73
8132 8133 290
8132 8172 631
8133 8124 60
8133 8132 290
8133 8142 143
8133 8147 180
8134 8088 247
8134 7906 1204
8134 8165 237
8135 8105 490
8135 8051 336
8135 8050 346
8135 8139 15
8135 8155 456
8136 8121 80
8136 8152 137
8136 8190 1165
8136 8264 988
8137 7850 918
8137 8138 292
8137 8485 2567
8138 8137 292
8138 8246 199
8139 8107 488
8139 8135 15
8139 8159 453
8139 8230 716
8140 8015 554
8141 8121 319
8141 8143 112
8141 8122 52
8142 8124 135
8142 8133 143
8142 8162 258
8143 8141 112
8143 8151 81
8143 8152 242
8144 8045 598
8144 8179 626
8144 8226 1502
8145 8118 164
8145 8146 316
8145 8181 783
8146 8119 164
8146 8145 316
8146 8149 439
8147 8133 180
8148 8130 379
8148 8048 480
8148 8228 580
8149 8063 395
8149 8146 439
8149 8199 1268
8150 8053 720
8150 8167 202
8150 8053 1262
8151 8103 344
8151 8143 81
8151 8168 142
8152 8136 137
8152 8143 242
8152 8168 232
8153 7976 928
8153 8096 452
8153 8167 157
8154 8101 625
8155 8135 456
8155 8099 465
8155 8157 34
8155 8159 33
8156 7798 1254
8156 8128 215
8156 8166 68
8157 8155 34
8157 8101 464
8157 8158 7
8158 8157 7
8158 8161 50
8158 8210 646
8159 8139 453
8159 8155 33
8159 8161 11
8160 8071 620
8160 8162 22
8160 8198 540
8161 8159 11
8161 8158 50
8161 8255 771
8162 8160 22
8162 8142 258
8162 8174 112
8162 8202 561
8163 8164 220
8163 8081 493
8164 8163 220
8164 7727 1653
8164 8169 49
8164 8199 273
8165 8134 237
8165 8270 48
8166 8156 68
8166 8267 50
8167 8150 202
8167 8153 157
8168 8151 142
8168 8152 232
8168 8175 62
8169 8170 178
8169 8164 49
8169 8199 267
8170 8169 178
8170 8100 511
8171 7998 1121
8172 8132 631
8173 8120 376
8173 8185 99
8173 8186 113
8174 8162 112
8174 8180 53
8174 8182 60
8175 8168 62
8175 8188 77
8176 8177 93
8176 8178 76
8177 8176 93
8177 8189 121
8177 8191 93
8178 8176 76
8178 8182 59
8178 8193 70
8179 7948 1943
8179 8144 626
8179 8289 1668
8180 8174 53
8180 8183 22
8180 8220 260
8181 8145 783
8181 8130 472
8181 8228 502
8182 8178 59
8182 8174 60
8182 8183 48
8182 8195 71
8183 8182 48
8183 8180 22
8183 8196 71
8184 8111 538
8184 8185 501
8184 8229 319
8185 8173 99
8185 8184 501
8185 8186 117
8185 8242 449
8186 8173 113
8186 8185 117
8186 8226 277
8187 8188 17
8187 8265 942
8187 8272 1005
8188 8187 17
8188 8175 77
8189 8177 121
8189 8191 62
8189 8192 17
8190 8136 1165
8190 8237 444
8190 8243 447
8191 8189 62
8191 8177 93
8191 8194 78
8191 8214 131
8192 8189 17
8192 8201 144
8192 8209 115
8193 8178 70
8193 8194 10
8193 8195 58
8194 8191 78
8194 8193 10
8194 8203 70
8195 8193 58
8195 8182 71
8195 8196 46
8195 8204 80
8196 8195 46
8196 8183 71
8196 8213 149
8197 8198 841
8198 8197 841
8198 8160 540
8198 8202 29
8198 8205 103
8199 8169 267
8199 8164 273
8199 8149 1268
8200 8096 1014
8200 8212 56
8200 8239 572
8201 8192 144
8202 8198 29
8202 8162 561
8202 8216 133
8203 8194 70
8203 8204 58
8203 8217 61
8204 8203 58
8204 8195 80
8204 8207 64
8204 8223 73
8205 8198 103
8205 8216 53
8205 8221 296
8206 7904 1372
8206 8235 1418
8206 8423 1723
8207 8204 64
8207 8211 54
8207 8211 118
8208 8125 789
8209 8192 115
8210 8158 646
8211 8207 54
8211 8213 7
8211 8207 118
8212 8200 56
8212 8260 489
8212 8265 854
8213 8211 7
8213 8196 149
8213 8215 70
8214 8191 131
8215 8213 70
8216 8205 53
8216 8202 133
8216 8222 253
8216 8227 75
8217 8203 61
8218 8219 20
8219 8218 20
8220 8180 260
8220 8231 504
8220 8234 155
8221 8205 296
8221 8244 817
8222 8216 253
8222 8250 816
8223 8204 73
8224 8225 29
8225 8224 29
8226 8186 277
8226 8233 94
8226 8144 1502
8226 8242 380
8227 8216 75
8227 8232 249
8227 8400 1668
8228 8181 502
8228 8148 580
8228 8230 1109
8228 8271 516
8229 8184 319
8229 8261 495
8229 8301 696
8230 8139 716
8230 8228 1109
8230 8241 160
8230 8255 549
8231 8220 504
8232 8227 249
8233 8226 94
8234 8220 155
8235 8236 131
8235 8206 1418
8235 8238 82
8236 8235 131
8237 8190 444
8237 8397 1080
8238 8235 82
8238 8280 801
8238 8423 2014
8239 8200 572
8239 8262 351
8239 8279 465
8240 8054 1145
8240 8058 1134
8240 8245 242
8240 8251 35
8241 8230 160
8242 8226 380
8242 8185 449
8242 8261 236
8242 8292 468
8243 8190 447
8243 8244 158
8243 8249 21
8243 8258 530
8244 8243 158
8244 8221 817
8245 8246 1123
8245 8240 242
8245 8247 40
8246 8245 1123
8246 8138 199
8247 8245 40
8248 8068 1594
8248 7993 1454
8248 8311 1085
8249 8243 21
8249 8250 177
8249 8259 518
8249 8285 437
8250 8249 177
8250 8222 816
8251 8240 35
8252 8082 1187
8252 8278 320
8252 8282 381
8253 8254 1599
8253 8114 241
8254 8253 1599
8254 8331 212
8255 8230 549
8255 8161 771
8255 8493 1925
8256 8257 1596
8256 8336 211
8257 8256 1596
8257 8116 242
8258 8243 530
8258 8259 17
8258 8264 225
8259 8258 17
8259 8249 518
8259 8266 221
8259 8287 291
8260 8212 489
8260 8279 514
8260 8299 423
8261 8242 236
8261 8229 495
8261 8274 187
8262 8239 351
8263 8091 1327
8263 8281 213
8263 8283 242
8264 8136 988
8264 8258 225
8264 8266 15
8264 8272 279
8265 8212 854
8265 8187 942
8265 8284 273
8265 8288 235
8266 8264 15
8266 8259 221
8266 8273 277
8266 8291 236
8267 8268 782
8267 8166 50
8268 8267 782
8268 8392 61
8269 8270 802
8269 8389 64
8270 8269 802
8270 8165 48
8271 8228 516
8272 8187 1005
8272 8264 279
8272 8273 15
8272 8276 256
8273 8272 15
8273 8266 277
8273 8277 257
8273 8304 268
8274 8261 187
8274 8301 604
8274 8306 295
8275 8276 459
8276 8275 459
8276 8272 256
8276 8277 16
8276 8284 409
8277 8276 16
8277 8273 257
8277 8286 389
8277 8321 321
8278 8252 320
8278 8436 376
8279 8239 465
8279 8260 514
8279 8297 270
8279 8345 411
8280 8238 801
8281 8263 213
8281 8459 173
8282 8252 381
8282 8351 48
8283 8263 242
8283 8356 47
8284 8265 273
8284 8276 409
8284 8286 29
8284 8288 293
8285 8249 437
8285 8287 297
8285 8363 472
8286 8284 29
8286 8277 389
8286 8293 343
8286 8329 338
8287 8259 291
8287 8285 297
8287 8291 160
8287 8350 351
8288 8265 235
8288 8284 293
8288 8293 43
8288 8299 163
8289 8179 1668
8289 8290 512
8289 8312 284
8290 8289 512
8291 8266 236
8291 8287 160
8291 8304 260
8291 8348 301
8292 8242 468
8292 8312 131
8292 8338 389
8293 8288 43
8293 8286 343
8293 8303 124
8294 8295 80
8294 8300 31
8294 8307 135
8295 8294 80
8295 8296 156
8295 8298 47
8296 8295 156
8296 8298 113
8296 8305 50
8297 8279 270
8298 8296 113
8298 8295 47
8298 8302 79
8298 8308 50
8299 8260 423
8299 8288 163
8299 8303 22
8299 8341 389
8300 8294 31
8300 8302 14
8300 8309 98
8301 8229 696
8301 8274 604
8301 8316 95
8302 8298 79
8302 8300 14
8302 8310 52
8303 8299 22
8303 8293 124
8303 8342 389
8303 8354 276
8304 8273 268
8304 8291 260
8304 8321 233
8304 8396 471
8305 8296 50
8305 8308 115
8305 8313 50
8306 8274 295
8306 8307 22
8306 8343 193
8307 8294 135
8307 8306 22
8307 8309 34
8307 8319 57
8308 8305 115
8308 8298 50
8308 8310 80
8308 8314 27
8309 8300 98
8309 8307 34
8309 8315 45
8310 8308 80
8310 8302 52
8310 8315 42
8311 8248 1085
8311 8317 48
8312 8289 284
8312 8292 131
8312 8338 231
8312 8362 243
8313 8305 50
8313 8318 117
8313 8323 53
8314 8308 27
8314 8318 22
8314 8320 123
8315 8310 42
8315 8309 45
8315 8320 25
8316 8301 95
8316 8317 26
8316 8324 101
8317 8316 26
8317 8311 48
8318 8313 117
8318 8314 22
8318 8322 24
8319 8307 57
8319 8326 48
8319 8328 121
8320 8314 123
8320 8315 25
8320 8328 48
8321 8277 321
8321 8304 233
8321 8329 243
8321 8375 317
8322 8318 24
8322 8327 27
8322 8328 124
8323 8313 53
8323 8327 122
8323 8333 49
8324 8316 101
8324 8343 284
8324 8368 259
8325 8097 2306
8325 8358 626
8325 8420 650
8326 8319 48
8326 8337 114
8326 8346 168
8327 8323 122
8327 8322 27
8327 8334 23
8328 8322 124
8328 8320 48
8328 8319 121
8328 8337 48
8328 8340 50
8329 8286 338
8329 8321 243
8329 8330 138
8329 8375 423
8330 8329 138
8330 8354 420
8330 8467 808
8331 8332 934
8331 8254 212
8332 8331 934
8332 8376 84
8333 8323 49
8333 8339 126
8333 8347 175
8334 8327 23
8334 8339 27
8334 8340 125
8335 8336 933
8335 8380 85
8336 8335 933
8336 8256 211
8337 8328 48
8337 8326 114
8337 8346 47
8338 8312 231
8338 8292 389
8338 8349 155
8339 8333 126
8339 8334 27
8339 8344 23
8340 8334 125
8340 8328 50
8340 8344 171
8341 8299 389
8341 8358 139
8342 8303 389
8342 8359 136
8343 8306 193
8343 8324 284
8343 8353 138
8343 8387 253
8344 8339 23
8344 8347 24
8344 8340 171
8345 8279 411
8346 8337 47
8346 8326 168
8346 8353 31
8347 8333 175
8347 8344 24
8347 8357 28
8348 8291 301
8348 8350 95
8348 8381 187
8349 8338 155
8349 8357 100
8349 8369 122
8350 8348 95
8350 8287 351
8350 8363 131
8350 8383 183
8351 8352 415
8351 8282 48
8352 8351 415
8352 8382 227
8353 8346 31
8353 8343 138
8353 8357 198
8354 8303 276
8354 8330 420
8354 8384 567
8354 8424 442
8355 8356 419
8355 8370 128
8356 8355 419
8356 8283 47
8357 8349 100
8357 8347 28
8357 8353 198
8358 8341 139
8358 8366 116
8358 8325 626
8359 8342 136
8359 8367 118
8359 8419 516
8360 8361 1365
8361 8360 1365
8362 8312 243
8362 8398 352
8362 8582 7862
8363 8350 131
8363 8285 472
8363 8371 129
8363 8395 178
8364 8365 1421
8364 8405 269
8364 8407 313
8365 8364 1421
8366 8358 116
8366 13564 322
8367 8359 118
8367 13563 309
8368 8324 259
8368 8387 280
8368 8406 244
8369 8349 122
8369 8387 592
8369 8398 129
8370 8355 128
8370 8378 55
8370 8386 94
8371 8363 129
8372 8373 73
8372 8374 72
8372 8391 158
8373 8372 73
8373 8385 205
8373 8391 105
8374 8372 72
8375 8329 423
8375 8321 317
8375 8396 162
8376 8377 392
8376 8332 84
8377 8376 392
8377 8468 421
8378 8370 55
8378 13565 318
8379 8380 394
8379 8478 420
8380 8379 394
8380 8335 85
8381 8348 187
8381 8383 67
8381 8408 171
8382 8352 227
8382 8403 27
8383 8381 67
8383 8350 183
8383 8395 83
8384 8354 567
8384 8449 497
8385 8373 205
8385 8394 49
8385 8399 64
8386 8370 94
8386 8444 27
8387 8343 253
8387 8368 280
8387 8369 592
8387 8416 231
8388 8389 661
8388 8434 230
8389 8388 661
8389 8269 64
8390 7848 2718
8390 8417 218
8390 8435 382
8391 8373 105
8391 8372 158
8391 8401 124
8392 8393 699
8392 8268 61
8393 8392 699
8393 8438 229
8394 8385 49
8394 8402 20
8395 8383 83
8395 8363 178
8395 8415 207
8396 8375 162
8396 8304 471
8396 8408 208
8396 8463 541
8397 8237 1080
8397 8400 40
8397 8455 567
8398 8362 352
8398 8369 129
8398 8410 142
8398 8416 761
8399 8385 64
8399 8414 26
8400 8397 40
8400 8227 1668
8400 8453 400
8401 8402 69
8401 8391 124
8401 8428 332
8402 8401 69
8402 8394 20
8403 8404 129
8403 8382 27
8404 8403 129
8404 8418 407
8404 8442 413
8405 8364 269
8406 8368 244
8406 8416 279
8406 8448 321
8407 8364 313
8408 8396 208
8408 8381 171
8408 8409 26
8409 8408 26
8409 8415 77
8409 8431 110
8410 8398 142
8411 8412 34
8412 8411 34
8413 8414 140
8413 8427 22
8414 8413 140
8414 8399 26
8415 8409 77
8415 8395 207
8415 8431 59
8415 8450 433
8416 8387 231
8416 8406 279
8416 8398 761
8417 8390 218
8417 8485 560
8417 8531 1881
8418 8404 407
8418 8429 584
8419 8359 516
8420 8325 650
8421 8422 47
8422 8421 47
8423 8206 1723
8423 8238 2014
8423 8573 3198
8424 8354 442
8424 8449 483
8424 8473 293
8425 8426 201
8425 8469 263
8426 8425 201
8426 13565 70
8427 8428 67
8427 8413 22
8428 8427 67
8428 8401 332
8428 8432 20
8429 8430 201
8429 8418 584
8429 8447 365
8430 8429 201
8430 8477 260
8431 8409 110
8431 8415 59
8431 8445 146
8432 8428 20
8433 8434 156
8433 8487 61
8434 8433 156
8434 8388 230
8435 8390 382
8435 8511 1957
8435 8534 1897
8436 8437 779
8436 8278 376
8437 8436 779
8437 8454 138
8437 8587 3326
8438 8439 147
8438 8393 229
8439 8438 147
8439 8489 67
8440 8441 339
8440 13565 522
8441 8440 339
8441 8472 100
8442 8404 413
8442 8470 38
8443 8444 541
8443 8466 43
8444 8443 541
8444 8386 27
8445 8431 146
8445 8460 96
8445 8461 94
8446 8447 391
8446 8465 42
8447 8446 391
8447 8429 365
8448 8406 321
8449 8384 497
8449 8424 483
8450 8415 433
8450 8456 123
8450 8457 25
8451 8452 294
8451 8453 262
8451 8494 519
8452 8451 294
8453 8400 400
8453 8451 262
8453 8455 304
8453 8504 616
8454 8437 138
8454 8585 86
8455 8397 567
8455 8453 304
8455 8456 39
8456 8450 123
8456 8455 39
8456 8481 127
8457 8450 25
8457 8460 295
8457 8481 113
8458 8459 1113
8459 8458 1113
8459 8281 173
8460 8445 96
8460 8457 295
8460 8461 95
8461 8445 94
8461 8460 95
8461 8462 232
8461 8500 544
8462 8461 232
8462 8463 179
8462 8501 545
8463 8396 541
8463 8462 179
8463 8467 314
8463 8502 544
8464 8465 106
8464 8466 98
8464 8492 611
8465 8464 106
8465 8446 42
8466 8464 98
8466 8443 43
8467 8330 808
8467 8463 314
8467 8473 385
8468 8469 1315
8468 8377 421
8469 8468 1315
8469 8425 263
8470 8471 130
8470 8442 38
8471 8470 130
8471 8472 105
8471 8491 570
8472 8471 105
8472 8441 100
8473 8424 293
8473 8467 385
8473 8476 211
8473 8503 581
8474 8475 146
8474 8476 48
8475 8474 146
8475 13566 390
8476 8473 211
8476 8474 48
8477 8478 1326
8477 8430 260
8478 8477 1326
8478 8379 420
8479 8480 150
8480 8479 150
8480 8495 46
8481 8457 113
8481 8456 127
8481 8499 435
8482 8483 69
8482 8484 88
8482 8498 53
8483 8482 69
8484 8482 88
8485 8417 560
8485 8137 2567
8485 8488 63
8486 8487 387
8486 8527 282
8487 8486 387
8487 8433 61
8488 8485 63
8488 8532 31
8489 8490 414
8489 8439 67
8490 8489 414
8490 8525 239
8491 8471 570
8491 8505 104
8492 8464 611
8492 8508 106
8493 8255 1925
8493 8552 1993
8493 8589 4162
8494 8451 519
8495 8496 391
8495 8480 46
8496 8495 391
8496 8561 121
8497 8498 387
8497 8564 120
8498 8497 387
8498 8482 53
8499 8481 435
8499 8500 417
8499 8504 384
8499 8524 553
8500 8461 544
8500 8499 417
8500 8501 252
8500 8514 244
8501 8462 545
8501 8500 252
8501 8502 174
8501 8516 240
8502 8463 544
8502 8501 174
8502 8503 492
8502 8517 239
8503 8473 581
8503 8502 492
8503 8518 234
8504 8499 384
8504 8453 616
8504 8539 894
8504 8543 1981
8505 8506 467
8505 8491 104
8506 8505 467
8506 8509 21
8507 8508 464
8507 8513 22
8508 8507 464
8508 8492 106
8509 8510 155
8509 8506 21
8510 8509 155
8510 8535 19
8511 8435 1957
8511 8519 175
8511 8534 1019
8512 8513 144
8512 8538 21
8513 8512 144
8513 8507 22
8514 8500 244
8514 8515 239
8514 8516 256
8514 8523 215
8515 8514 239
8516 8501 240
8516 8514 256
8516 8517 172
8516 8522 206
8517 8502 239
8517 8516 172
8517 8521 202
8518 8503 234
8518 8520 19
8518 8521 538
8519 8511 175
8520 8518 19
8520 8546 102
8521 8517 202
8521 8518 538
8521 8522 193
8521 8530 208
8522 8521 193
8522 8516 206
8522 8523 260
8523 8522 260
8523 8514 215
8523 8529 414
8524 8499 553
8524 8529 61
8525 8526 551
8525 8490 239
8526 8525 551
8526 8571 578
8527 8528 575
8527 8486 282
8528 8527 575
8528 8568 594
8529 8523 414
8529 8524 61
8529 8533 428
8529 8540 372
8530 8521 208
8530 8541 72
8531 8417 1881
8531 8532 1213
8531 8582 1369
8532 8531 1213
8532 8488 31
8533 8529 428
8533 8544 319
8534 8511 1019
8534 8435 1897
8534 8576 1073
8535 8536 998
8535 8510 19
8536 8535 998
8536 8555 40
8537 8538 998
8537 8558 40
8538 8537 998
8538 8512 21
8539 8504 894
8539 8553 673
8540 8529 372
8540 8547 92
8541 8542 234
8541 8530 72
8542 8541 234
8543 8544 1408
8543 8504 1981
8543 8570 1864
8544 8543 1408
8544 8533 319
8545 8546 747
8545 8554 637
8545 8562 798
8546 8545 747
8546 8520 102
8547 8548 106
8547 8540 92
8548 8547 106
8548 8549 10
8548 8550 491
8549 8548 10
8549 8551 491
8549 8588 1390
8550 8548 491
8550 13567 1887
8551 8549 491
8551 13570 1916
8552 8493 1993
8553 8539 673
8553 8591 62
8554 8545 637
8554 8584 243
8555 8556 936
8555 8536 40
8556 8555 936
8556 8593 51
8557 8558 942
8557 8596 58
8558 8557 942
8558 8537 40
8559 8560 3113
8559 8764 4856
8559 8843 6779
8560 8559 3113
8561 8562 1591
8561 8496 121
8562 8561 1591
8562 8545 798
8562 8563 22
8562 8858 7579
8563 8564 1597
8563 8562 22
8563 8569 76
8563 8786 5494
8564 8563 1597
8564 8497 120
8565 8566 65
8566 8565 65
8567 8568 579
8567 8627 48
8568 8567 579
8568 8528 594
8569 8563 76
8569 8575 140
8569 8612 1416
8570 8543 1864
8570 8574 60
8571 8572 625
8571 8526 578
8572 8571 625
8572 8628 42
8573 8574 400
8573 8423 3198
8573 8581 1265
8574 8573 400
8574 8570 60
8575 8569 140
8576 8534 1073
8576 8600 1537
8576 8634 2127
8577 8578 399
8578 8577 399
8579 8580 959
8580 8579 959
8581 8573 1265
8581 8607 80
8582 8531 1369
8582 8362 7862
8582 8634 1667
8583 8584 583
8583 8601 991
8583 8639 1695
8584 8583 583
8584 8554 243
8585 8586 2895
8585 8454 86
8586 8585 2895
8586 8587 277
8586 8679 3322
8586 8687 1905
8587 8586 277
8587 8437 3326
8587 8633 4363
8587 8687 1775
8588 8549 1390
8588 8592 228
8588 8601 628
8589 8037 8541
8589 8493 4162
8589 8633 975
8589 8764 7074
8590 8591 1118
8590 8599 307
8590 8601 951
8591 8590 1118
8591 8553 62
8592 8588 228
8592 13571 63
8593 8594 1081
8593 8556 51
8594 8593 1081
8594 8602 46
8595 8596 1067
8595 8605 49
8596 8595 1067
8596 8557 58
8597 8598 100
8597 13571 161
8598 8597 100
8598 8616 348
8598 8617 567
8599 8590 307
8599 8705 595
8600 8576 1537
8600 8647 1629
8600 8693 1510
8601 8583 991
8601 8588 628
8601 8590 951
8601 8613 390
8601 8677 1457
8602 8603 314
8602 8594 46
8603 8602 314
8603 8620 97
8604 8605 309
8604 8623 98
8605 8604 309
8605 8595 49
8606 8607 1059
8606 8608 2792
8606 8647 760
8607 8606 1059
8607 8581 80
8608 8606 2792
8609 8610 363
8609 8611 61
8609 8630 259
8610 8609 363
8611 8609 61
8611 8612 1085
8611 8635 785
8612 8569 1416
8612 8611 1085
8612 8688 1371
8613 8601 390
8613 8618 289
8613 8640 553
8614 8615 432
8614 8618 371
8614 8624 63
8615 8614 432
8615 13571 156
8616 8598 348
8616 8619 348
8616 8625 62
8617 8598 567
8617 8619 301
8617 8641 542
8617 8652 3088
8618 8613 289
8618 8614 371
8618 8624 349
8618 8619 126
8619 8616 348
8619 8617 301
8619 8625 351
8619 8618 126
8620 8621 224
8620 8603 97
8621 8620 224
8621 8631 84
8622 8623 223
8622 8638 87
8623 8622 223
8623 8604 98
8624 8614 63
8624 8618 349
8624 8640 323
8625 8616 62
8625 8619 351
8625 8641 323
8626 8627 1545
8626 8692 83
8627 8626 1545
8627 8567 48
8628 8629 1535
8628 8572 42
8629 8628 1535
8629 8653 83
8630 8609 259
8631 8632 40
8631 8621 84
8632 8631 40
8632 8648 417
8632 8651 535
8633 8587 4363
8633 8589 975
8633 8670 484
8633 8689 1430
8634 8576 2127
8634 8582 1667
8634 8711 974
8635 8636 132
8635 8611 785
8635 8682 1387
8636 8635 132
8637 8638 258
8637 8673 487
8637 8684 616
8638 8637 258
8638 8622 87
8639 8583 1695
8639 8646 43
8640 8613 553
8640 8624 323
8640 8642 72
8641 8625 323
8641 8617 542
8641 8643 72
8642 8640 72
8642 8643 35
8642 8676 379
8643 8642 35
8643 8641 72
8643 8675 375
8644 8645 574
8645 8644 574
8645 8646 79
8645 8678 480
8646 8645 79
8646 8639 43
8647 8606 760
8647 8600 1629
8647 8649 23
8648 8632 417
8648 8650 406
8648 8685 426
8649 8647 23
8649 8665 66
8650 8648 406
8650 8674 108
8651 8632 535
8651 8671 110
8652 8617 3088
8652 8669 29
8653 8654 525
8653 8629 83
8654 8653 525
8654 8690 445
8654 8695 557
8655 8656 238
8655 8664 33
8656 8655 238
8656 8657 206
8657 8658 173
8657 8662 352
8657 8656 206
8658 8657 173
8658 8659 42
8658 8782 2760
8659 8658 42
8659 8660 35
8660 8661 104
8660 8659 35
8661 8660 104
8662 8657 352
8662 8666 351
8663 8664 124
8663 8665 130
8663 8713 1156
8664 8663 124
8664 8655 33
8665 8663 130
8665 8649 66
8666 8667 436
8666 8662 351
8667 8666 436
8667 8668 32
8668 8669 440
8668 8667 32
8669 8668 440
8669 8652 29
8670 8633 484
8670 8712 1459
8670 8769 2238
8670 8839 7197
8671 8672 201
8671 8651 110
8672 8671 201
8672 8684 413
8672 8698 258
8673 8637 487
8673 8674 253
8673 8698 213
8674 8673 253
8674 8650 108
8675 8643 375
8675 8676 33
8675 8709 293
8676 8642 379
8676 8675 33
8676 8710 290
8677 8601 1457
8677 8681 188
8677 8707 1218
8678 8645 480
8678 8680 161
8678 8683 168
8679 8586 3322
8679 8687 1245
8679 8767 1642
8680 8678 161
8680 8681 49
8681 8677 188
8681 8680 49
8682 8635 1387
8682 8694 118
8682 8886 4255
8683 8678 168
8683 8688 263
8684 8672 413
8684 8637 616
8684 8686 9
8685 8648 426
8685 8738 65
8686 8684 9
8686 8742 64
8687 8679 1245
8687 8586 1905
8687 8587 1775
8687 8712 2646
8687 8769 4047
8688 8612 1371
8688 8683 263
8688 8747 1116
8689 8633 1430
8690 8654 445
8690 8725 377
8691 8692 978
8691 8703 407
8691 8730 377
8692 8691 978
8692 8626 83
8693 8600 1510
8693 8714 52
8694 8682 118
8695 8654 557
8695 8696 70
8695 8702 509
8696 8695 70
8696 8697 83
8697 8696 83
8697 8699 83
8697 8701 109
8698 8673 213
8698 8672 258
8698 8712 123
8699 8700 69
8699 8697 83
8700 8699 69
8700 8703 505
8700 8706 293
8701 8697 109
8701 8716 142
8702 8695 509
8702 8729 216
8703 8700 505
8703 8691 407
8704 8705 1074
8704 8709 1122
8704 8819 2934
8705 8704 1074
8705 8599 595
8706 8700 293
8706 8727 238
8707 8708 552
8707 8677 1218
8707 8710 238
8708 8707 552
8709 8675 293
8709 8704 1122
8709 8710 33
8709 8719 222
8710 8676 290
8710 8709 33
8710 8707 238
8710 8720 223
8711 8634 974
8711 8717 31
8712 8698 123
8712 8670 1459
8712 8687 2646
8713 8663 1156
8713 8714 130
8713 8715 1216
8713 8743 630
8714 8713 130
8714 8693 52
8715 8713 1216
8715 8716 109
8715 8721 203
8716 8715 109
8716 8701 142
8717 8718 157
8717 8711 31
8718 8717 157
8718 8721 29
8719 8709 222
8720 8710 223
8721 8715 203
8721 8718 29
8721 8722 70
8721 8740 1122
8722 8721 70
8722 8783 1443
8723 8724 516
8723 8744 662
8723 8744 978
8724 8723 516
8725 8726 183
8725 8690 377
8726 8725 183
8726 8727 186
8726 8754 838
8727 8726 186
8727 8706 238
8728 8729 306
8728 8730 322
8728 8751 686
8729 8728 306
8729 8702 216
8730 8728 322
8730 8691 377
8731 8732 271
8731 8736 148
8731 8757 599
8732 8731 271
8733 8734 760
8733 8752 772
8733 8781 1074
8734 8733 760
8734 8737 697
8734 8778 1445
8735 8736 1125
8736 8735 1125
8736 8731 148
8736 8771 1255
8737 8734 697
8737 8740 899
8737 8797 1857
8738 8739 1021
8738 8685 65
8739 8738 1021
8739 8791 82
8740 8721 1122
8740 8737 899
8740 8748 364
8741 8742 1022
8741 8790 82
8742 8741 1022
8742 8686 64
8743 8713 630
8743 8799 68
8744 8723 662
8744 8723 978
8744 8771 812
8745 8746 393
8745 8746 195
8745 8759 300
8746 8745 393
8746 8745 195
8747 8688 1116
8748 8740 364
8748 8762 1069
8748 8783 1412
8748 8797 935
8749 8750 16
8749 8755 13
8749 8756 97
8750 8749 16
8750 8753 16
8750 8756 193
8751 8728 686
8751 8796 104
8752 8733 772
8752 8770 842
8752 8842 1739
8753 8750 16
8753 8755 13
8753 8757 124
8754 8726 838
8754 8793 105
8755 8749 13
8755 8753 13
8755 8758 92
8756 8749 97
8756 8750 193
8756 8763 233
8757 8731 599
8757 8753 124
8757 8798 968
8758 8755 92
8759 8745 300
8759 8812 1308
8760 8761 280
8760 8774 1493
8760 8813 1592
8761 8760 280
8762 8748 1069
8762 8777 38
8763 8756 233
8763 8768 188
8763 8768 166
8764 8589 7074
8764 8559 4856
8764 8839 1530
8765 8766 1609
8766 8765 1609
8767 8679 1642
8767 8772 335
8767 8787 377
8768 8763 188
8768 8763 166
8769 8687 4047
8769 8670 2238
8769 8773 1606
8769 8859 4166
8770 8752 842
8770 8784 511
8770 8844 1580
8771 8744 812
8771 8736 1255
8771 8785 275
8772 8767 335
8772 8788 360
8772 8846 3609
8773 8769 1606
8773 8863 94
8774 8760 1493
8774 8775 99
8774 8780 112
8775 8774 99
8775 8776 189
8775 8805 725
8776 8775 189
8777 8778 582
8777 8762 38
8778 8777 582
8778 8734 1445
8778 8781 898
8778 8874 3698
8779 8780 541
8780 8779 541
8780 8774 112
8780 8805 435
8781 8733 1074
8781 8778 898
8781 8828 889
8782 8658 2760
8782 8827 101
8783 8722 1443
8783 8748 1412
8783 8800 726
8784 8770 511
8784 8829 1134
8784 8829 2286
8785 8771 275
8785 8798 1649
8785 8822 1416
8786 8563 5494
8786 8861 482
8787 8767 377
8787 8788 182
8787 8836 912
8788 8772 360
8788 8787 182
8788 8899 2987
8789 8790 1682
8789 8804 135
8790 8789 1682
8790 8741 82
8791 8792 1696
8791 8739 82
8792 8791 1696
8792 8801 132
8793 8794 900
8793 8754 105
8794 8793 900
8794 8832 66
8795 8796 911
8795 8831 63
8796 8795 911
8796 8751 104
8797 8748 935
8797 8737 1857
8797 8874 1865
8798 8785 1649
8798 8757 968
8798 8809 276
8799 8800 1493
8799 8743 68
8800 8799 1493
8800 8783 726
8800 8825 1128
8800 8884 1843
8801 8802 25
8801 8792 132
8802 8801 25
8802 8995 27
8803 8804 33
8803 8998 32
8804 8803 33
8804 8789 135
8805 8780 435
8805 8806 48
8805 8775 725
8806 8805 48
8806 8810 188
8806 8811 136
8807 8808 1393
8807 8815 446
8807 8857 1114
8808 8807 1393
8808 8817 1481
8809 8798 276
8809 8821 1023
8809 8908 2348
8810 8806 188
8810 8811 165
8810 8814 235
8811 8810 165
8811 8806 136
8811 8818 219
8811 8850 731
8812 8759 1308
8812 8820 481
8812 8824 209
8813 8760 1592
8813 8816 142
8813 8818 746
8814 8810 235
8815 8807 446
8815 8826 88
8816 8813 142
8817 8808 1481
8817 8819 34
8818 8811 219
8818 8813 746
8818 8837 333
8819 8704 2934
8819 8817 34
8819 8923 2554
8819 9001 4076
8820 8812 481
8821 8809 1023
8822 8785 1416
8822 8823 87
8822 8838 335
8823 8822 87
8823 8824 68
8823 8841 343
8824 8812 209
8824 8823 68
8824 8855 1107
8825 8826 497
8825 8827 847
8825 8800 1128
8826 8825 497
8826 8815 88
8827 8825 847
8827 8782 101
8828 8781 889
8828 8842 652
8828 8862 822
8828 8897 2287
8829 8784 1134
8829 8784 2286
8829 8846 345
8830 8831 634
8830 13576 61
8831 8830 634
8831 8795 63
8832 8833 637
8832 8794 66
8833 8832 637
8833 8868 65
8834 8835 1877
8835 8834 1877
8836 8787 912
8836 8882 1350
8836 8922 2184
8837 8818 333
8837 8847 781
8837 8851 504
8838 8822 335
8838 8840 172
8838 8908 2942
8839 8670 7197
8839 8764 1530
8839 8864 662
8840 8838 172
8840 8841 62
8840 8845 103
8841 8823 343
8841 8840 62
8841 8845 72
8842 8828 652
8842 8752 1739
8842 8844 16
8843 8559 6779
8844 8842 16
8844 8770 1580
8844 8862 839
8845 8841 72
8845 8840 103
8845 8855 648
8846 8829 345
8846 8772 3609
8846 8899 1999
8847 8837 781
8848 8849 935
8849 8848 935
8850 8811 731
8850 8851 71
8850 8852 191
8851 8850 71
8851 8837 504
8851 8853 186
8852 8850 191
8852 8853 32
8852 8885 681
8853 8852 32
8853 8851 186
8853 8854 11
8854 8853 11
8855 8824 1107
8855 8856 366
8855 8845 648
8856 8855 366
8857 8807 1114
8857 8867 286
8857 8915 1614
8858 8562 7579
8858 9152 48
8859 8769 4166
8859 8883 141
8860 8861 1409
8860 9244 48
8861 8860 1409
8861 8786 482
8862 8828 822
8862 8844 839
8862 8897 1322
8863 8864 5193
8863 8773 94
8864 8863 5193
8864 8839 662
8864 9015 2395
8865 8866 714
8866 8865 714
8866 8876 359
8867 8857 286
8867 8868 743
8867 13578 743
8867 8869 42
8867 8954 2080
8868 8867 743
8868 13578 743
8868 8833 65
8869 8867 42
8869 8870 23
8869 8871 84
8869 8871 84
8870 8869 23
8870 13578 43
8871 8869 84
8871 8869 84
8871 8872 43
8871 8872 43
8872 8871 43
8872 8871 43
8872 8873 65
8872 8873 65
8873 8872 65
8873 8872 65
8873 8875 56
8873 8875 56
8874 8797 1865
8874 8881 614
8874 8778 3698
8875 8873 56
8875 8873 56
8875 8879 119
8875 8879 119
8876 8866 359
8877 8878 14
8878 8877 14
8879 8875 119
8879 8875 119
8879 8880 3
8879 8880 3
8880 8879 3
8880 8879 3
8880 8891 516
8880 8891 516
8881 8874 614
8881 8884 205
8881 8890 293
8882 8836 1350
8882 8883 1001
8882 8904 1237
8882 8930 1144
8883 8882 1001
8883 8859 141
8884 8800 1843
8884 8881 205
8884 8928 1189
8885 8852 681
8885 8887 30
8885 8896 336
8886 8682 4255
8886 8888 3319
8886 9042 3729
8887 8885 30
8887 8941 1083
8887 8941 1079
8888 8889 689
8888 8886 3319
8888 8951 3772
8889 8888 689
8890 8881 293
8890 8911 2274
8890 8961 1243
8891 8880 516
8891 8880 516
8891 8892 19
8891 8892 19
8892 8891 19
8892 8891 19
8892 8895 21
8892 8901 213
8893 8894 956
8893 8913 38
8894 8893 956
8894 13577 41
8895 8892 21
8895 8900 32
8896 8885 336
8896 8898 197
8896 8907 408
8897 8828 2287
8897 8862 1322
8897 8911 618
8898 8896 197
8898 8905 340
8898 8907 201
8899 8846 1999
8899 8788 2987
8899 8904 520
8899 8980 1775
8900 8901 160
8900 8895 32
8901 8900 160
8901 8892 213
8901 8902 22
8901 8902 22
8902 8901 22
8902 8901 22
8902 8903 52
8902 8903 52
8903 8902 52
8903 8902 52
8903 8910 61
8903 8910 61
8904 8882 1237
8904 8899 520
8904 8906 350
8904 8916 224
8905 8898 340
8905 8909 101
8905 8921 415
8906 8904 350
8906 8918 42
8907 8898 201
8907 8896 408
8907 8921 298
8908 8809 2348
8908 8838 2942
8908 8909 1030
8909 8905 101
8909 8908 1030
8909 8966 662
8910 8903 61
8910 8903 61
8910 8914 50
8910 8920 248
8911 8890 2274
8911 8897 618
8911 9079 2668
8912 8913 337
8912 8937 38
8913 8912 337
8913 8893 38
8914 8910 50
8914 8919 38
8915 8857 1614
8915 8923 742
8916 8904 224
8916 8981 117
8917 8918 643
8917 8931 93
8918 8917 643
8918 8906 42
8919 8920 161
8919 8914 38
8920 8919 161
8920 8910 248
8920 8940 276
8920 8946 341
8921 8905 415
8921 8907 298
8921 8973 618
8922 8836 2184
8922 8925 1952
8922 9089 2558
8923 8819 2554
8923 8915 742
8923 8965 372
8923 8974 1006
8924 8925 899
8925 8924 899
8925 8922 1952
8926 8927 29
8927 8926 29
8928 8884 1189
8928 8929 28
8928 8954 327
8929 8928 28
8929 8962 77
8930 8931 272
8930 8882 1144
8930 9024 1214
8931 8930 272
8931 8917 93
8932 8933 31
8933 8932 31
8934 8935 33
8935 8934 33
8936 8937 421
8936 9020 445
8937 8936 421
8937 8912 38
8938 8939 35
8939 8938 35
8940 8920 276
8940 13579 450
8941 8887 1083
8941 8887 1079
8941 8984 474
8942 8943 37
8943 8942 37
8944 8945 30
8945 8944 30
8945 8950 36
8946 8947 132
8946 8920 341
8946 8954 2176
8946 9021 878
8947 8946 132
8947 8965 669
8948 8949 38
8949 8948 38
8950 8945 36
8950 8953 35
8951 8952 1033
8951 8888 3772
8951 9016 835
8951 9081 2993
8952 8951 1033
8953 8950 35
8953 8957 61
8953 8977 301
8954 8867 2080
8954 8928 327
8954 8946 2176
8955 8956 91
8955 8958 15
8956 8955 91
8957 8953 61
8958 8955 15
8958 8959 17
8958 8964 36
8959 8958 17
8959 8960 22
8959 8963 22
8960 8959 22
8960 8963 19
8960 8970 69
8961 8962 217
8961 8890 1243
8961 9146 4355
8962 8961 217
8962 8929 77
8963 8960 19
8963 8959 22
8963 8964 25
8963 8967 25
8964 8958 36
8964 8963 25
8964 8969 24
8965 8923 372
8965 8947 669
8965 8974 921
8965 9005 520
8966 8909 662
8966 8972 311
8966 8983 349
8967 8963 25
8967 8968 17
8967 8969 33
8967 8971 24
8968 8967 17
8969 8967 33
8969 8964 24
8969 8976 125
8970 8960 69
8971 8967 24
8972 8966 311
8972 8973 494
8972 8985 257
8973 8972 494
8973 8921 618
8973 8975 47
8974 8923 1006
8974 8965 921
8974 9007 1324
8975 8973 47
8975 8986 215
8975 8988 249
8976 8969 125
8976 8979 690
8976 8987 243
8976 8994 490
8977 8953 301
8977 8978 30
8977 8994 252
8978 8977 30
8979 8976 690
8980 8899 1775
8980 8981 1807
8980 9059 2702
8981 8980 1807
8981 8916 117
8982 8983 435
8983 8982 435
8983 8966 349
8983 9006 877
8984 8941 474
8984 8990 348
8984 9049 1950
8985 8972 257
8986 8975 215
8986 8991 155
8986 9006 146
8987 8976 243
8988 8975 249
8988 8989 89
8988 8990 9
8989 8988 89
8990 8988 9
8990 8991 11
8990 8984 348
8991 8986 155
8991 8990 11
8991 9032 728
8992 8993 605
8993 8992 605
8994 8976 490
8994 8977 252
8994 9010 335
8995 8996 3789
8995 8802 27
8996 8995 3789
8996 9355 44
8997 8998 3784
8997 9359 43
8998 8997 3784
8998 8803 32
8999 9000 33
9000 8999 33
9001 8819 4076
9001 9002 1164
9001 9048 3410
9001 9082 1350
9002 9001 1164
9002 9007 61
9003 9004 34
9004 9003 34
9005 8965 520
9005 9017 253
9005 9018 246
9005 9458 6841
9006 8983 877
9006 8986 146
9006 9014 178
9007 8974 1324
9007 9002 61
9008 9009 1558
9009 9008 1558
9010 8994 335
9011 9012 92
9011 9013 84
9011 9015 1079
9012 9011 92
9013 9011 84
9014 9006 178
9015 8864 2395
9015 9011 1079
9015 9215 2779
9016 8951 835
9017 9005 253
9017 9033 414
9018 9005 246
9018 9027 249
9019 9020 508
9019 9034 254
9020 9019 508
9020 8936 445
9021 8946 878
9021 9037 257
9022 9023 224
9023 9022 224
9024 8930 1214
9024 9131 2447
9024 9131 2186
9025 9026 80
9026 9025 80
9027 9018 249
9027 9034 482
9027 9086 1188
9028 9029 27
9029 9028 27
9030 9031 334
9031 9030 334
9031 9138 245
9032 8991 728
9033 9017 414
9033 9052 757
9033 9060 561
9034 9027 482
9034 9039 391
9034 9019 254
9035 9036 950
9036 9035 950
9036 9042 560
9036 9048 278
9037 9038 277
9037 9021 257
9038 9037 277
9038 9040 122
9038 9041 126
9039 9034 391
9039 9061 74
9040 9038 122
9040 9085 74
9041 9038 126
9041 9052 73
9042 8886 3729
9042 9036 560
9042 9043 6
9042 9083 595
9043 9042 6
9043 9092 3203
9044 9045 466
9045 9044 466
9046 9047 877
9046 9068 544
9046 9100 1395
9047 9046 877
9048 9036 278
9048 9001 3410
9048 9083 515
9048 9313 3074
9049 8984 1950
9049 9050 19
9049 9070 565
9050 9049 19
9050 9051 108
9050 9087 389
9051 9050 108
9051 9053 24
9051 9062 88
9052 9033 757
9052 9041 73
9053 9051 24
9053 9054 27
9053 9066 88
9054 9053 27
9054 9055 30
9054 9064 66
9055 9054 30
9055 9056 27
9055 9067 56
9056 9055 27
9056 9057 23
9056 9065 37
9057 9058 34
9057 9056 23
9057 9069 52
9058 9057 34
9059 8980 2702
9059 9063 75
9059 9075 242
9060 9033 561
9060 9061 343
9060 9098 875
9061 9060 343
9061 9039 74
9062 9051 88
9063 9059 75
9063 9080 349
9064 9054 66
9065 9056 37
9066 9053 88
9067 9055 56
9068 9046 544
9069 9057 52
9070 9049 565
9070 9071 68
9070 9072 31
9071 9070 68
9072 9070 31
9072 9073 25
9072 9076 93
9073 9072 25
9073 9074 109
9073 9077 98
9074 9073 109
9075 9059 242
9075 9084 682
9075 9124 1442
9076 9072 93
9077 9073 98
9077 9078 106
9077 9088 180
9078 9077 106
9079 8911 2668
9079 9080 480
9079 9084 68
9079 9091 674
9080 9079 480
9080 9063 349
9081 8951 2993
9081 9090 366
9081 9092 2211
9082 9001 1350
9082 9101 546
9082 9293 2398
9083 9042 595
9083 9048 515
9083 9154 1557
9084 9079 68
9084 9075 682
9084 9094 740
9085 9086 610
9085 9040 74
9086 9085 610
9086 9027 1188
9086 9099 603
9087 9050 389
9088 9077 180
9089 8922 2558
9089 9135 120
9090 9081 366
9091 9079 674
9091 9118 69
9092 9081 2211
9092 9043 3203
9092 9093 165
9093 9092 165
9093 9097 208
9093 9180 1861
9094 9084 740
9094 9139 1269
9094 9349 3757
9095 9096 116
9095 9114 1215
9095 9140 1439
9095 9143 592
9096 9095 116
9097 9093 208
9098 9060 875
9098 9126 162
9099 9086 603
9099 9127 163
9100 9046 1395
9100 9149 902
9100 9206 1069
9101 9082 546
9101 9104 93
9101 9333 1991
9102 9103 39
9102 9105 26
9102 9106 79
9103 9102 39
9103 9108 24
9103 9117 142
9104 9101 93
9104 9106 5
9105 9102 26
9105 9107 4
9105 9109 15
9106 9102 79
9106 9104 5
9106 9109 41
9106 9111 18
9107 9105 4
9107 9108 32
9107 9110 15
9108 9103 24
9108 9107 32
9108 9113 57
9109 9105 15
9109 9106 41
9109 9110 4
9110 9107 15
9110 9109 4
9110 9112 13
9111 9106 18
9112 9110 13
9112 9115 36
9112 9117 123
9113 9108 57
9114 9095 1215
9115 9112 36
9115 9116 30
9115 9120 120
9116 9115 30
9117 9103 142
9117 9112 123
9117 9120 37
9118 9119 635
9118 9091 69
9119 9118 635
9119 9122 109
9120 9117 37
9120 9115 120
9120 9121 10
9121 9120 10
9122 9123 111
9122 9119 109
9123 9122 111
9123 9142 512
9123 9147 508
9124 9075 1442
9124 9151 1408
9124 9332 1723
9125 9126 332
9125 9159 360
9126 9125 332
9126 9098 162
9127 9128 344
9127 9099 163
9128 9127 344
9128 9166 358
9129 9130 363
9129 9155 426
9129 9181 501
9130 9129 363
9131 9024 2447
9131 9024 2186
9131 9134 167
9132 9133 233
9133 9132 233
9133 9141 652
9133 9261 1138
9134 9131 167
9134 9135 611
9134 9164 417
9134 9179 426
9135 9134 611
9135 9089 120
9136 9137 670
9137 9136 670
9137 9138 4114
9137 9146 494
9138 9137 4114
9138 9031 245
9139 9094 1269
9139 9369 2954
9139 9373 3025
9140 9095 1439
9141 9133 652
9141 9144 141
9141 9160 177
9142 9123 512
9142 9192 178
9143 9095 592
9143 9148 14
9143 9165 1432
9144 9145 469
9144 9141 141
9144 9163 468
9145 9144 469
9145 9157 756
9146 9137 494
9146 8961 4355
9146 9338 1484
9147 9123 508
9147 9213 178
9148 9143 14
9148 9172 246
9148 9207 1525
9149 9100 902
9149 9150 1244
9149 9190 417
9150 9149 1244
9151 9124 1408
9151 9179 5063
9151 9332 4770
9152 9153 4693
9152 8858 48
9153 9152 4693
9153 9173 262
9153 9312 1437
9154 9083 1557
9154 9180 708
9154 9313 1948
9155 9129 426
9155 9156 328
9155 9200 388
9156 9155 328
9157 9145 756
9157 9163 113
9157 9168 113
9158 9159 27
9158 9182 519
9158 9195 378
9159 9158 27
9159 9125 360
9160 9141 177
9160 9161 139
9160 9162 91
9160 9221 376
9161 9160 139
9162 9160 91
9163 9157 113
9163 9144 468
9163 9211 472
9164 9134 417
9164 9168 175
9164 9178 150
9165 9143 1432
9166 9167 112
9166 9128 358
9167 9166 112
9167 9202 289
9167 9312 1245
9168 9164 175
9168 9157 113
9168 9178 88
9168 9222 558
9169 9170 268
9169 9171 198
9169 9227 502
9170 9169 268
9171 9169 198
9172 9148 246
9173 9153 262
9173 9182 51
9174 9175 550
9174 9186 145
9174 9236 1265
9175 9174 550
9176 9177 574
9176 9215 1490
9176 9253 2058
9177 9176 574
9178 9164 150
9178 9168 88
9178 9229 529
9179 9134 426
9179 9151 5063
9179 9300 893
9180 9154 708
9180 9093 1861
9180 9430 4255
9181 9129 501
9181 9210 145
9182 9158 519
9182 9173 51
9183 9184 51
9183 9185 143
9183 9203 72
9184 9183 51
9185 9183 143
9186 9174 145
9186 9208 175
9186 9233 302
9187 9188 444
9188 9187 444
9188 9189 1268
9189 9188 1268
9189 9226 1778
9189 9271 842
9190 9149 417
9190 9193 316
9190 9206 637
9191 9192 421
9191 9280 579
9192 9191 421
9192 9142 178
9193 9194 511
9193 9190 316
9193 9286 676
9194 9193 511
9195 9158 378
9195 9363 817
9196 9197 139
9196 9198 75
9196 9200 107
9197 9196 139
9198 9196 75
9198 9199 129
9198 9203 52
9199 9198 129
9200 9155 388
9200 9196 107
9200 9201 276
9200 9225 188
9201 9200 276
9202 9167 289
9202 9299 791
9203 9198 52
9203 9183 72
9203 9204 122
9203 9220 87
9204 9203 122
9204 9205 53
9204 9210 60
9205 9204 53
9206 9100 1069
9206 9190 637
9206 9263 772
9207 9148 1525
9208 9186 175
9208 9209 617
9208 9228 247
9209 9208 617
9210 9204 60
9210 9181 145
9210 9234 424
9211 9163 472
9211 9212 38
9211 9217 25
9212 9211 38
9212 9218 26
9212 9221 260
9213 9214 471
9213 9147 178
9214 9213 471
9214 9287 525
9215 9216 748
9215 9015 2779
9215 9176 1490
9215 9296 672
9216 9215 748
9216 9259 517
9217 9211 25
9217 9219 8
9217 9222 93
9218 9212 26
9218 9219 28
9218 9240 313
9219 9217 8
9219 9218 28
9219 9223 91
9220 9203 87
9221 9212 260
9221 9160 376
9221 9224 123
9222 9168 558
9222 9217 93
9222 9223 11
9222 9229 111
9223 9222 11
9223 9219 91
9223 9230 113
9223 9241 242
9224 9221 123
9224 9240 118
9224 9242 231
9225 9200 188
9226 9189 1778
9227 9169 502
9227 9237 248
9227 9249 429
9228 9208 247
9228 9233 275
9228 9282 1921
9229 9178 529
9229 9222 111
9229 9230 11
9230 9229 11
9230 9223 113
9230 9251 234
9231 9232 174
9231 9241 73
9231 9245 96
9232 9231 174
9233 9186 302
9233 9228 275
9233 9262 520
9234 9210 424
9234 9239 63
9234 9255 498
9235 9236 954
9236 9235 954
9236 9174 1265
9236 9264 358
9237 9238 100
9237 9227 248
9237 9239 20
9238 9237 100
9239 9234 63
9239 9237 20
9239 9252 137
9240 9218 313
9240 9224 118
9240 9245 48
9240 9284 464
9241 9223 242
9241 9231 73
9241 9250 110
9241 9251 114
9242 9224 231
9243 9244 5394
9243 9299 711
9243 9362 1233
9244 9243 5394
9244 8860 48
9245 9231 96
9245 9240 48
9245 9250 64
9246 9247 586
9246 9248 412
9246 9272 277
9247 9246 586
9248 9246 412
9249 9227 429
9250 9241 110
9250 9245 64
9250 9256 103
9250 9284 392
9251 9230 234
9251 9241 114
9251 9256 141
9252 9239 137
9253 9176 2058
9253 9254 4363
9253 9273 452
9253 9301 3253
9254 9253 4363
9255 9234 498
9256 9251 141
9256 9250 103
9256 9292 415
9257 9258 1000
9258 9257 1000
9258 9260 132
9258 9267 105
9259 9216 517
9259 9297 235
9259 9303 1029
9260 9258 132
9260 9283 104
9260 9285 846
9261 9133 1138
9262 9233 520
9263 9206 772
9263 9285 503
9263 9316 549
9264 9236 358
9264 9268 461
9264 9289 178
9265 9266 52
9266 9265 52
9267 9258 105
9267 9269 429
9267 9270 39
9268 9264 461
9269 9267 429
9269 9302 651
9269 9305 209
9270 9267 39
9270 9283 103
9270 9290 125
9271 9189 842
9271 9286 924
9271 9324 310
9272 9246 277
9272 9276 1317
9272 9281 72
9273 9253 452
9273 9291 252
9273 9295 135
9274 9275 241
9275 9274 241
9276 9272 1317
9277 9278 146
9278 9277 146
9279 9280 206
9279 9315 157
9280 9279 206
9280 9191 579
9281 9272 72
9281 9302 2907
9281 9331 427
9282 9228 1921
9283 9270 103
9283 9260 104
9283 9285 890
9283 9327 342
9284 9250 392
9284 9240 464
9284 9292 83
9285 9260 846
9285 9263 503
9285 9283 890
9286 9193 676
9286 9271 924
9286 9339 392
9287 9288 188
9287 9214 525
9288 9287 188
9288 9321 267
9289 9264 178
9290 9270 125
9290 9306 178
9290 9327 207
9291 9273 252
9291 9298 123
9291 9304 104
9292 9256 415
9292 9284 83
9292 9550 7748
9293 9082 2398
9293 9294 524
9293 9330 225
9294 9293 524
9295 9273 135
9296 9215 672
9296 9301 64
9296 9303 105
9297 9259 235
9297 9356 514
9297 9357 978
9298 9291 123
9298 9307 230
9298 9309 96
9299 9243 711
9299 9202 791
9300 9179 893
9300 9365 693
9300 9385 2431
9301 9296 64
9301 9253 3253
9301 9311 171
9302 9269 651
9302 9281 2907
9302 9351 502
9303 9259 1029
9303 9296 105
9303 9308 35
9304 9291 104
9304 9309 129
9304 9310 44
9305 9269 209
9305 9306 257
9305 9335 300
9306 9290 178
9306 9305 257
9306 9329 274
9307 9298 230
9307 9326 360
9307 9511 4998
9308 9303 35
9308 9311 35
9309 9304 129
9309 9298 96
9309 9326 57
9309 9328 175
9310 9304 44
9311 9308 35
9311 9301 171
9311 9357 460
9312 9153 1437
9312 9167 1245
9312 9390 1970
9313 9154 1948
9313 9048 3074
9313 9374 1493
9313 9411 2070
9314 9315 322
9314 9320 54
9315 9314 322
9315 9279 157
9316 9263 549
9316 9342 809
9316 9350 281
9317 9318 193
9317 9319 67
9318 9317 193
9318 9347 49
9319 9320 167
9319 9323 170
9319 9317 67
9320 9319 167
9320 9314 54
9321 9322 255
9321 9288 267
9322 9321 255
9322 9323 56
9323 9319 170
9323 9322 56
9324 9271 310
9324 9337 146
9324 9345 211
9325 9326 43
9326 9325 43
9326 9309 57
9326 9307 360
9326 9336 90
9327 9290 207
9327 9283 342
9327 9329 21
9328 9309 175
9329 9327 21
9329 9306 274
9329 9350 2220
9330 9293 225
9330 9333 1237
9330 9448 2683
9331 9281 427
9331 9334 340
9331 9346 364
9332 9124 1723
9332 9151 4770
9332 9480 3514
9333 9101 1991
9333 9330 1237
9333 9396 1690
9334 9331 340
9335 9305 300
9336 9326 90
9337 9324 146
9337 9340 50
9337 9344 164
9338 9146 1484
9338 9376 50
9339 9286 392
9339 9342 452
9339 9343 548
9340 9341 297
9340 9337 50
9340 9343 70
9341 9340 297
9342 9316 809
9342 9339 452
9342 9350 1292
9343 9340 70
9343 9339 548
9343 9370 492
9344 9337 164
9344 9345 41
9344 9360 211
9345 9344 41
9345 9324 211
9345 9352 124
9346 9331 364
9347 9348 523
9347 9318 49
9348 9347 523
9348 9377 69
9349 9094 3757
9349 9369 1026
9349 9439 2135
9350 9316 281
9350 9329 2220
9350 9342 1292
9351 9302 502
9352 9345 124
9352 9353 680
9352 9354 17
9353 9352 680
9354 9352 17
9354 9360 91
9354 9366 264
9355 9356 4249
9355 8996 44
9356 9355 4249
9356 9297 514
9356 9358 11
9356 9371 482
9357 9297 978
9357 9311 460
9357 9364 186
9357 9382 3978
9358 9359 4259
9358 9356 11
9358 9380 922
9358 9550 3621
9359 9358 4259
9359 8997 43
9360 9344 211
9360 9354 91
9360 9361 50
9360 9366 324
9361 9360 50
9362 9363 972
9362 9243 1233
9362 9391 1429
9363 9362 972
9363 9195 817
9364 9357 186
9364 9372 197
9365 9300 693
9365 9378 363
9365 9392 2105
9366 9360 324
9366 9354 264
9367 9368 805
9368 9367 805
9369 9349 1026
9369 9139 2954
9369 9373 1253
9370 9343 492
9371 9356 482
9371 9372 529
9371 9379 441
9372 9364 197
9372 9371 529
9372 9379 248
9372 9384 528
9373 9139 3025
9373 9369 1253
9374 9313 1493
9375 9376 731
9375 9377 618
9375 9441 1736
9376 9375 731
9376 9338 50
9377 9375 618
9377 9348 69
9378 9365 363
9378 9385 1605
9378 9431 1085
9379 9371 441
9379 9372 248
9379 9380 9
9379 9384 344
9380 9358 922
9380 9379 9
9380 9381 50
9380 9386 242
9381 9380 50
9381 9386 273
9381 9389 582
9382 9383 1729
9382 9357 3978
9382 9399 607
9383 9382 1729
9384 9379 344
9384 9372 528
9384 9399 3848
9385 9300 2431
9385 9378 1605
9385 9479 3190
9386 9380 242
9386 9381 273
9386 9389 485
9387 9388 9500
9387 9446 2012
9387 9484 1938
9388 9387 9500
9389 9386 485
9389 9381 582
9389 9401 3562
9390 9312 1970
9390 9393 162
9390 9423 655
9391 9362 1429
9391 9394 104
9391 9426 659
9392 9365 2105
9392 9440 966
9392 9440 1629
9393 9390 162
9393 9395 175
9393 9397 114
9394 9391 104
9394 9404 202
9394 9410 271
9395 9393 175
9395 9397 93
9395 9398 107
9396 9333 1690
9396 9405 168
9396 9444 1739
9397 9393 114
9397 9395 93
9397 9400 71
9398 9395 107
9398 9403 78
9398 9409 123
9399 9384 3848
9399 9382 607
9399 9401 8
9399 9565 4353
9400 9397 71
9400 9402 98
9400 9403 37
9401 9389 3562
9401 9399 8
9401 9429 314
9401 9566 4354
9402 9400 98
9402 9408 73
9403 9400 37
9403 9398 78
9403 9413 138
9404 9394 202
9404 9407 34
9404 9410 111
9405 9406 23
9405 9396 168
9405 9438 885
9406 9405 23
9407 9404 34
9407 9408 91
9407 9412 83
9408 9407 91
9408 9402 73
9409 9398 123
9409 9413 76
9409 9414 95
9410 9394 271
9410 9404 111
9410 9415 121
9411 9313 2070
9412 9407 83
9412 9415 132
9412 9416 108
9413 9403 138
9413 9409 76
9413 9414 18
9414 9413 18
9414 9409 95
9414 9423 135
9415 9410 121
9415 9412 132
9415 9416 196
9416 9412 108
9416 9415 196
9416 9426 146
9417 9418 849
9418 9417 849
9418 13580 8
9419 9420 18
9420 9419 18
9420 9495 1228
9421 9422 21
9422 9421 21
9423 9390 655
9423 9414 135
9423 9463 924
9424 9425 14
9425 9424 14
9426 9416 146
9426 9391 659
9426 9464 914
9427 9428 44
9428 9427 44
9429 9401 314
9430 9180 4255
9430 9445 1248
9430 9447 663
9431 9378 1085
9431 9440 1511
9431 9467 773
9432 9433 50
9433 9432 50
9434 9435 9
9434 9437 41
9435 9434 9
9436 9437 96
9437 9436 96
9437 9465 752
9437 9434 41
9438 9405 885
9438 9486 1929
9438 9544 1612
9439 9349 2135
9439 9475 682
9439 9531 2546
9440 9392 966
9440 9392 1629
9440 9431 1511
9440 9506 1170
9441 9375 1736
9441 9459 242
9442 9443 326
9442 9455 682
9442 9477 747
9443 9442 326
9444 9396 1739
9444 9448 391
9444 9535 1961
9445 9430 1248
9445 9447 1614
9445 9486 1211
9446 9387 2012
9446 9492 1505
9446 9542 2888
9447 9430 663
9447 9445 1614
9447 9449 1089
9447 9462 529
9448 9444 391
9448 9330 2683
9448 9468 566
9449 9447 1089
9449 9450 551
9449 9450 480
9449 9462 683
9450 9449 551
9450 9449 480
9450 9465 1526
9451 9452 2315
9452 9451 2315
9452 9483 436
9452 9484 857
9452 9514 2600
9453 9454 1669
9453 9494 76
9454 9453 1669
9455 9442 682
9456 9457 842
9456 9458 1940
9456 9478 498
9456 9487 399
9457 9456 842
9458 9005 6841
9458 9459 609
9458 9456 1940
9458 9509 683
9459 9458 609
9459 9441 242
9460 9461 78
9460 9466 316
9460 9476 817
9461 9460 78
9462 9447 529
9462 9449 683
9462 9592 2537
9463 9423 924
9463 9518 88
9464 9426 914
9464 9521 86
9465 9437 752
9465 9450 1526
9465 9493 730
9465 9534 1427
9466 9460 316
9467 9431 773
9467 9473 111
9467 9479 805
9468 9448 566
9468 9481 887
9468 9491 302
9469 9470 187
9470 9469 187
9470 9474 366
9470 9495 412
9471 9472 17
9472 9471 17
9473 9467 111
9473 9479 784
9473 9539 760
9474 9470 366
9475 9439 682
9475 9556 2912
9475 9614 4295
9476 9460 817
9476 9477 240
9476 9500 471
9477 9476 240
9477 9442 747
9477 9502 1893
9478 9456 498
9478 9482 69
9479 9385 3190
9479 9467 805
9479 9473 784
9479 9522 750
9480 9332 3514
9480 9523 2396
9480 9531 3511
9481 9468 887
9481 9482 159
9481 9490 120
9481 9491 911
9482 9481 159
9482 9478 69
9483 9452 436
9483 9485 803
9483 9499 724
9483 9532 510
9484 9452 857
9484 9387 1938
9484 9499 116
9485 9483 803
9486 9445 1211
9486 9438 1929
9486 9544 1266
9487 9456 399
9487 9496 404
9487 9579 1325
9488 9489 228
9489 9488 228
9490 9481 120
9490 9496 53
9491 9468 302
9491 9481 911
9491 9535 1882
9491 9568 1073
9492 9446 1505
9492 9513 933
9492 9639 2720
9493 9494 485
9493 9465 730
9493 9512 656
9494 9493 485
9494 9453 76
9495 9420 1228
9495 9470 412
9495 9501 115
9496 9487 404
9496 9490 53
9497 9498 1802
9498 9497 1802
9499 9483 724
9499 9484 116
9499 9528 518
9500 9476 471
9501 9495 115
9501 9503 171
9501 9515 171
9502 9477 1893
9502 9507 460
9502 9508 113
9503 9501 171
9503 9515 246
9503 9608 3265
9504 9505 183
9504 9510 36
9505 9504 183
9506 9440 1170
9507 9502 460
9508 9502 113
9509 9458 683
9509 9510 859
9509 9579 1950
9509 9605 1925
9510 9509 859
9510 9504 36
9511 9307 4998
9511 9514 99
9511 9565 719
9512 9493 656
9512 9516 604
9512 9534 213
9513 9492 933
9513 9615 3982
9513 9661 2600
9514 9511 99
9514 9452 2600
9514 9530 518
9515 9503 246
9515 9501 171
9515 9543 464
9516 9512 604
9516 9517 985
9516 9527 120
9517 9516 985
9518 9519 627
9518 9463 88
9519 9518 627
9519 9582 69
9520 9521 632
9520 9575 67
9521 9520 632
9521 9464 86
9522 9479 750
9522 9523 428
9522 9536 1205
9523 9480 2396
9523 9522 428
9523 9616 3629
9524 9525 815
9524 9541 2424
9524 9569 2212
9525 9524 815
9526 9527 663
9527 9526 663
9527 9516 120
9527 9533 445
9527 9561 550
9528 9499 518
9528 9529 212
9528 9542 214
9529 9528 212
9529 9532 893
9529 9578 841
9530 9514 518
9530 9538 715
9530 9586 1314
9531 9439 2546
9531 9480 3511
9531 9556 452
9532 9483 510
9532 9529 893
9532 9538 323
9533 9527 445
9533 9534 317
9533 9561 765
9534 9512 213
9534 9465 1427
9534 9533 317
9535 9444 1961
9535 9491 1882
9535 9544 1843
9536 9522 1205
9536 9537 117
9536 9540 179
9536 9589 1281
9537 9536 117
9538 9530 715
9538 9532 323
9538 9578 1146
9539 9473 760
9539 9540 2
9539 9540 0
9539 9570 5971
9540 9536 179
9540 9539 2
9540 9539 0
9540 9589 1064
9541 9524 2424
9541 9543 508
9541 9569 492
9542 9528 214
9542 9446 2888
9542 9585 988
9543 9515 464
9543 9541 508
9543 9545 80
9544 9486 1266
9544 9438 1612
9544 9535 1843
9544 9660 2115
9545 9543 80
9545 9546 60
9545 9569 789
9546 9545 60
9547 9548 341
9548 9547 341
9548 9549 92
9548 9564 280
9549 9548 92
9549 9551 50
9549 9564 320
9550 9292 7748
9550 9358 3621
9550 9571 246
9550 9730 7407
9551 9549 50
9551 9552 144
9551 9576 552
9552 9551 144
9553 9554 108
9554 9553 108
9554 9555 114
9554 9557 70
9555 9554 114
9556 9531 452
9556 9475 2912
9556 9628 1468
9557 9554 70
9557 9558 18
9557 9563 144
9558 9559 185
9558 9557 18
9558 9560 5
9559 9558 185
9559 9573 236
9559 9584 632
9560 9558 5
9560 9562 31
9560 9563 131
9561 9527 550
9561 9533 765
9561 9592 4093
9562 9560 31
9562 9567 137
9562 9572 101
9563 9560 131
9563 9557 144
9563 9567 44
9564 9548 280
9564 9549 320
9564 9567 140
9565 9399 4353
9565 9511 719
9565 9566 12
9565 9586 773
9566 9401 4354
9566 9565 12
9566 9587 766
9566 9656 1817
9567 9562 137
9567 9563 44
9567 9564 140
9567 9581 304
9568 9491 1073
9569 9541 492
9569 9524 2212
9569 9545 789
9570 9571 2720
9570 9539 5971
9570 9621 5937
9571 9570 2720
9571 9550 246
9571 9719 3909
9572 9562 101
9573 9559 236
9574 9575 850
9574 9595 663
9574 9602 751
9575 9574 850
9575 9520 67
9576 9577 165
9576 9551 552
9576 9580 98
9577 9576 165
9578 9538 1146
9578 9529 841
9578 9585 393
9578 9636 1283
9579 9487 1325
9579 9509 1950
9579 9588 760
9579 9634 1313
9580 9576 98
9581 9567 304
9582 9583 998
9582 9519 69
9583 9582 998
9583 9598 721
9583 9611 822
9584 9559 632
9585 9578 393
9585 9542 988
9585 9620 1003
9586 9565 773
9586 9530 1314
9586 9587 14
9586 9612 736
9587 9566 766
9587 9586 14
9587 9607 568
9587 9655 1233
9588 9579 760
9589 9540 1064
9589 9536 1281
9589 9621 638
9590 9591 1416
9591 9590 1416
9592 9561 4093
9592 9462 2537
9592 9596 219
9592 9609 654
9593 9594 21
9594 9593 21
9595 9574 663
9595 9601 119
9596 9592 219
9597 9598 289
9597 9603 118
9598 9597 289
9598 9583 721
9598 9599 34
9599 9598 34
9599 9605 197
9600 9601 316
9600 9604 74
9600 9610 567
9601 9600 316
9601 9595 119
9602 9603 585
9602 9574 751
9602 9613 221
9603 9602 585
9603 9597 118
9604 9600 74
9604 9606 140
9604 9614 267
9605 9509 1925
9605 9606 11
9605 9599 197
9606 9605 11
9606 9604 140
9606 9614 168
9607 9587 568
9607 9638 765
9607 9642 734
9608 9503 3265
9608 9622 1202
9608 9625 444
9609 9592 654
9610 9600 567
9610 9619 61
9611 9583 822
9611 9617 61
9612 9586 736
9612 9630 705
9612 9657 897
9613 9602 221
9613 9645 61
9614 9604 267
9614 9606 168
9614 9475 4295
9614 9635 900
9614 9673 1418
9615 9513 3982
9615 9624 253
9615 9672 3083
9616 9523 3629
9616 9623 851
9616 9689 1904
9617 9618 95
9617 9611 61
9618 9617 95
9618 9619 97
9618 9646 330
9619 9618 97
9619 9610 61
9620 9585 1003
9620 9647 1071
9620 9677 836
9621 9589 638
9621 9570 5937
9621 9623 71
9622 9608 1202
9623 9616 851
9623 9621 71
9623 9718 1702
9624 9615 253
9625 9608 444
9626 9627 30
9627 9626 30
9628 9556 1468
9628 9637 536
9628 9673 4061
9629 9630 242
9629 9643 73
9630 9629 242
9630 9612 705
9630 9633 107
9631 9632 228
9631 9633 116
9631 9657 491
9632 9631 228
9632 9638 72
9633 9631 116
9633 9630 107
9633 9636 94
9634 9579 1313
9635 9614 900
9635 9658 165
9636 9633 94
9636 9578 1283
9636 9665 388
9636 9677 1303
9637 9628 536
9637 9640 280
9637 9741 4051
9638 9607 765
9638 9632 72
9639 9492 2720
9639 9647 1009
9639 9661 1192
9639 9680 1362
9640 9637 280
9640 9641 2817
9640 9715 2097
9641 9640 2817
9642 9643 636
9642 9607 734
9642 9725 2068
9643 9642 636
9643 9629 73
9644 9645 410
9644 9670 99
9645 9644 410
9645 9613 61
9646 9618 330
9646 9667 104
9647 9620 1071
9647 9639 1009
9647 9680 548
9648 9649 14
9649 9648 14
9650 9651 156
9650 9652 235
9650 9663 282
9651 9650 156
9652 9650 235
9653 9654 4
9654 9653 4
9655 9587 1233
9655 9656 584
9655 9681 1569
9656 9566 1817
9656 9655 584
9656 9730 2308
9657 9612 897
9657 9631 491
9657 9724 1743
9658 9659 165
9658 9635 165
9659 9658 165
9659 9666 124
9659 9674 629
9660 9544 2115
9660 9662 756
9660 9671 958
9660 9690 582
9661 9639 1192
9661 9513 2600
9661 9672 899
9661 9762 3365
9662 9660 756
9663 9664 1036
9663 9650 282
9663 9675 145
9664 9663 1036
9665 9636 388
9665 9682 84
9666 9659 124
9666 9673 1752
9666 9723 1362
9667 9668 271
9667 9646 104
9668 9667 271
9668 9703 55
9669 9670 289
9669 9707 56
9670 9669 289
9670 9644 99
9671 9660 958
9672 9615 3083
9672 9661 899
9672 9716 2930
9673 9614 1418
9673 9628 4061
9673 9666 1752
9673 9691 400
9674 9659 629
9674 9676 56
9674 9688 255
9675 9663 145
9675 9678 89
9675 9698 560
9676 9674 56
9676 9687 108
9676 9687 114
9677 9636 1303
9677 9620 836
9677 9680 1189
9677 9724 1361
9678 9679 36
9678 9675 89
9678 9685 124
9679 9678 36
9679 9683 59
9680 9677 1189
9680 9647 548
9680 9639 1362
9680 9745 2891
9681 9655 1569
9681 9682 138
9681 9740 1999
9682 9681 138
9682 9665 84
9683 9684 670
9683 9679 59
9684 9683 670
9685 9678 124
9685 9686 1416
9685 9698 554
9686 9685 1416
9687 9676 108
9687 9676 114
9688 9674 255
9689 9616 1904
9690 9660 582
9691 9673 400
9691 9704 636
9691 9729 1580
9692 9693 284
9693 9692 284
9694 9695 78
9695 9694 78
9696 9697 85
9696 9700 81
9696 9700 119
9697 9696 85
9698 9675 560
9698 9685 554
9698 9699 94
9699 9698 94
9700 9696 81
9700 9696 119
9701 9702 228
9701 9702 159
9701 9708 158
9702 9701 228
9702 9701 159
9702 9705 123
9702 9709 277
9703 9704 1159
9703 9668 55
9704 9703 1159
9704 9691 636
9704 9706 23
9704 9757 2811
9705 9702 123
9706 9707 1161
9706 9704 23
9706 9726 2179
9706 9758 2824
9707 9706 1161
9707 9669 56
9708 9701 158
9709 9702 277
9709 9710 221
9709 9727 751
9710 9709 221
9711 9712 1985
9712 9711 1985
9713 9714 1545
9714 9713 1545
9715 9640 2097
9715 9735 4307
9715 9754 2158
9716 9717 1458
9716 9672 2930
9716 9743 2774
9716 9784 3884
9717 9716 1458
9718 9623 1702
9718 9735 1882
9718 9760 2083
9719 9571 3909
9719 9736 53
9720 9721 28
9720 9722 56
9720 9727 608
9721 9720 28
9721 9722 29
9722 9721 29
9722 9720 56
9722 9723 266
9723 9722 266
9723 9666 1362
9723 9726 143
9724 9657 1743
9724 9677 1361
9724 9725 13
9724 9745 1347
9725 9642 2068
9725 9724 13
9725 9739 776
9725 9746 1348
9726 9723 143
9726 9706 2179
9726 9763 2019
9727 9728 101
9727 9709 751
9727 9720 608
9728 9727 101
9729 9691 1580
9729 9747 1723
9729 9751 1585
9730 9550 7407
9730 9656 2308
9730 9738 220
9730 9759 2105
9731 9732 9
9732 9731 9
9733 9734 21
9734 9733 21
9735 9718 1882
9735 9715 4307
9735 9761 2835
9736 9737 515
9736 9719 53
9737 9736 515
9737 9750 1131
9737 9765 6225
9738 9730 220
9739 9725 776
9739 9744 389
9739 9746 957
9740 9681 1999
9740 9744 1083
9740 9759 1974
9741 9637 4051
9741 9742 1926
9741 9747 375
9741 9752 428
9742 9741 1926
9743 9716 2774
9744 9740 1083
9744 9739 389
9744 9756 536
9744 9776 2195
9745 9724 1347
9745 9746 15
9745 9680 2891
9745 9768 1410
9746 9725 1348
9746 9745 15
9746 9739 957
9746 9769 1415
9747 9729 1723
9747 9741 375
9747 9753 282
9748 9749 2653
9749 9748 2653
9750 9737 1131
9750 9838 80
9751 9729 1585
9751 9757 375
9751 9794 1897
9752 9741 428
9752 9755 339
9752 9773 1293
9753 9747 282
9753 9755 95
9753 9794 2160
9754 9715 2158
9755 9753 95
9755 9752 339
9755 9779 1274
9756 9744 536
9757 9704 2811
9757 9751 375
9757 9758 24
9757 9797 1652
9758 9706 2824
9758 9757 24
9758 9798 1639
9758 9864 3622
9759 9730 2105
9759 9740 1974
9759 9795 2923
9760 9718 2083
9760 9761 159
9760 9765 188
9761 9735 2835
9761 9760 159
9761 9767 2681
9762 9661 3365
9762 9764 1528
9762 9768 1652
9762 9775 796
9763 9726 2019
9763 9766 1098
9763 9785 989
9764 9762 1528
9764 9775 1682
9764 9784 1335
9765 9760 188
9765 9737 6225
9765 9807 2248
9766 9763 1098
9767 9761 2681
9768 9745 1410
9768 9762 1652
9768 9769 13
9768 9772 388
9769 9746 1415
9769 9768 13
9769 9770 113
9769 9771 226
9770 9769 113
9770 9780 574
9770 9787 858
9771 9769 226
9771 9776 1030
9771 9791 1144
9772 9768 388
9772 9777 706
9772 9792 740
9773 9752 1293
9773 9774 3076
9773 9778 123
9773 9779 287
9774 9773 3076
9775 9762 796
9775 9764 1682
9775 9816 1319
9776 9744 2195
9776 9771 1030
9776 9795 1239
9777 9772 706
9777 9782 56
9778 9773 123
9779 9755 1274
9779 9773 287
9779 9788 350
9779 9836 1488
9780 9770 574
9780 9781 184
9780 9789 411
9781 9780 184
9781 9793 52
9782 9783 242
9782 9777 56
9783 9782 242
9783 9787 508
9783 9789 333
9784 9764 1335
9784 9716 3884
9784 9786 378
9784 9858 3707
9785 9763 989
9785 9866 2749
9785 9880 4692
9786 9784 378
9787 9783 508
9787 9770 858
9787 9819 1117
9788 9779 350
9789 9780 411
9789 9783 333
9789 9790 40
9790 9789 40
9790 9791 78
9790 9827 1070
9791 9771 1144
9791 9790 78
9791 9796 212
9792 9772 740
9792 9793 706
9792 9816 951
9793 9792 706
9793 9781 52
9794 9751 1897
9794 9753 2160
9794 9845 1369
9795 9759 2923
9795 9776 1239
9795 9801 883
9795 9859 2634
9796 9791 212
9797 9757 1652
9797 9824 862
9797 9832 909
9798 9758 1639
9798 9813 672
9798 9834 909
9799 9800 106
9799 9802 268
9799 9806 235
9800 9799 106
9800 9803 281
9800 9829 2795
9801 9795 883
9801 9870 37
9802 9799 268
9803 9800 281
9803 9804 65
9803 9805 71
9804 9803 65
9804 9805 81
9804 9810 1592
9805 9803 71
9805 9804 81
9805 9808 221
9806 9799 235
9806 9808 117
9806 9809 113
9807 9765 2248
9807 9814 61
9808 9806 117
9808 9805 221
9808 9810 96
9809 9806 113
9809 9810 45
9809 9828 931
9810 9809 45
9810 9808 96
9810 9804 1592
9811 9812 988
9811 9828 358
9811 9821 4949
9812 9811 988
9813 9798 672
9813 9826 153
9814 9815 72
9814 9807 61
9815 9814 72
9815 9822 1219
9815 9833 274
9816 9792 951
9816 9775 1319
9816 9819 18
9816 9830 245
9817 9818 941
9818 9817 941
9818 9820 39
9818 9821 488
9818 9878 1974
9819 9787 1117
9819 9816 18
9819 9827 62
9819 9831 239
9820 9818 39
9820 9837 81
9821 9818 488
9821 9811 4949
9822 9815 1219
9822 9829 570
9822 9833 1540
9823 9824 261
9823 9835 160
9824 9823 261
9824 9797 862
9824 9841 506
9825 9826 248
9825 9832 388
9825 9842 516
9826 9825 248
9826 9813 153
9827 9790 1070
9827 9819 62
9827 9861 922
9828 9811 358
9828 9809 931
9828 9879 1651
9829 9822 570
9829 9800 2795
9829 9869 1166
9830 9816 245
9830 9907 389
9831 9819 239
9831 9910 388
9832 9797 909
9832 9825 388
9832 9848 258
9833 9815 274
9833 9822 1540
9833 9850 2974
9833 9860 672
9834 9835 707
9834 9798 909
9834 9847 247
9835 9834 707
9835 9823 160
9836 9779 1488
9836 9837 370
9836 9840 100
9836 9852 1239
9837 9836 370
9837 9820 81
9838 9839 2831
9838 9750 80
9839 9838 2831
9839 9846 7424
9839 9850 245
9840 9836 100
9840 9857 38
9841 9824 506
9841 9845 115
9842 9825 516
9842 9849 231
9843 9844 1740
9844 9843 1740
9845 9841 115
9845 9794 1369
9845 9849 117
9846 9839 7424
9846 9871 4679
9846 10231 8203
9847 9834 247
9847 9942 40
9848 9832 258
9848 9939 41
9849 9842 231
9849 9845 117
9849 9851 57
9849 9854 252
9850 9833 2974
9850 9839 245
9850 9860 1889
9850 9872 795
9851 9849 57
9851 9853 536
9851 9855 192
9852 9836 1239
9852 9854 275
9853 9851 536
9853 9855 624
9853 9864 1689
9854 9849 252
9854 9852 275
9854 9855 190
9854 9898 2252
9855 9853 624
9855 9851 192
9855 9854 190
9855 9934 2245
9856 9857 546
9856 9862 343
9856 9881 787
9857 9856 546
9857 9840 38
9858 9784 3707
9858 9863 657
9858 9929 3810
9859 9795 2634
9859 9865 563
9859 9883 656
9860 9833 672
9860 9850 1889
9860 9869 1848
9860 9895 890
9861 9827 922
9861 9867 315
9861 9875 425
9862 9856 343
9862 9868 391
9862 9917 1616
9863 9858 657
9863 10025 3264
9863 10038 4456
9864 9758 3622
9864 9853 1689
9864 9880 465
9865 9859 563
9865 9874 22
9866 9785 2749
9866 9890 992
9866 9927 2231
9867 9861 315
9867 9877 48
9868 9862 391
9868 9881 303
9868 9898 702
9869 9829 1166
9869 9860 1848
9869 9885 1913
9869 9906 1030
9870 9871 2535
9870 9801 37
9871 9870 2535
9871 9846 4679
9871 9985 2787
9872 9850 795
9872 9873 2307
9872 9895 1388
9872 9896 510
9873 9872 2307
9874 9875 208
9874 9865 22
9875 9874 208
9875 9861 425
9875 9876 120
9875 9887 204
9876 9875 120
9876 9877 33
9876 9888 205
9876 9904 1911
9877 9876 33
9877 9867 48
9878 9818 1974
9878 9882 482
9878 9893 496
9879 9828 1651
9880 9785 4692
9880 9864 465
9880 9884 140
9880 9938 2153
9881 9856 787
9881 9868 303
9881 9892 222
9882 9878 482
9883 9859 656
9883 9886 174
9883 9891 146
9884 9880 140
9884 9927 3432
9884 9966 1964
9885 9869 1913
9886 9883 174
9886 9887 134
9886 9891 116
9887 9886 134
9887 9875 204
9887 9888 195
9887 9894 225
9888 9887 195
9888 9876 205
9888 9889 582
9888 9897 364
9889 9888 582
9890 9866 992
9891 9883 146
9891 9886 116
9891 9894 227
9891 9985 5859
9892 9881 222
9892 9903 26
9893 9878 496
9894 9891 227
9894 9887 225
9894 9897 307
9895 9860 890
9895 9872 1388
9895 9905 1693
9895 9975 1855
9896 9872 510
9896 9912 1374
9896 9960 1406
9897 9894 307
9897 9888 364
9897 9900 93
9897 10121 5446
9898 9854 2252
9898 9868 702
9898 9899 30
9899 9898 30
9899 9901 322
9899 9917 1139
9900 9897 93
9901 9899 322
9901 9918 581
9901 9919 487
9902 9903 544
9902 9920 590
9902 9932 799
9903 9902 544
9903 9892 26
9904 9876 1911
9904 9935 2576
9904 10067 3941
9905 9895 1693
9905 9906 301
9905 9911 69
9906 9869 1030
9906 9905 301
9906 9914 1307
9906 9978 1384
9907 9908 2180
9907 9830 389
9908 9907 2180
9908 10004 71
9909 9910 2169
9909 10014 69
9910 9909 2169
9910 9831 388
9911 9905 69
9911 9916 185
9911 9923 191
9912 9896 1374
9912 9913 159
9912 9960 1792
9912 9999 1919
9913 9912 159
9914 9915 113
9914 9906 1307
9914 10021 2165
9915 9914 113
9916 9911 185
9917 9899 1139
9917 9862 1616
9917 9952 988
9918 9901 581
9919 9901 487
9920 9902 590
9920 9926 438
9920 9945 464
9921 9922 354
9922 9921 354
9923 9911 191
9924 9925 1085
9924 9936 439
9924 9948 678
9925 9924 1085
9926 9920 438
9926 9928 662
9926 9951 382
9927 9884 3432
9927 9866 2231
9927 9953 322
9928 9926 662
9928 9931 176
9928 9934 347
9929 9858 3810
9929 9930 1143
9929 9982 2049
9929 10052 2481
9930 9929 1143
9931 9928 176
9932 9902 799
9932 9933 827
9932 9945 177
9932 9949 137
9933 9932 827
9934 9855 2245
9934 9928 347
9934 9943 250
9935 9904 2576
9935 9998 2049
9935 10005 1401
9936 9924 439
9936 9937 491
9936 9948 183
9936 9950 96
9937 9936 491
9938 9880 2153
9938 9944 396
9938 9969 628
9939 9940 2326
9939 9848 41
9940 9939 2326
9940 13581 15
9941 9942 2333
9941 13582 14
9942 9941 2333
9942 9847 40
9943 9934 250
9944 9938 396
9945 9920 464
9945 9932 177
9945 9951 548
9946 9947 177
9947 9946 177
9948 9924 678
9948 9936 183
9948 9950 211
9948 9952 146
9949 9932 137
9950 9948 211
9950 9936 96
9950 9981 2436
9951 9926 382
9951 9945 548
9951 9965 203
9952 9917 988
9952 9948 146
9952 9974 732
9953 9927 322
9954 9955 37
9955 9954 37
9956 9957 20
9957 9956 20
9958 9959 79
9959 9958 79
9960 9896 1406
9960 9912 1792
9960 9975 361
9961 9962 4
9962 9961 4
9963 9964 165
9964 9963 165
9965 9951 203
9966 9884 1964
9967 9968 111
9968 9967 111
9969 9938 628
9970 9971 4
9971 9970 4
9972 9973 273
9973 9972 273
9974 9952 732
9974 10008 2035
9974 10035 2320
9975 9895 1855
9975 9960 361
9975 10048 1578
9976 9977 53
9977 9976 53
9978 9906 1384
9978 10018 833
9978 10088 3038
9979 9980 148
9980 9979 148
9981 9950 2436
9981 9995 361
9981 10000 1245
9982 9929 2049
9983 9984 45
9984 9983 45
9985 9871 2787
9985 9891 5859
9985 10357 6493
9986 9987 46
9987 9986 46
9988 9989 65
9989 9988 65
9990 9991 307
9991 9990 307
9992 9993 227
9992 9994 974
9992 10081 2071
9992 10104 4190
9993 9992 227
9994 9992 974
9995 9981 361
9995 10003 432
9995 10008 256
9996 9997 254
9997 9996 254
9998 9935 2049
9998 10025 558
9998 10046 877
9999 9912 1919
9999 10017 370
9999 10122 3395
10000 9981 1245
10000 10021 671
10000 10029 552
10001 10002 2
10002 10001 2
10003 9995 432
10003 10024 247
10003 10027 369
10004 10005 2950
10004 9908 71
10005 10004 2950
10005 9935 1401
10005 10013 17
10005 10028 568
10006 10007 750
10007 10006 750
10008 9974 2035
10008 9995 256
10008 10024 434
10009 10010 20
10009 10011 121
10009 10012 19
10010 10009 20
10011 10009 121
10012 10009 19
10013 10014 2973
10013 10005 17
10013 10036 904
10013 10162 2752
10014 10013 2973
10014 9909 69
10015 10016 43
10016 10015 43
10017 9999 370
10017 10048 1505
10017 10122 2497
10018 9978 833
10018 10037 714
10018 10045 564
10019 10020 28
10020 10019 28
10021 10000 671
10021 9914 2165
10021 10032 274
10022 10023 62
10023 10022 62
10024 10008 434
10024 10003 247
10024 10026 64
10025 9998 558
10025 9863 3264
10025 10038 523
10026 10024 64
10026 10027 58
10026 10047 511
10027 10026 58
10027 10003 369
10027 10077 2627
10028 10005 568
10028 10033 474
10028 10041 581
10029 10000 552
10029 10032 313
10029 10034 375
10030 10031 311
10031 10030 311
10032 10029 313
10032 10021 274
10032 10042 1040
10032 10057 1410
10033 10028 474
10033 10040 247
10033 10041 234
10034 10029 375
10035 9974 2320
10035 10047 716
10035 10059 724
10036 10013 904
10036 10049 765
10036 10050 539
10037 10018 714
10037 10039 10
10037 10042 178
10038 10025 523
10038 9863 4456
10038 10052 1409
10039 10037 10
10039 10043 49
10039 10044 341
10040 10033 247
10040 10051 72
10041 10028 581
10041 10033 234
10041 10135 2485
10042 10032 1040
10042 10037 178
10042 10043 143
10043 10042 143
10043 10039 49
10043 10057 537
10044 10039 341
10044 10045 107
10044 10066 726
10045 10044 107
10045 10018 564
10045 10073 1000
10046 9998 877
10046 10063 81
10047 10035 716
10047 10026 511
10047 10053 242
10048 9975 1578
10048 10017 1505
10048 10116 1781
10049 10036 765
10049 10054 673
10049 10137 1951
10050 10036 539
10050 10051 269
10050 10054 62
10051 10050 269
10051 10040 72
10052 10038 1409
10052 9929 2481
10052 10089 1351
10053 10047 242
10054 10050 62
10054 10049 673
10054 10058 193
10055 10056 333
10055 13584 69
10056 10055 333
10057 10032 1410
10057 10043 537
10057 10066 349
10058 10054 193
10058 10064 163
10059 10035 724
10060 10061 93
10061 10060 93
10062 10063 471
10062 10064 46
10062 10065 136
10063 10062 471
10063 10046 81
10064 10058 163
10064 10062 46
10064 10065 92
10065 10064 92
10065 10062 136
10065 10156 1227
10066 10057 349
10066 10044 726
10066 10068 221
10067 9904 3941
10067 10121 3476
10067 10162 4059
10067 10388 4698
10068 10066 221
10068 10073 142
10068 10075 139
10069 10070 864
10069 10108 478
10069 10117 662
10070 10069 864
10070 13583 68
10071 10072 235
10072 10071 235
10072 10092 413
10072 10107 465
10073 10068 142
10073 10045 1000
10073 10088 443
10074 10075 235
10075 10074 235
10075 10068 139
10075 10076 52
10076 10075 52
10076 10080 129
10076 10082 94
10077 10027 2627
10078 10079 1120
10079 10078 1120
10080 10076 129
10081 9992 2071
10081 10087 2010
10081 10109 1360
10082 10076 94
10083 10084 20
10084 10083 20
10085 10086 873
10086 10085 873
10087 10081 2010
10087 10089 760
10087 10146 725
10088 10073 443
10088 9978 3038
10088 10095 192
10089 10052 1351
10089 10087 760
10089 10119 357
10089 10138 1007
10090 10091 529
10091 10090 529
10092 10072 413
10092 10106 190
10092 10117 441
10093 10094 360
10094 10093 360
10095 10088 192
10095 10105 183
10095 10112 100
10096 10097 24
10097 10096 24
10098 10099 282
10099 10098 282
10099 10101 79
10099 10116 1044
10100 10101 252
10101 10100 252
10101 10099 79
10101 10105 433
10102 10103 26
10103 10102 26
10104 9992 4190
10105 10095 183
10105 10101 433
10105 10115 61
10106 10092 190
10106 10125 55
10107 10072 465
10107 10123 52
10108 10069 478
10108 10127 52
10109 10081 1360
10109 10132 593
10109 10185 951
10110 10111 27
10111 10110 27
10112 10095 100
10112 10115 129
10112 10129 167
10113 10114 31
10114 10113 31
10115 10105 61
10115 10112 129
10115 10189 1276
10116 10099 1044
10116 10048 1781
10116 10165 947
10117 10069 662
10117 10092 441
10117 10118 35
10117 10128 269
10118 10117 35
10118 10120 96
10119 10089 357
10119 10138 1182
10119 10139 461
10120 10118 96
10120 10133 66
10120 10134 94
10121 9897 5446
10121 10067 3476
10121 10240 2334
10122 10017 2497
10122 9999 3395
10122 10188 924
10123 10124 81
10123 10107 52
10124 10123 81
10124 10125 82
10124 10258 46
10125 10124 82
10125 10106 55
10126 10127 82
10126 10149 44
10127 10126 82
10127 10108 52
10128 10117 269
10128 10148 44
10129 10112 167
10129 10151 387
10130 10131 3
10131 10130 3
10132 10109 593
10132 10158 1109
10132 10191 842
10133 10120 66
10133 10134 70
10133 10142 1687
10134 10120 94
10134 10133 70
10134 10136 228
10135 10041 2485
10135 10223 547
10136 10134 228
10136 10174 3943
10136 10263 1790
10137 10049 1951
10137 10211 547
10138 10089 1007
10138 10119 1182
10138 10157 2465
10139 10119 461
10139 10146 308
10139 10173 650
10140 10141 439
10140 10142 75
10140 10226 1415
10141 10140 439
10142 10140 75
10142 10133 1687
10142 10205 1383
10143 10144 554
10143 10145 46
10143 10152 165
10143 10177 554
10144 10143 554
10145 10143 46
10146 10139 308
10146 10087 725
10146 10267 3682
10146 10546 5498
10147 10148 263
10147 10149 262
10147 10257 1392
10148 10147 263
10148 10128 44
10149 10147 262
10149 10126 44
10150 10151 10
10151 10150 10
10151 10129 387
10152 10143 165
10153 10154 7
10153 10155 5
10153 10166 369
10154 10153 7
10155 10153 5
10156 10065 1227
10156 10157 252
10156 10162 709
10157 10156 252
10157 10138 2465
10157 10197 533
10158 10132 1109
10158 10159 462
10158 10177 335
10158 10269 1553
10159 10158 462
10160 10161 95
10161 10160 95
10162 10013 2752
10162 10156 709
10162 10067 4059
10163 10164 19
10164 10163 19
10165 10116 947
10165 10180 184
10165 10190 2231
10166 10153 369
10167 10168 29
10168 10167 29
10169 10170 33
10170 10169 33
10171 10172 35
10172 10171 35
10173 10139 650
10173 10212 649
10173 10225 802
10174 10136 3943
10174 10186 3668
10174 10423 3592
10175 10176 34
10176 10175 34
10177 10158 335
10177 10143 554
10177 10204 452
10177 10299 1370
10178 10179 1
10179 10178 1
10180 10165 184
10180 10181 1132
10180 10182 355
10180 10297 1324
10181 10180 1132
10182 10180 355
10182 10189 809
10182 10272 1075
10183 10184 53
10184 10183 53
10185 10109 951
10185 10191 652
10186 10187 286
10186 10174 3668
10186 10209 345
10186 10313 1626
10187 10186 286
10188 10122 924
10188 10190 327
10188 10231 3110
10189 10115 1276
10189 10182 809
10189 10206 333
10190 10165 2231
10190 10188 327
10190 10359 1852
10191 10185 652
10191 10132 842
10191 10196 183
10191 10267 828
10192 10193 439
10193 10192 439
10194 10195 26
10195 10194 26
10196 10191 183
10197 10157 533
10197 10358 1855
10197 10374 2345
10198 10199 53
10199 10198 53
10200 10201 16
10201 10200 16
10202 10203 4144
10203 10202 4144
10203 10221 339
10204 10177 452
10204 10342 1567
10204 10414 4034
10205 10142 1383
10205 10222 227
10205 10243 1981
10206 10189 333
10206 10272 933
10206 10288 1285
10207 10208 16
10208 10207 16
10209 10186 345
10209 10302 33
10210 10211 819
10210 10250 370
10210 10264 557
10211 10210 819
10211 10137 547
10212 10173 649
10212 10255 437
10212 10276 793
10213 10214 168
10214 10213 168
10215 10216 13
10216 10215 13
10217 10218 25
10218 10217 25
10219 10220 21
10220 10219 21
10221 10203 339
10221 10334 1777
10221 10397 2166
10222 10205 227
10222 10226 1226
10222 10271 475
10223 10224 992
10223 10135 547
10224 10223 992
10224 10225 942
10224 10256 334
10225 10173 802
10225 10224 942
10225 10273 634
10226 10140 1415
10226 10222 1226
10226 10263 2442
10226 10387 2531
10227 10228 27
10228 10227 27
10229 10230 101
10230 10229 101
10231 10188 3110
10231 9846 8203
10231 10377 1602
10232 10233 6
10233 10232 6
10234 10235 35
10235 10234 35
10236 10237 19
10237 10236 19
10238 10239 155
10239 10238 155
10240 10121 2334
10240 10303 4258
10240 10430 2727
10241 10242 251
10242 10241 251
10243 10205 1981
10243 10281 1479
10243 10367 1384
10244 10245 6
10245 10244 6
10246 10247 4
10247 10246 4
10248 10249 2
10249 10248 2
10250 10210 370
10250 10275 293
10250 10296 526
10251 10252 93
10252 10251 93
10253 10254 18
10254 10253 18
10255 10212 437
10255 10274 242
10255 10309 572
10256 10224 334
10256 10260 52
10256 10262 52
10257 10147 1392
10257 10396 90
10258 10259 1662
10258 10124 46
10259 10258 1662
10259 10381 94
10260 10256 52
10260 10261 32
10260 10262 3
10260 10280 608
10261 10260 32
10261 10265 193
10262 10256 52
10262 10260 3
10262 10264 13
10262 10335 913
10263 10136 1790
10263 10226 2442
10263 10268 65
10264 10210 557
10264 10262 13
10264 10266 31
10264 10278 244
10265 10261 193
10265 10308 38
10266 10264 31
10266 10270 88
10267 10146 3682
10267 10191 828
10267 10269 299
10267 10407 2101
10268 10263 65
10268 10394 1695
10268 10423 2953
10269 10267 299
10269 10158 1553
10269 10299 920
10269 10310 433
10270 10266 88
10270 10275 56
10271 10222 475
10271 10387 1399
10271 10389 2718
10272 10206 933
10272 10182 1075
10272 10297 305
10273 10225 634
10273 10279 68
10273 10284 71
10274 10255 242
10274 10292 114
10275 10250 293
10275 10270 56
10275 10277 58
10275 10298 375
10276 10212 793
10276 10285 71
10277 10275 58
10277 10296 190
10278 10264 244
10278 10279 458
10278 10320 486
10279 10278 458
10279 10273 68
10280 10260 608
10280 10285 70
10281 10243 1479
10281 10282 359
10281 10305 2200
10281 10367 1551
10282 10281 359
10283 10284 130
10283 10322 60
10284 10283 130
10284 10273 71
10285 10286 123
10285 10276 71
10285 10280 70
10286 10285 123
10286 10311 64
10287 10288 669
10288 10287 669
10288 10206 1285
10288 10291 23
10289 10290 349
10290 10289 349
10291 10288 23
10291 10307 110
10292 10293 98
10292 10274 114
10293 10292 98
10293 10298 86
10294 10295 2808
10295 10294 2808
10296 10250 526
10296 10277 190
10296 10321 547
10297 10272 305
10297 10180 1324
10297 10315 204
10298 10275 375
10298 10293 86
10299 10269 920
10299 10177 1370
10299 10342 884
10300 10301 607
10300 10302 1490
10300 10317 230
10301 10300 607
10302 10300 1490
10302 10209 33
10303 10240 4258
10303 10357 938
10303 10492 2465
10304 10305 618
10305 10304 618
10305 10281 2200
10305 10319 2220
10305 10418 3491
10306 10307 24
10306 10352 518
10306 10354 908
10307 10306 24
10307 10291 110
10308 10309 450
10308 10265 38
10309 10308 450
10309 10255 572
10309 10335 343
10310 10269 433
10311 10312 380
10311 10286 64
10312 10311 380
10312 10320 870
10312 10361 1572
10313 10186 1626
10313 10314 77
10313 10318 79
10314 10313 77
10314 10316 84
10314 10343 340
10315 10297 204
10315 10328 801
10315 10341 368
10316 10314 84
10316 10331 228
10316 10332 309
10317 10300 230
10317 10325 494
10317 10340 264
10318 10313 79
10318 10343 316
10318 10424 1693
10319 10305 2220
10319 13585 49
10320 10312 870
10320 10278 486
10320 10351 361
10321 10296 547
10321 10322 693
10321 10358 1254
10322 10321 693
10322 10283 60
10323 10324 8402
10324 10323 8402
10325 10317 494
10326 10327 2
10327 10326 2
10328 10315 801
10328 10364 67
10329 10330 16
10330 10329 16
10331 10316 228
10331 10332 86
10331 10344 116
10332 10316 309
10332 10331 86
10332 10347 122
10332 10347 316
10333 10334 2001
10334 10333 2001
10334 10221 1777
10334 10399 1998
10335 10262 913
10335 10309 343
10335 10348 171
10336 10337 79
10337 10336 79
10338 10339 29
10339 10338 29
10340 10317 264
10340 10360 199
10340 10363 218
10341 10315 368
10341 10400 85
10342 10299 884
10342 10204 1567
10342 10376 405
10343 10314 340
10343 10318 316
10343 10344 88
10344 10331 116
10344 10343 88
10344 10347 87
10345 10346 80
10346 10345 80
10347 10332 122
10347 10344 87
10347 10332 316
10348 10335 171
10348 10368 64
10349 10350 4
10350 10349 4
10351 10320 361
10351 10371 60
10352 10306 518
10352 10353 940
10352 10354 402
10352 10380 391
10353 10352 940
10354 10306 908
10354 10352 402
10354 10379 326
10355 10356 355
10355 10359 294
10355 10372 240
10355 10377 3023
10356 10355 355
10357 9985 6493
10357 10303 938
10357 10373 738
10358 10197 1855
10358 10321 1254
10358 10361 13
10358 10374 1787
10359 10190 1852
10359 10355 294
10359 10362 254
10359 10372 290
10360 10340 199
10360 10363 169
10360 10366 417
10361 10358 13
10361 10312 1572
10361 10375 1805
10361 10546 2492
10362 10359 254
10362 10365 128
10363 10360 169
10363 10340 218
10363 10391 441
10364 10365 1180
10364 10328 67
10365 10364 1180
10365 10362 128
10366 10360 417
10367 10243 1384
10367 10281 1551
10367 10389 416
10368 10369 225
10368 10348 64
10369 10368 225
10369 10534 232
10370 10371 228
10370 10538 229
10371 10370 228
10371 10351 60
10372 10359 290
10372 10355 240
10372 10499 1360
10373 10357 738
10373 10377 2813
10373 10512 1406
10374 10197 2345
10374 10358 1787
10374 10375 20
10374 10388 2641
10375 10374 20
10375 10361 1805
10375 10390 2608
10375 10532 2090
10376 10342 405
10376 10540 3668
10376 10726 3696
10377 10231 1602
10377 10355 3023
10377 10373 2813
10377 10501 1292
10378 10379 94
10379 10378 94
10379 10354 326
10379 10380 405
10380 10379 405
10380 10352 391
10380 10392 1146
10380 10598 2142
10381 10382 1582
10381 10259 94
10382 10381 1582
10382 10413 731
10382 10421 800
10383 10384 62
10383 10385 32
10384 10383 62
10385 10386 77
10385 10383 32
10386 10385 77
10387 10226 2531
10387 10271 1399
10387 10479 990
10388 10067 4698
10388 10374 2641
10388 10390 18
10388 10416 4603
10389 10367 416
10389 10271 2718
10389 10418 663
10390 10388 18
10390 10375 2608
10390 10405 3484
10390 10532 1901
10391 10363 441
10391 10393 503
10391 10406 468
10392 10380 1146
10393 10391 503
10394 10268 1695
10394 10411 88
10395 10396 1900
10395 10429 580
10395 10445 1058
10396 10395 1900
10396 10257 90
10397 10398 441
10397 10221 2166
10397 10399 101
10398 10397 441
10399 10334 1998
10399 10397 101
10399 10402 78
10400 10401 882
10400 10341 85
10401 10400 882
10401 10564 1398
10401 10597 2222
10402 10399 78
10402 10403 201
10402 10427 400
10403 10402 201
10403 10404 169
10403 10422 279
10404 10403 169
10405 10390 3484
10405 10420 1128
10405 10507 1379
10406 10391 468
10406 10408 236
10406 10444 403
10407 10267 2101
10407 10535 1821
10407 10540 849
10408 10406 236
10409 10410 112
10410 10409 112
10410 10424 1001
10410 10502 2265
10411 10412 369
10411 10394 88
10412 10411 369
10413 10382 731
10413 10425 145
10413 10433 757
10414 10204 4034
10414 10415 173
10414 10565 1116
10415 10414 173
10416 10417 223
10416 10388 4603
10416 10419 30
10416 10420 14
10417 10416 223
10417 10419 324
10417 10430 488
10418 10389 663
10418 10305 3491
10418 10542 727
10419 10416 30
10419 10417 324
10419 10431 576
10420 10416 14
10420 10405 1128
10420 10439 608
10420 10507 419
10421 10382 800
10421 10426 457
10421 10428 86
10422 10403 279
10423 10174 3592
10423 10268 2953
10423 10502 376
10424 10318 1693
10424 10410 1001
10424 10557 1073
10425 10413 145
10425 10426 10
10425 10435 488
10425 10441 72
10426 10421 457
10426 10425 10
10426 10436 61
10426 10445 706
10427 10402 400
10427 10432 37
10427 10536 898
10428 10421 86
10428 10554 33
10429 10395 580
10429 10448 36
10430 10240 2727
10430 10417 488
10430 10431 6
10430 10442 141
10431 10430 6
10431 10419 576
10431 10439 13
10431 10442 142
10432 10427 37
10433 10413 757
10433 10434 731
10433 10435 245
10434 10433 731
10434 10478 65
10435 10425 488
10435 10433 245
10435 10498 546
10436 10426 61
10436 10455 269
10437 10438 92
10437 10463 82
10438 10437 92
10438 10500 89
10439 10431 13
10439 10420 608
10439 10440 4
10439 10443 146
10440 10439 4
10440 10443 147
10440 10507 889
10440 10548 1096
10441 10425 72
10441 10458 275
10442 10430 141
10442 10431 142
10442 10492 3502
10443 10439 146
10443 10440 147
10443 10497 3505
10444 10406 403
10445 10395 1058
10445 10426 706
10445 10446 169
10446 10445 169
10446 10455 583
10446 10486 1318
10447 10448 70
10447 10508 409
10447 10601 1176
10448 10447 70
10448 10429 36
10449 10450 480
10449 10471 95
10450 10449 480
10450 10460 65
10451 10452 7
10452 10451 7
10453 10454 249
10453 10485 2094
10453 10524 784
10454 10453 249
10454 10464 224
10454 10469 239
10455 10446 583
10455 10436 269
10456 10457 470
10456 10467 68
10457 10456 470
10457 10474 101
10458 10459 803
10458 10441 275
10459 10458 803
10459 10465 449
10459 10491 1095
10460 10461 307
10460 10450 65
10461 10460 307
10461 10476 28
10462 10463 758
10462 10495 133
10463 10462 758
10463 10437 82
10464 10454 224
10464 10468 485
10465 10459 449
10465 10468 351
10465 10503 387
10466 10467 304
10466 10482 26
10467 10466 304
10467 10456 68
10468 10465 351
10468 10464 485
10469 10454 239
10469 10508 400
10470 10471 1289
10470 10473 95
10471 10470 1289
10471 10449 95
10472 10473 271
10472 10493 225
10472 10531 512
10473 10472 271
10473 10493 339
10473 10470 95
10474 10475 1297
10474 10457 101
10475 10474 1297
10475 10483 97
10476 10477 424
10476 10461 28
10477 10476 424
10477 10487 27
10478 10479 1226
10478 10434 65
10479 10478 1226
10479 10387 990
10479 10480 2
10479 10485 23
10480 10479 2
10480 10521 66
10481 10482 429
10481 10490 25
10482 10481 429
10482 10466 26
10483 10484 108
10483 10475 97
10484 10483 108
10484 10496 225
10484 10531 454
10485 10453 2094
10485 10479 23
10485 10558 1848
10485 10602 1099
10486 10446 1318
10486 10488 73
10487 10488 425
10487 10477 27
10488 10487 425
10488 10486 73
10489 10490 412
10489 10491 81
10490 10489 412
10490 10481 25
10491 10459 1095
10491 10489 81
10492 10303 2465
10492 10497 17
10492 10442 3502
10492 10533 2239
10493 10472 225
10493 10473 339
10493 10506 57
10494 10495 492
10494 10610 60
10495 10494 492
10495 10462 133
10496 10484 225
10496 10509 58
10497 10492 17
10497 10443 3505
10497 10541 2236
10497 10635 1562
10498 10435 546
10498 10545 342
10499 10372 1360
10499 10511 3105
10499 10571 886
10499 10607 2010
10500 10501 1446
10500 10438 89
10501 10500 1446
10501 10377 1292
10501 10511 21
10501 10530 2178
10502 10410 2265
10502 10423 376
10502 10504 1400
10502 10824 4370
10503 10465 387
10503 10544 138
10504 10502 1400
10504 10517 70
10505 10506 100
10505 10520 45
10506 10505 100
10506 10493 57
10507 10440 889
10507 10420 419
10507 10405 1379
10507 10525 141
10508 10447 409
10508 10469 400
10509 10510 100
10509 10496 58
10510 10509 100
10510 10515 41
10511 10499 3105
10511 10501 21
10511 10539 2140
10511 10613 1130
10512 10373 1406
10512 10530 788
10512 10533 216
10513 10514 6376
10514 10513 6376
10515 10516 123
10515 10510 41
10516 10515 123
10516 10523 136
10516 10531 386
10517 10518 671
10517 10504 70
10518 10517 671
10518 10622 74
10519 10520 260
10519 10527 106
10520 10519 260
10520 10505 45
10521 10522 739
10521 10480 66
10522 10521 739
10522 10552 32
10523 10516 136
10523 10528 110
10524 10453 784
10524 10556 67
10525 10507 141
10525 10548 259
10526 10527 44
10527 10526 44
10527 10519 106
10528 10529 47
10528 10523 110
10529 10528 47
10530 10501 2178
10530 10512 788
10530 10539 40
10530 10533 751
10531 10516 386
10531 10472 512
10531 10484 454
10531 10547 132
10532 10390 1901
10532 10375 2090
10532 10732 2412
10533 10512 216
10533 10492 2239
10533 10541 23
10533 10530 751
10534 10535 2330
10534 10369 232
10535 10534 2330
10535 10407 1821
10535 10537 13
10535 10559 475
10536 10427 898
10537 10538 2327
10537 10535 13
10537 10549 251
10537 10634 3707
10538 10537 2327
10538 10370 229
10539 10511 2140
10539 10530 40
10539 10541 788
10539 10613 2201
10540 10407 849
10540 10376 3668
10540 10570 449
10541 10533 23
10541 10497 2236
10541 10539 788
10541 10651 1395
10542 10418 727
10542 10558 961
10542 10600 716
10543 10544 246
10543 10545 73
10543 10601 665
10544 10543 246
10544 10503 138
10545 10543 73
10545 10498 342
10546 10361 2492
10546 10146 5498
10546 10634 1147
10547 10531 132
10547 10557 196
10548 10440 1096
10548 10525 259
10548 10615 1025
10549 10537 251
10549 10588 439
10549 10589 541
10550 10551 6576
10550 10599 554
10550 10636 1891
10551 10550 6576
10552 10553 1014
10552 10522 32
10553 10552 1014
10553 10595 72
10554 10555 775
10554 10428 33
10555 10554 775
10555 10556 335
10555 10747 1944
10556 10555 335
10556 10524 67
10557 10547 196
10557 10424 1073
10557 10562 106
10558 10485 1848
10558 10542 961
10558 10600 848
10558 10602 1925
10559 10535 475
10559 10583 568
10559 10611 646
10560 10561 8
10561 10560 8
10562 10563 988
10562 10557 106
10562 10821 3259
10563 10562 988
10564 10401 1398
10564 10608 442
10564 10609 1198
10565 10414 1116
10566 10567 2
10567 10566 2
10568 10569 0
10569 10568 0
10570 10540 449
10570 10576 234
10570 10626 753
10571 10499 886
10571 10607 1577
10571 10970 7950
10572 10573 5
10573 10572 5
10574 10575 7
10575 10574 7
10576 10570 234
10576 10583 181
10577 10578 9
10578 10577 9
10579 10580 927
10580 10579 927
10580 10594 700
10580 10616 691
10581 10582 3
10581 10625 91
10582 10581 3
10583 10576 181
10583 10559 568
10583 10592 232
10583 10611 392
10584 10585 10
10585 10584 10
10586 10587 25
10587 10586 25
10587 10627 90
10588 10549 439
10588 10589 309
10588 10593 206
10589 10588 309
10589 10549 541
10589 10648 955
10590 10591 12
10591 10590 12
10592 10583 232
10592 10593 84
10593 10588 206
10593 10592 84
10594 10580 700
10594 10605 753
10594 10713 1366
10595 10596 731
10595 10553 72
10596 10595 731
10596 10603 72
10597 10401 2222
10597 10598 29
10597 10710 1170
10598 10380 2142
10598 10597 29
10598 10681 1724
10599 10550 554
10600 10558 848
10600 10542 716
10600 10702 1003
10600 10720 2038
10601 10543 665
10601 10447 1176
10601 10746 1466
10602 10485 1099
10602 10558 1925
10602 10623 1733
10602 10800 1866
10603 10604 94
10603 10596 72
10604 10603 94
10604 10620 139
10605 10606 432
10605 10594 753
10605 10612 471
10606 10605 432
10607 10499 2010
10607 10571 1577
10607 10609 54
10607 10662 1068
10608 10564 442
10608 10619 372
10608 10662 617
10609 10610 2029
10609 10607 54
10609 10564 1198
10609 10617 355
10610 10609 2029
10610 10494 60
10611 10559 646
10611 10583 392
10611 10696 990
10612 10605 471
10612 10647 2139
10612 10713 1198
10613 10511 1130
10613 10539 2201
10613 10614 1487
10613 10847 3048
10614 10613 1487
10615 10548 1025
10615 10700 5066
10615 10763 1547
10616 10580 691
10616 10618 282
10616 10689 675
10617 10609 355
10617 10633 42
10618 10616 282
10618 10629 129
10619 10608 372
10619 10637 218
10620 10621 446
10620 10604 139
10621 10620 446
10621 10675 71
10622 10623 1770
10622 10518 74
10623 10622 1770
10623 10602 1733
10623 10813 2478
10623 10863 3534
10624 10625 1819
10624 10631 47
10625 10624 1819
10625 10581 91
10626 10570 753
10626 10644 71
10627 10628 1829
10627 10587 90
10628 10627 1829
10628 10642 46
10629 10618 129
10629 10630 467
10629 10646 194
10629 10670 438
10630 10631 184
10630 10629 467
10630 10638 292
10631 10630 184
10631 10624 47
10632 10633 266
10632 10640 127
10633 10632 266
10633 10617 42
10634 10546 1147
10634 10537 3707
10634 10704 1545
10635 10497 1562
10635 10712 1378
10635 10812 2055
10636 10550 1891
10636 10666 223
10636 10678 289
10637 10619 218
10637 10641 34
10637 10653 263
10638 10630 292
10638 10655 67
10639 10640 47
10639 10649 137
10639 10652 131
10640 10639 47
10640 10632 127
10641 10637 34
10641 10673 170
10641 10682 419
10642 10643 466
10642 10670 396
10642 10628 46
10643 10642 466
10643 10670 268
10643 10656 66
10644 10645 143
10644 10626 71
10645 10644 143
10645 10943 4603
10645 11039 9435
10646 10629 194
10646 10664 84
10647 10612 2139
10647 10706 468
10647 10794 10399
10648 10589 955
10648 10717 689
10648 10717 629
10649 10639 137
10649 10653 91
10650 10651 1521
10651 10650 1521
10651 10541 1395
10651 10712 893
10651 10853 2767
10652 10639 131
10652 10672 111
10653 10637 263
10653 10649 91
10654 10655 132
10654 10665 88
10655 10654 132
10655 10638 67
10656 10657 132
10656 10643 66
10657 10656 132
10657 10679 91
10658 10659 6522
10659 10658 6522
10660 10661 14
10661 10660 14
10662 10608 617
10662 10607 1068
10662 10673 293
10662 10814 2086
10663 10664 97
10663 10665 102
10663 10677 1415
10664 10663 97
10664 10646 84
10665 10663 102
10665 10654 88
10666 10667 7175
10666 10636 223
10666 10678 331
10667 10666 7175
10668 10669 19
10669 10668 19
10670 10643 268
10670 10642 396
10670 10629 438
10671 10672 194
10671 10683 63
10672 10671 194
10672 10652 111
10673 10641 170
10673 10662 293
10673 10674 51
10673 10697 275
10674 10673 51
10674 10690 395
10674 10697 256
10675 10676 676
10675 10621 71
10676 10675 676
10676 10715 93
10677 10663 1415
10677 10692 50
10678 10666 331
10678 10636 289
10678 10705 225
10679 10680 1526
10679 10657 91
10680 10679 1526
10680 10693 50
10681 10598 1724
10681 10687 2388
10681 10790 932
10682 10641 419
10682 10683 321
10682 10686 76
10683 10682 321
10683 10671 63
10684 10685 1210
10684 10703 1224
10684 10753 1540
10685 10684 1210
10686 10682 76
10686 10699 57
10687 10688 711
10687 10695 247
10687 10681 2388
10687 10774 796
10688 10687 711
10689 10616 675
10689 10734 579
10689 10735 525
10690 10674 395
10690 10697 309
10690 10710 848
10691 10692 314
10691 10719 183
10692 10691 314
10692 10677 50
10693 10694 296
10693 10680 50
10694 10693 296
10694 10723 191
10695 10687 247
10695 10711 210
10695 10720 1288
10696 10611 990
10696 10738 594
10696 10738 641
10697 10690 309
10697 10674 256
10697 10673 275
10698 10699 337
10698 10709 57
10699 10698 337
10699 10686 57
10700 10615 5066
10700 10701 105
10700 10763 2271
10701 10700 105
10701 10728 1205
10701 10946 5071
10702 10600 1003
10702 10714 994
10702 10800 2805
10702 10886 2857
10703 10684 1224
10704 10634 1545
10704 10732 3752
10704 10728 14066
10705 10678 225
10706 10707 1121
10706 10647 468
10706 10784 662
10707 10706 1121
10708 10709 383
10708 10722 82
10709 10708 383
10709 10698 57
10710 10597 1170
10710 10690 848
10710 10790 1709
10710 10811 1511
10711 10695 210
10711 10725 81
10712 10651 893
10712 10635 1378
10712 10729 191
10713 10612 1198
10713 10594 1366
10713 10727 306
10713 10851 4159
10714 10702 994
10714 10720 742
10714 10909 3030
10715 10716 472
10715 10676 93
10716 10715 472
10716 10757 123
10717 10648 689
10717 10648 629
10717 10841 3120
10718 10719 565
10718 10761 214
10719 10718 565
10719 10691 183
10720 10600 2038
10720 10695 1288
10720 10714 742
10720 10751 664
10721 10722 233
10721 10756 33
10722 10721 233
10722 10708 82
10723 10724 575
10723 10694 191
10724 10723 575
10724 10772 203
10725 10711 81
10725 10733 141
10725 10774 606
10726 10376 3696
10726 10840 1910
10726 10977 6588
10727 10713 306
10728 10701 1205
10728 10732 112
10728 10704 14066
10729 10712 191
10730 10731 376
10730 10752 757
10730 10804 2428
10731 10730 376
10732 10728 112
10732 10532 2412
10732 10704 3752
10733 10725 141
10733 10740 51
10734 10689 579
10734 10735 171
10734 10817 1397
10734 10857 3271
10735 10689 525
10735 10734 171
10735 10817 1438
10736 10737 8
10736 10739 37
10736 10759 856
10737 10736 8
10738 10696 594
10738 10696 641
10738 10840 2779
10739 10736 37
10740 10741 71
10740 10733 51
10741 10740 71
10741 10758 442
10741 10771 212
10742 10743 28
10743 10742 28
10744 10745 10
10745 10744 10
10746 10601 1466
10746 10964 57
10747 10555 1944
10747 10953 56
10748 10749 145
10748 10750 152
10748 10753 684
10748 10781 343
10749 10748 145
10750 10748 152
10751 10720 664
10751 10771 499
10751 13590 499
10751 10786 381
10752 10730 757
10753 10684 1540
10753 10754 243
10753 10764 86
10753 10748 684
10754 10753 243
10755 10756 808
10755 10789 162
10756 10755 808
10756 10721 33
10757 10758 752
10757 10716 123
10758 10757 752
10758 10741 442
10758 10762 278
10759 10736 856
10760 10761 1836
10760 10780 165
10761 10760 1836
10761 10718 214
10762 10758 278
10762 10769 80
10763 10615 1547
10763 10700 2271
10763 10937 3333
10764 10753 86
10764 10765 2
10764 10825 4732
10764 10977 4654
10765 10764 2
10766 10767 1658
10767 10766 1658
10767 10768 581
10767 10803 1500
10767 11037 6565
10768 10767 581
10769 10770 143
10769 10762 80
10770 10769 143
10770 10775 148
10771 10751 499
10771 13590 499
10771 10741 212
10771 10778 557
10771 10786 270
10772 10773 1844
10772 10724 203
10773 10772 1844
10773 10783 166
10774 10725 606
10774 10687 796
10774 10776 4
10774 10777 29
10775 10776 205
10775 10770 148
10776 10775 205
10776 10774 4
10776 10777 27
10776 10778 26
10777 10776 27
10777 10774 29
10777 10785 664
10778 10771 557
10778 10776 26
10778 10790 2418
10778 10805 3606
10779 10780 220
10779 10782 58
10779 10791 355
10780 10779 220
10780 10760 165
10781 10748 343
10782 10779 58
10782 10783 173
10782 10797 399
10783 10782 173
10783 10773 166
10784 10706 662
10784 10875 2235
10784 10948 3471
10785 10777 664
10785 10792 42
10786 10751 381
10786 10787 111
10786 10771 270
10787 10786 111
10787 13590 165
10788 10789 402
10788 10799 57
10789 10788 402
10789 10755 162
10790 10681 932
10790 10710 1709
10790 10778 2418
10790 10805 627
10791 10779 355
10791 10987 631
10792 10793 606
10792 10785 42
10793 10792 606
10793 10798 26
10794 10795 2019
10794 10796 318
10794 10647 10399
10794 10980 5089
10795 10794 2019
10796 10794 318
10797 10782 399
10797 10978 618
10798 10799 1011
10798 10793 26
10799 10798 1011
10799 10788 57
10800 10602 1866
10800 10702 2805
10800 10813 1117
10801 10802 173
10802 10801 173
10803 10767 1500
10804 10730 2428
10805 10790 627
10805 10811 1649
10805 10778 3606
10805 10945 3934
10806 10807 39
10806 10808 90
10806 10856 1106
10807 10806 39
10808 10806 90
10809 10810 143
10810 10809 143
10811 10805 1649
10811 10710 1511
10811 10818 696
10812 10635 2055
10813 10623 2478
10813 10800 1117
10813 10850 1365
10813 10886 3797
10814 10662 2086
10814 10818 1125
10814 10970 3331
10815 10816 386
10816 10815 386
10817 10735 1438
10817 10734 1397
10817 10851 582
10817 10857 917
10818 10811 696
10818 10814 1125
10818 10945 2280
10819 10820 258
10820 10819 258
10820 10822 1074
10820 10825 1831
10820 10910 1356
10821 10562 3259
10821 10837 219
10821 10844 596
10822 10820 1074
10822 10823 352
10822 10860 1612
10822 10914 1476
10823 10822 352
10824 10502 4370
10824 10852 602
10824 10869 721
10825 10826 829
10825 10820 1831
10825 10764 4732
10826 10825 829
10827 10828 188
10827 10837 539
10827 10852 890
10827 10871 713
10828 10827 188
10829 10830 16
10830 10829 16
10831 10832 23
10832 10831 23
10833 10834 27
10834 10833 27
10835 10836 62
10836 10835 62
10837 10821 219
10837 10827 539
10837 10844 442
10837 10872 599
10838 10839 40
10839 10838 40
10840 10738 2779
10840 10726 1910
10840 10841 14
10840 10864 1071
10841 10717 3120
10841 10840 14
10841 10865 1067
10841 10974 2890
10842 10843 46
10843 10842 46
10844 10821 596
10844 10837 442
10844 10873 535
10845 10846 51
10846 10845 51
10847 10613 3048
10847 10956 4026
10847 10956 2322
10848 10849 0
10849 10848 0
10850 10813 1365
10850 10863 647
10850 10950 2273
10851 10817 582
10851 10713 4159
10851 11162 7982
10852 10827 890
10852 10824 602
10852 10870 282
10853 10651 2767
10853 10908 2353
10853 10971 2920
10854 10855 388
10855 10854 388
10856 10806 1106
10856 10887 430
10857 10817 917
10857 10734 3271
10857 10901 1557
10858 10859 358
10858 10866 454
10858 10900 687
10858 10905 678
10859 10858 358
10860 10822 1612
10860 10895 4206
10860 10922 1469
10861 10862 4133
10862 10861 4133
10863 10623 3534
10863 10850 647
10863 10874 413
10864 10840 1071
10864 11130 220
10865 10841 1067
10865 11135 222
10866 10858 454
10866 10883 1140
10867 10868 379
10867 10869 269
10867 10911 586
10868 10867 379
10868 10919 773
10868 10925 1433
10869 10824 721
10869 10867 269
10869 10870 402
10869 10907 474
10870 10852 282
10870 10869 402
10870 10871 538
10870 10896 304
10871 10827 713
10871 10870 538
10871 10872 406
10872 10837 599
10872 10871 406
10872 10873 476
10872 10912 564
10873 10844 535
10873 10872 476
10873 10906 434
10874 10863 413
10874 10920 73
10875 10784 2235
10876 10877 562
10877 10876 562
10878 10879 265
10879 10878 265
10879 10880 98
10879 10882 76
10880 10879 98
10880 10881 175
10880 10890 51
10881 10880 175
10882 10879 76
10882 10885 170
10882 10894 62
10883 10884 32
10883 10866 1140
10884 10883 32
10885 10882 170
10886 10702 2857
10886 10813 3797
10886 10909 1409
10886 11014 6676
10887 10856 430
10887 10893 241
10887 10897 269
10888 10889 255
10889 10888 255
10889 10915 697
10889 10922 3846
10890 10880 51
10890 10891 53
10890 10902 114
10891 10890 53
10891 10894 90
10891 10903 112
10892 10893 494
10893 10892 494
10893 10887 241
10893 10899 825
10893 11021 4019
10894 10882 62
10894 10891 90
10894 10897 106
10895 10860 4206
10896 10870 304
10896 10907 467
10896 10917 468
10897 10887 269
10897 10894 106
10897 10904 188
10898 10899 724
10899 10898 724
10899 10893 825
10899 10901 908
10899 10916 556
10900 10858 687
10900 10905 68
10900 10976 2894
10901 10857 1557
10901 10899 908
10901 10916 1085
10902 10890 114
10902 10903 59
10902 10906 589
10903 10891 112
10903 10902 59
10903 10904 19
10904 10897 188
10904 10903 19
10904 10961 1758
10905 10858 678
10905 10900 68
10905 11029 3718
10906 10902 589
10906 10873 434
10906 10912 584
10906 10924 913
10907 10896 467
10907 10869 474
10907 10911 289
10908 10853 2353
10908 11006 4451
10908 11119 6817
10909 10886 1409
10909 10714 3030
10909 10936 794
10910 10820 1356
10910 10914 1024
10910 11012 2268
10911 10907 289
10911 10867 586
10911 10919 481
10911 10923 329
10912 10906 584
10912 10872 564
10912 10913 530
10912 10924 371
10913 10912 530
10913 10917 266
10913 10939 452
10914 10910 1024
10914 10822 1476
10914 10918 474
10914 11004 1984
10915 10889 697
10916 10899 556
10916 10901 1085
10916 10929 265
10917 10913 266
10917 10896 468
10917 10923 815
10918 10914 474
10919 10911 481
10919 10868 773
10919 10928 233
10920 10921 2050
10920 10874 73
10921 10920 2050
10921 10925 553
10921 10941 487
10922 10860 1469
10922 10889 3846
10922 10927 855
10922 11004 3921
10923 10917 815
10923 10911 329
10923 10928 483
10923 10949 678
10924 10906 913
10924 10912 371
10924 10939 619
10925 10868 1433
10925 10921 553
10925 10926 49
10926 10925 49
10926 10928 392
10926 10940 291
10927 10922 855
10928 10923 483
10928 10919 233
10928 10926 392
10929 10916 265
10929 10930 127
10929 10934 270
10930 10929 127
10930 10931 140
10930 10934 90
10931 10930 140
10931 10934 214
10932 10933 84
10932 10935 32
10932 10976 1747
10933 10932 84
10934 10930 90
10934 10931 214
10934 10929 270
10935 10932 32
10936 10909 794
10937 10938 3443
10937 10763 3333
10937 10946 381
10937 10951 631
10938 10937 3443
10939 10924 619
10939 10913 452
10939 10944 230
10940 10926 291
10940 10941 311
10940 10942 437
10940 10947 420
10941 10940 311
10941 10921 487
10941 10947 264
10941 10972 2490
10942 10940 437
10943 10645 4603
10943 11008 4534
10943 11039 3153
10944 10939 230
10944 10961 1576
10944 11099 4885
10945 10805 3934
10945 10818 2280
10945 10989 3796
10946 10937 381
10946 10701 5071
10946 10951 503
10946 10955 600
10947 10940 420
10947 10941 264
10947 10958 461
10947 10972 1784
10948 10784 3471
10949 10923 678
10950 10850 2273
10950 10952 80
10950 10999 956
10951 10937 631
10951 10946 503
10951 10992 984
10951 11030 2200
10952 10950 80
10952 10957 124
10952 10954 371
10953 10954 3826
10953 10747 56
10954 10953 3826
10954 10952 371
10954 10985 688
10955 10946 600
10956 10847 4026
10956 10847 2322
10956 10969 353
10957 10952 124
10957 10960 173
10957 10985 603
10958 10959 744
10958 10947 461
10958 11058 3685
10959 10958 744
10960 10957 173
10960 10965 94
10961 10904 1758
10961 10944 1576
10961 10962 81
10962 10961 81
10962 10973 561
10962 10990 448
10963 10964 4144
10963 10966 176
10963 10984 370
10964 10963 4144
10964 10746 57
10965 10966 161
10965 10960 94
10966 10965 161
10966 10963 176
10966 10984 334
10967 10968 111
10968 10967 111
10968 11000 662
10969 10956 353
10969 10971 732
10969 11005 498
10970 10814 3331
10970 10571 7950
10970 10989 270
10971 10969 732
10971 10853 2920
10971 10975 912
10971 10982 112
10972 10947 1784
10972 10941 2490
10972 10997 580
10973 10962 561
10974 10841 2890
10974 10991 1833
10974 11008 410
10975 10971 912
10976 10900 2894
10976 10932 1747
10976 11029 1990
10976 11063 3764
10977 10726 6588
10977 10764 4654
10977 11025 5279
10978 10979 6008
10978 10797 618
10979 10978 6008
10979 10993 276
10979 10996 238
10980 10794 5089
10980 10981 504
10980 11011 607
10981 10980 504
10981 10983 64
10982 10971 112
10982 11010 538
10982 11018 835
10983 10981 64
10983 10988 39
10983 11009 374
10984 10966 334
10984 10963 370
10984 11048 2659
10985 10954 688
10985 10957 603
10985 11045 2644
10986 10987 6142
10986 10988 329
10986 10994 210
10987 10986 6142
10987 10791 631
10988 10983 39
10988 10986 329
10988 10994 196
10989 10970 270
10989 10945 3796
10989 11019 992
10990 10962 448
10990 11015 528
10990 11016 551
10991 10974 1833
10992 10951 984
10992 11006 880
10992 11020 1087
10993 10979 276
10993 10995 52
10993 10996 176
10994 10988 196
10994 10986 210
10994 10995 33
10994 11009 307
10995 10994 33
10995 10993 52
10995 10996 213
10995 11013 340
10996 10993 176
10996 10979 238
10996 10995 213
10997 10972 580
10997 10998 50
10998 10999 97
10998 10997 50
10999 10998 97
10999 10950 956
10999 11014 180
11000 10968 662
11000 11001 167
11000 11002 31
11001 11000 167
11002 11000 31
11002 11003 152
11002 11024 1414
11003 11002 152
11003 11007 395
11004 10914 1984
11004 10922 3921
11004 11012 1070
11004 11034 1266
11005 10969 498
11005 11010 308
11005 11033 3164
11006 10908 4451
11006 10992 880
11006 11023 1546
11007 11003 395
11007 11040 4655
11007 11049 2556
11008 10943 4534
11008 10974 410
11008 11077 3027
11009 10983 374
11009 10994 307
11009 11011 31
11010 11005 308
11010 10982 538
11010 11018 410
11011 10980 607
11011 11009 31
11011 11013 34
11011 11037 4666
11012 10910 2268
11012 11004 1070
11012 11025 818
11013 11011 34
11013 10995 340
11013 11038 4690
11013 11162 10532
11014 10999 180
11014 10886 6676
11014 11051 2543
11015 10990 528
11016 10990 551
11016 11017 416
11016 11026 656
11017 11016 416
11018 11010 410
11018 10982 835
11018 11125 3478
11019 10989 992
11019 11033 1398
11019 11156 3546
11020 10992 1087
11020 11030 739
11020 11322 8818
11021 11022 509
11021 10893 4019
11021 11027 1731
11021 11042 1442
11022 11021 509
11023 11006 1546
11024 11002 1414
11025 10977 5279
11025 11012 818
11025 11035 1145
11026 11016 656
11027 11028 224
11027 11021 1731
11027 11042 2425
11027 11127 3442
11028 11027 224
11029 10905 3718
11029 10976 1990
11029 11166 3462
11030 11020 739
11030 10951 2200
11030 11031 27
11031 11030 27
11031 11032 4717
11031 11128 3618
11032 11031 4717
11032 11041 3486
11032 11193 4753
11033 11019 1398
11033 11005 3164
11033 11163 3196
11034 11004 1266
11034 11035 2
11034 11036 2
11035 11025 1145
11035 11034 2
11035 11036 0
11035 11098 2016
11036 11035 0
11036 11034 2
11036 11183 4316
11037 10767 6565
11037 11011 4666
11037 11038 23
11037 11062 4830
11038 11037 23
11038 11013 4690
11038 11065 4822
11038 11226 5787
11039 10645 9435
11039 10943 3153
11039 11060 1073
11040 11007 4655
11041 11032 3486
11041 11046 1593
11041 11390 8208
11042 11027 2425
11042 11021 1442
11042 11047 947
11043 11044 169
11044 11043 169
11045 10985 2644
11045 11341 69
11046 11041 1593
11046 11060 1180
11046 11177 2945
11047 11042 947
11047 11099 4711
11047 11178 2328
11048 10984 2659
11048 11350 75
11049 11007 2556
11049 11059 325
11049 11088 782
11050 11051 351
11050 11090 13
11051 11050 351
11051 11014 2543
11051 11340 5775
11052 11053 111
11052 11067 439
11052 11076 418
11053 11052 111
11054 11055 838
11054 11059 2606
11054 11129 1430
11055 11054 838
11056 11057 310
11057 11056 310
11057 11061 427
11057 11068 252
11058 10958 3685
11058 11090 2440
11058 11099 1101
11059 11049 325
11059 11054 2606
11059 11100 840
11060 11046 1180
11060 11039 1073
11060 11071 3790
11060 11177 1957
11061 11057 427
11062 11037 4830
11062 13591 82
11063 10976 3764
11063 11064 272
11063 11066 245
11063 11075 269
11064 11063 272
11065 11038 4822
11065 13592 90
11066 11063 245
11067 11052 439
11067 11076 369
11067 11112 1215
11068 11057 252
11068 11072 496
11068 11075 631
11068 11109 889
11069 11070 637
11070 11069 637
11071 11060 3790
11071 11077 1550
11071 11210 8401
11072 11068 496
11072 11073 101
11072 11074 112
11072 11096 256
11073 11072 101
11074 11072 112
11075 11063 269
11075 11068 631
11075 11076 768
11075 11109 513
11076 11067 369
11076 11052 418
11076 11075 768
11076 11112 539
11077 11071 1550
11077 11008 3027
11077 11152 9866
11077 11210 2849
11078 11079 334
11078 11093 238
11079 11078 334
11079 13593 186
11080 11081 215
11081 11080 215
11082 11083 2778
11083 11082 2778
11084 11085 58
11085 11084 58
11086 11087 331
11086 13594 204
11087 11086 331
11087 11093 242
11088 11049 782
11088 11089 92
11088 11094 80
11089 11088 92
11089 11091 279
11089 11092 66
11090 11058 2440
11090 11050 13
11091 11089 279
11091 11092 160
11091 11101 131
11092 11089 66
11092 11091 160
11092 11094 92
11092 11095 27
11093 11078 238
11093 11087 242
11093 11102 236
11094 11088 80
11094 11092 92
11094 11100 302
11094 11108 246
11095 11092 27
11096 11072 256
11097 11098 2706
11097 11152 64
11098 11097 2706
11098 11035 2016
11098 11104 167
11099 10944 4885
11099 11058 1101
11099 11047 4711
11100 11059 840
11100 11094 302
11100 11111 266
11101 11091 131
11101 11116 541
11102 11093 236
11102 11103 475
11102 11133 589
11103 11102 475
11103 11113 2429
11103 11133 865
11104 11098 167
11104 11110 79
11104 11120 392
11105 11106 927
11105 11107 1241
11105 11126 3531
11105 11150 696
11106 11105 927
11107 11105 1241
11108 11094 246
11108 11111 476
11108 11116 291
11109 11075 513
11109 11068 889
11109 11112 1033
11109 11136 457
11110 11104 79
11110 11146 701
11110 11183 1593
11111 11100 266
11111 11108 476
11111 11169 1412
11112 11067 1215
11112 11076 539
11112 11109 1033
11112 11148 462
11113 11103 2429
11114 11115 4
11115 11114 4
11116 11108 291
11116 11101 541
11116 11124 710
11117 11118 36
11118 11117 36
11119 10908 6817
11119 11125 1609
11119 11289 3696
11120 11104 392
11120 11132 215
11121 11122 39
11122 11121 39
11123 11124 2443
11124 11123 2443
11124 11116 710
11124 11164 608
11125 11018 3478
11125 11119 1609
11125 11163 3150
11125 11213 1800
11126 11105 3531
11127 11027 3442
11127 11162 1972
11127 11178 4105
11128 11031 3618
11128 11193 1502
11128 11212 1638
11129 11054 1430
11130 11131 11501
11130 10864 220
11131 11130 11501
11131 11132 911
11131 11180 1112
11132 11120 215
11132 11131 911
11132 11155 539
11132 11180 918
11133 11103 865
11133 11102 589
11133 11153 301
11134 11135 11513
11134 11154 332
11134 11165 501
11135 11134 11513
11135 10865 222
11136 11109 457
11136 11137 363
11136 11148 1267
11136 11184 998
11137 11136 363
11138 11139 170
11139 11138 170
11140 11141 20
11141 11140 20
11142 11143 146
11142 11147 59
11142 11149 105
11143 11142 146
11144 11145 204
11144 11147 73
11144 11157 387
11145 11144 204
11146 11110 701
11146 11167 48
11147 11142 59
11147 11144 73
11147 11164 428
11148 11112 462
11148 11136 1267
11148 11179 624
11149 11142 105
11150 11151 3140
11150 11105 696
11150 11170 3897
11150 11221 1983
11151 11150 3140
11152 11077 9866
11152 11097 64
11153 11133 301
11153 11201 1991
11153 11219 2102
11154 11134 332
11154 11159 216
11154 11165 366
11155 11132 539
11155 11159 72
11156 11019 3546
11156 11181 1129
11156 11465 8598
11157 11144 387
11157 11158 392
11157 11202 2706
11158 11157 392
11159 11154 216
11159 11155 72
11160 11161 221
11161 11160 221
11162 10851 7982
11162 11013 10532
11162 11127 1972
11162 11230 1944
11163 11033 3196
11163 11125 3150
11163 11181 532
11164 11124 608
11164 11147 428
11164 11190 754
11165 11154 366
11165 11134 501
11165 11217 1941
11166 11029 3462
11166 11174 5095
11166 11232 1940
11167 11168 357
11167 11146 48
11168 11167 357
11168 11438 74
11169 11111 1412
11169 11189 645
11169 11194 992
11170 11150 3897
11170 11171 292
11170 11182 328
11170 11185 2197
11171 11170 292
11172 11173 786
11173 11172 786
11174 11166 5095
11175 11176 48
11176 11175 48
11177 11046 2945
11177 11060 1957
11177 11225 1694
11178 11127 4105
11178 11047 2328
11178 11340 8958
11179 11148 624
11179 11184 1595
11179 11203 599
11180 11131 1112
11180 11132 918
11180 11216 1362
11181 11156 1129
11181 11163 532
11181 11213 3504
11182 11170 328
11182 11196 296
11182 11199 2188
11183 11110 1593
11183 11036 4316
11183 11218 1075
11184 11179 1595
11184 11136 998
11184 11191 853
11184 11211 599
11185 11170 2197
11185 11186 308
11185 11197 3165
11185 11199 243
11186 11185 308
11187 11188 1657
11188 11187 1657
11188 11198 889
11188 11200 2707
11188 11249 1620
11189 11169 645
11189 11194 1086
11189 11238 1402
11190 11164 754
11190 11202 230
11190 11202 196
11191 11184 853
11191 11192 257
11191 11214 659
11192 11191 257
11193 11128 1502
11193 11032 4753
11193 11212 837
11193 11390 6395
11194 11195 1788
11194 11169 992
11194 11189 1086
11195 11194 1788
11196 11182 296
11197 11185 3165
11198 11188 889
11199 11182 2188
11199 11185 243
11199 11223 2559
11199 11296 2372
11200 11188 2707
11201 11153 1991
11201 11219 870
11201 11226 1463
11202 11190 230
11202 11190 196
11202 11157 2706
11203 11179 599
11203 11211 1601
11203 11220 598
11204 11205 94
11205 11204 94
11206 11207 88
11207 11206 88
11208 11209 106
11209 11208 106
11210 11077 2849
11210 11227 884
11210 11071 8401
11211 11203 1601
11211 11184 599
11211 11214 1102
11211 11224 600
11212 11128 1638
11212 11193 837
11212 11237 1889
11212 11466 9973
11213 11181 3504
11213 11125 1800
11213 11295 1963
11214 11211 1102
11214 11191 659
11214 11215 155
11214 11231 613
11215 11214 155
11216 11180 1362
11216 11239 279
11217 11165 1941
11217 11242 291
11218 11183 1075
11218 11240 535
11218 11287 3524
11219 11153 2102
11219 11201 870
11219 11253 955
11220 11203 598
11220 11224 1593
11220 11263 1910
11221 11150 1983
11221 11222 501
11221 11246 5421
11221 11315 2909
11222 11221 501
11223 11199 2559
11223 11228 296
11223 11357 2989
11224 11220 1593
11224 11211 600
11224 11229 783
11224 11250 466
11225 11177 1694
11225 11428 6629
11225 11436 5684
11226 11201 1463
11226 11038 5787
11226 11253 1187
11226 11534 11128
11227 11210 884
11227 11376 2758
11227 11434 5921
11228 11223 296
11228 11307 2073
11228 11368 2925
11229 11224 783
11229 11231 428
11229 11252 462
11230 11162 1944
11230 11236 880
11230 11459 6397
11231 11229 428
11231 11214 613
11231 11233 146
11231 11258 545
11232 11166 1940
11232 11234 982
11232 11247 301
11233 11231 146
11234 11232 982
11234 11235 89
11234 11244 608
11234 11274 784
11235 11234 89
11236 11230 880
11237 11212 1889
11238 11189 1402
11239 11240 509
11239 11216 279
11240 11239 509
11240 11218 535
11240 11241 15
11240 11299 2002
11241 11242 516
11241 11240 15
11241 11243 15
11241 11300 2002
11242 11241 516
11242 11217 291
11243 11241 15
11243 11437 10175
11243 11487 7080
11244 11234 608
11244 11260 853
11244 11269 682
11245 11246 6406
11246 11245 6406
11246 11221 5421
11246 11388 5407
11247 11232 301
11247 11251 1798
11247 11265 507
11248 11249 1454
11249 11248 1454
11249 11188 1620
11249 11382 3103
11250 11224 466
11250 11252 780
11250 11263 351
11251 11247 1798
11251 11259 243
11251 11297 1128
11252 11250 780
11252 11229 462
11252 11258 692
11252 11261 233
11253 11219 955
11253 11226 1187
11253 11427 4800
11254 11255 85
11254 11256 56
11254 11260 139
11255 11254 85
11256 11254 56
11256 11257 47
11256 11262 159
11257 11256 47
11258 11231 545
11258 11252 692
11258 11264 247
11259 11251 243
11259 11273 795
11259 11280 286
11260 11244 853
11260 11254 139
11260 11262 88
11261 11252 233
11262 11260 88
11262 11256 159
11262 11281 459
11263 11220 1910
11263 11250 351
11263 11279 1412
11263 11301 705
11264 11258 247
11264 11279 314
11264 11279 512
11265 11247 507
11265 11266 13
11265 11274 931
11265 11304 2470
11266 11265 13
11266 11276 914
11266 11306 2468
11266 11278 3299
11267 11268 2579
11268 11267 2579
11268 11330 2338
11268 11447 6654
11269 11270 217
11269 11244 682
11269 11308 1428
11270 11269 217
11270 11271 360
11270 11272 396
11271 11270 360
11271 11275 668
11271 11283 323
11272 11270 396
11272 11284 282
11272 11293 453
11273 11259 795
11273 11280 498
11273 11280 893
11274 11265 931
11274 11234 784
11274 11275 11
11274 11277 14
11275 11274 11
11275 11271 668
11275 11293 718
11276 11266 914
11276 11277 13
11276 11278 13
11277 11276 13
11277 11274 14
11277 11278 1
11277 11285 456
11278 11276 13
11278 11277 1
11278 11290 498
11278 11266 3299
11279 11263 1412
11279 11264 314
11279 11264 512
11280 11259 286
11280 11273 498
11280 11273 893
11281 11262 459
11281 11282 260
11281 11286 234
11282 11281 260
11283 11271 323
11283 11288 60
11284 11272 282
11284 11290 57
11285 11277 456
11285 11288 583
11285 11346 2104
11286 11281 234
11286 11291 103
11286 11308 521
11287 11218 3524
11287 11312 1777
11287 11314 563
11288 11285 583
11288 11283 60
11289 11119 3696
11289 11294 1287
11289 11322 3224
11289 11490 6660
11290 11278 498
11290 11284 57
11291 11286 103
11291 11292 281
11291 11298 367
11292 11291 281
11293 11275 718
11293 11272 453
11293 11343 1827
11294 11289 1287
11294 11295 184
11294 11495 6996
11295 11213 1963
11295 11294 184
11295 11465 7225
11296 11199 2372
11296 11302 279
11296 11357 1970
11297 11251 1128
11297 11312 556
11298 11291 367
11298 11303 693
11298 11313 396
11299 11240 2002
11299 11326 63
11300 11241 2002
11300 11329 61
11301 11263 705
11301 11317 279
11301 11318 273
11301 11319 280
11302 11296 279
11302 11305 2145
11302 11377 2274
11303 11298 693
11303 11316 165
11303 11320 533
11304 11265 2470
11304 11327 366
11305 11302 2145
11305 11315 349
11305 11380 4749
11306 11266 2468
11306 11328 366
11307 11228 2073
11307 11381 2040
11307 11393 2271
11308 11269 1428
11308 11286 521
11308 11309 250
11308 11343 431
11309 11308 250
11309 11310 132
11309 11311 112
11310 11309 132
11311 11309 112
11311 11313 105
11311 11347 470
11312 11287 1777
11312 11297 556
11313 11311 105
11313 11298 396
11313 11316 524
11313 11334 304
11314 11287 563
11314 11383 115
11315 11305 349
11315 11221 2909
11315 11388 3404
11316 11313 524
11316 11303 165
11316 11320 519
11316 11331 153
11317 11301 279
11317 11321 54
11317 11323 36
11318 11301 273
11318 11336 178
11319 11301 280
11319 11324 33
11319 11325 64
11320 11316 519
11320 11303 533
11320 11321 241
11321 11320 241
11321 11317 54
11321 11323 63
11322 11289 3224
11322 11020 8818
11322 11479 5259
11323 11321 63
11323 11317 36
11323 11324 37
11324 11323 37
11324 11319 33
11324 11325 67
11325 11324 67
11325 11319 64
11325 11379 3091
11326 11327 3238
11326 11299 63
11327 11326 3238
11327 11304 366
11328 11329 3245
11328 11306 366
11329 11328 3245
11329 11300 61
11330 11268 2338
11330 11337 443
11330 11337 473
11331 11316 153
11331 11332 30
11331 11333 261
11332 11331 30
11333 11331 261
11334 11313 304
11335 11336 92
11335 11338 42
11336 11335 92
11336 11318 178
11337 11330 443
11337 11330 473
11337 11339 1381
11337 11462 5423
11338 11335 42
11338 11344 80
11338 11348 220
11339 11337 1381
11340 11178 8958
11340 11051 5775
11340 11345 72
11340 11367 1943
11341 11342 6270
11341 11045 69
11342 11341 6270
11342 11351 139
11342 11352 148
11343 11293 1827
11343 11308 431
11343 11346 15
11343 11353 1703
11344 11338 80
11344 11353 456
11344 11354 230
11345 11340 72
11345 11395 191
11346 11285 2104
11346 11343 15
11346 11355 1691
11346 11371 501
11347 11311 470
11347 11374 77
11348 11338 220
11348 11356 166
11348 11358 429
11349 11350 6383
11349 11366 188
11350 11349 6383
11350 11048 75
11351 11342 139
11351 11369 181
11352 11342 148
11352 11361 99
11353 11343 1703
11353 11344 456
11353 11358 773
11354 11344 230
11354 11360 58
11355 11346 1691
11355 11359 770
11355 11363 408
11356 11348 166
11356 11363 141
11357 11296 1970
11357 11223 2989
11357 11368 302
11358 11353 773
11358 11348 429
11358 11386 2463
11359 11360 455
11359 11355 770
11359 11387 2476
11360 11359 455
11360 11354 58
11361 11362 233
11361 11352 99
11362 11361 233
11362 11364 87
11362 11365 428
11362 11370 314
11363 11355 408
11363 11356 141
11364 11362 87
11364 11367 94
11365 11362 428
11365 11366 124
11365 11375 205
11366 11365 124
11366 11375 242
11366 11349 188
11367 11364 94
11367 11340 1943
11367 11523 17076
11368 11357 302
11368 11228 2925
11368 11377 262
11368 11381 1789
11369 11370 182
11369 11351 181
11370 11369 182
11370 11362 314
11370 11431 2577
11371 11372 595
11371 11346 501
11371 11373 96
11372 11371 595
11373 11371 96
11373 11374 422
11373 11389 1138
11374 11373 422
11374 11347 77
11375 11365 205
11375 11366 242
11375 11430 2518
11376 11227 2758
11377 11302 2274
11377 11368 262
11377 11378 256
11377 11385 1811
11378 11377 256
11378 11380 220
11378 11392 1815
11379 11325 3091
11379 11382 379
11379 11386 351
11380 11305 4749
11380 11378 220
11380 11453 2696
11381 11368 1789
11381 11307 2040
11381 11385 262
11381 11393 1360
11382 11379 379
11382 11249 3103
11382 11417 2558
11383 11384 1648
11383 11314 115
11384 11383 1648
11384 11514 5520
11384 11690 8352
11385 11377 1811
11385 11381 262
11385 11392 260
11385 11399 1329
11386 11358 2463
11386 11379 351
11386 11387 14
11386 11425 2756
11387 11359 2476
11387 11386 14
11387 11426 2753
11387 11499 6982
11388 11246 5407
11388 11315 3404
11388 11391 3430
11388 11453 9257
11389 11373 1138
11389 11445 5225
11389 11497 4301
11390 11193 6395
11390 11041 8208
11390 11446 2106
11391 11388 3430
11392 11378 1815
11392 11385 260
11392 11415 1290
11392 11452 2154
11393 11381 1360
11393 11307 2271
11393 11399 266
11393 11419 2613
11394 11395 1628
11394 11416 868
11394 11420 982
11395 11394 1628
11395 11345 191
11396 11397 179
11396 11398 349
11396 11403 126
11397 11396 179
11398 11396 349
11399 11385 1329
11399 11393 266
11399 11406 467
11399 11429 1108
11400 11401 16
11401 11400 16
11402 11403 150
11403 11402 150
11403 11396 126
11403 11404 362
11404 11403 362
11404 11405 102
11404 11407 254
11404 11414 169
11405 11404 102
11406 11399 467
11406 11418 487
11406 11432 2188
11407 11404 254
11408 11409 386
11409 11408 386
11409 11414 225
11409 11421 789
11410 11411 62
11411 11410 62
11412 11413 16
11413 11412 16
11414 11409 225
11414 11404 169
11414 11423 1809
11415 11392 1290
11416 11394 868
11417 11382 2558
11417 11425 368
11417 11447 2066
11418 11406 487
11418 11429 435
11418 11448 2332
11419 11393 2613
11419 11427 714
11419 11432 331
11420 11394 982
11420 11430 1569
11420 11493 2671
11421 11422 348
11421 11409 789
11421 11546 3793
11422 11421 348
11423 11414 1809
11423 11424 99
11423 11441 765
11423 11505 3241
11424 11423 99
11425 11386 2756
11425 11417 368
11425 11426 14
11425 11458 2000
11426 11387 2753
11426 11425 14
11426 11460 1994
11426 11498 3249
11427 11419 714
11427 11253 4800
11427 11442 325
11427 11443 886
11428 11225 6629
11428 11433 3282
11428 11436 3102
11429 11399 1108
11429 11418 435
11429 11486 2023
11430 11420 1569
11430 11375 2518
11430 11431 15
11430 11485 1763
11431 11430 15
11431 11370 2577
11431 11435 700
11431 11483 1753
11432 11406 2188
11432 11419 331
11432 11442 641
11432 11448 519
11433 11428 3282
11433 11434 4972
11433 11449 578
11434 11433 4972
11434 11227 5921
11434 11437 1809
11434 11598 4644
11435 11431 700
11436 11225 5684
11436 11428 3102
11436 11446 607
11437 11434 1809
11437 11438 10223
11437 11243 10175
11438 11437 10223
11438 11168 74
11439 11440 1560
11439 11457 980
11439 11459 3560
11440 11439 1560
11441 11423 765
11442 11432 641
11442 11427 325
11442 11450 1068
11442 11451 449
11443 11427 886
11443 11444 57
11443 11450 403
11443 11455 1538
11444 11443 57
11445 11389 5225
11446 11390 2106
11446 11436 607
11446 11494 8978
11446 11705 7258
11447 11417 2066
11447 11268 6654
11447 11458 733
11447 11462 1885
11448 11418 2332
11448 11432 519
11448 11451 603
11448 11489 3791
11449 11433 578
11449 11565 3586
11449 11598 5744
11450 11442 1068
11450 11443 403
11450 11454 474
11450 11461 499
11451 11448 603
11451 11442 449
11451 11461 1224
11451 11488 1605
11452 11392 2154
11452 11453 1444
11452 11486 2484
11453 11380 2696
11453 11452 1444
11453 11388 9257
11454 11450 474
11454 11463 357
11454 11534 5891
11455 11443 1538
11456 11457 712
11457 11456 712
11457 11439 980
11457 11504 1783
11458 11425 2000
11458 11447 733
11458 11460 13
11458 11473 862
11459 11439 3560
11459 11230 6397
11459 11515 2605
11460 11426 1994
11460 11458 13
11460 11470 568
11460 11561 2876
11461 11451 1224
11461 11450 499
11461 11463 400
11461 11488 1534
11462 11447 1885
11462 11337 5423
11462 11464 217
11462 11468 221
11463 11461 400
11463 11454 357
11463 11472 1050
11463 11489 1080
11464 11462 217
11464 11467 40
11464 11478 402
11465 11156 8598
11465 11295 7225
11465 11502 1517
11466 11212 9973
11466 11479 3486
11466 11494 2612
11466 11612 4499
11467 11464 40
11467 11574 4472
11468 11462 221
11468 11469 582
11468 11471 612
11469 11468 582
11469 11475 195
11469 11476 275
11470 11460 568
11470 11477 698
11470 11482 789
11471 11468 612
11471 11473 479
11471 11474 172
11472 11463 1050
11473 11458 862
11473 11471 479
11473 11476 586
11474 11471 172
11474 11481 70
11475 11469 195
11475 11482 70
11476 11473 586
11476 11469 275
11476 11478 893
11477 11470 698
11477 11480 1084
11477 11481 605
11478 11476 893
11478 11464 402
11478 11480 13
11478 11580 3906
11479 11322 5259
11479 11466 3486
11479 11490 1619
11480 11477 1084
11480 11478 13
11480 11530 1892
11480 11581 3896
11481 11477 605
11481 11474 70
11482 11470 789
11482 11475 70
11483 11431 1753
11483 11484 501
11483 11485 19
11483 11755 5695
11484 11483 501
11485 11430 1763
11485 11483 19
11485 11493 1406
11485 11775 5966
11486 11452 2484
11486 11429 2023
11486 11496 1248
11486 11542 3289
11487 11243 7080
11488 11451 1605
11488 11461 1534
11489 11463 1080
11489 11448 3791
11489 11516 661
11490 11289 6660
11490 11479 1619
11490 11495 1196
11490 12385 20261
11491 11492 7180
11492 11491 7180
11493 11420 2671
11493 11485 1406
11493 11578 1839
11494 11466 2612
11494 11446 8978
11494 11599 2500
11495 11294 6996
11495 11490 1196
11495 11513 5557
11496 11486 1248
11497 11389 4301
11497 11499 771
11497 11663 3175
11498 11426 3249
11498 11499 4920
11498 11608 2497
11499 11387 6982
11499 11497 771
11499 11498 4920
11500 11501 386
11501 11500 386
11502 11465 1517
11502 11513 326
11502 11521 213
11502 11527 1816
11503 11504 141
11504 11503 141
11504 11457 1783
11504 11515 1819
11504 11620 2264
11505 11423 3241
11505 11506 1585
11505 11518 134
11506 11505 1585
11507 11508 3602
11507 11509 154
11507 11562 1453
11508 11507 3602
11509 11507 154
11509 11511 52
11510 11511 976
11510 11512 2153
11510 11576 3661
11511 11510 976
11511 11509 52
11512 11510 2153
11513 11502 326
11513 11521 222
11513 11495 5557
11514 11384 5520
11514 11690 4673
11514 11715 4747
11515 11459 2605
11515 11504 1819
11515 11554 2345
11516 11489 661
11516 11517 689
11516 11542 818
11516 11615 2364
11517 11516 689
11518 11505 134
11518 11548 1204
11518 11566 10935
11519 11520 1471
11520 11519 1471
11521 11502 213
11521 11513 222
11521 11522 98
11521 11944 7166
11522 11521 98
11522 11531 45
11523 11367 17076
11523 11524 148
11523 11533 82
11524 11523 148
11524 11527 35
11525 11526 181
11526 11525 181
11527 11524 35
11527 11502 1816
11527 11536 135
11528 11529 9
11529 11528 9
11530 11480 1892
11530 11561 2303
11530 11704 4253
11531 11532 380
11531 11522 45
11532 11531 380
11533 11523 82
11533 11536 141
11533 11601 4540
11534 11454 5891
11534 11226 11128
11534 11535 306
11534 11542 9403
11535 11534 306
11536 11527 135
11536 11533 141
11536 11646 2501
11537 11538 19
11538 11537 19
11539 11540 71
11540 11539 71
11540 11541 315
11540 11545 83
11540 11547 488
11541 11540 315
11542 11486 3289
11542 11516 818
11542 11534 9403
11543 11544 397
11544 11543 397
11544 11600 3168
11544 11884 6436
11545 11540 83
11546 11421 3793
11546 11550 663
11546 11555 273
11547 11540 488
11547 11559 625
11547 11595 1885
11547 13596 1885
11548 11549 208
11548 11518 1204
11548 11552 158
11549 11548 208
11550 11551 74
11550 11546 663
11550 11557 249
11551 11550 74
11552 11553 1459
11552 11548 158
11552 11557 337
11553 11552 1459
11554 11515 2345
11554 11556 277
11554 11572 2090
11555 11546 273
11555 11570 491
11555 11571 218
11556 11554 277
11556 11563 68
11557 11550 249
11557 11552 337
11557 11558 40
11558 11557 40
11558 11570 375
11558 11575 241
11559 11560 157
11559 11547 625
11559 11568 1642
11559 11671 2200
11560 11559 157
11561 11460 2876
11561 11530 2303
11561 11608 2213
11561 12185 10775
11562 11507 1453
11562 11573 14
11563 11564 222
11563 11556 68
11564 11563 222
11564 11583 1400
11564 11722 3357
11565 11449 3586
11566 11518 10935
11567 11568 18
11568 11567 18
11568 11569 5
11568 11559 1642
11568 11657 1877
11569 11568 5
11570 11555 491
11570 11558 375
11570 11575 180
11570 11582 239
11571 11555 218
11571 11582 393
11571 11585 294
11572 11573 403
11572 11554 2090
11572 11734 3084
11573 11572 403
11573 11562 14
11574 11467 4472
11574 11580 170
11574 11591 1709
11575 11570 180
11575 11558 241
11575 11586 247
11576 11510 3661
11576 11577 5958
11576 11579 22
11577 11576 5958
11578 11493 1839
11578 11589 839
11578 11763 3574
11579 11576 22
11579 11627 24
11580 11478 3906
11580 11574 170
11580 11581 14
11580 11613 1573
11581 11480 3896
11581 11580 14
11581 11614 1575
11581 11704 3338
11582 11571 393
11582 11570 239
11582 11586 215
11582 11590 260
11583 11584 124
11583 11564 1400
11583 11587 195
11583 11592 595
11584 11583 124
11585 11571 294
11585 11590 256
11585 11591 960
11586 11582 215
11586 11575 247
11586 11593 299
11587 11583 195
11588 11589 4208
11589 11588 4208
11589 11578 839
11589 11611 823
11590 11585 256
11590 11582 260
11590 11593 272
11591 11585 960
11591 11574 1709
11591 11613 608
11592 11583 595
11592 11632 118
11593 11590 272
11593 11586 299
11593 11594 115
11593 11636 725
11594 11593 115
11594 11668 2019
11595 11547 1885
11595 13596 1885
11596 11597 9
11597 11596 9
11598 11434 4644
11598 11449 5744
11598 11691 1706
11599 11494 2500
11599 11612 518
11599 11705 6731
11600 11544 3168
11600 11620 1247
11600 11633 1101
11601 11533 4540
11601 11820 10264
11601 12154 8230
11602 11603 220
11603 11602 220
11604 11605 38
11605 11604 38
11606 11607 16
11607 11606 16
11608 11498 2497
11608 11561 2213
11608 11761 4384
11609 11610 18
11610 11609 18
11611 11589 823
11611 11616 52
11611 11617 739
11612 11466 4499
11612 11599 518
11612 11630 726
11613 11580 1573
11613 11591 608
11613 11614 11
11613 11669 2991
11614 11581 1575
11614 11613 11
11614 11625 237
11614 11670 2999
11615 11516 2364
11616 11611 52
11616 11659 883
11616 11756 2443
11617 11611 739
11617 11645 70
11618 11619 81
11619 11618 81
11620 11600 1247
11620 11504 2264
11620 11631 680
11620 11638 412
11621 11622 130
11622 11621 130
11623 11624 32
11624 11623 32
11625 11614 237
11625 11687 1266
11625 12401 15492
11626 11627 1602
11626 11643 280
11626 11665 4182
11627 11626 1602
11627 11579 24
11628 11629 357
11628 11630 1118
11628 11637 291
11629 11628 357
11630 11628 1118
11630 11612 726
11630 11642 533
11631 11620 680
11631 11632 1135
11631 11724 2328
11632 11631 1135
11632 11592 118
11633 11600 1101
11633 11638 262
11633 11640 270
11634 11635 2942
11634 11639 139
11634 11644 598
11635 11634 2942
11636 11593 725
11636 11689 82
11637 11628 291
11637 11641 84
11638 11633 262
11638 11620 412
11638 11640 13
11638 11674 1316
11639 11634 139
11639 11643 155
11639 11651 144
11640 11633 270
11640 11638 13
11640 11676 1308
11640 11833 3880
11641 11642 13
11641 11637 84
11642 11641 13
11642 11630 533
11642 11660 382
11642 11710 1335
11643 11626 280
11643 11639 155
11643 11650 267
11643 11658 140
11644 11634 598
11644 11645 1258
11644 11651 335
11644 11659 2213
11645 11644 1258
11645 11617 70
11646 11536 2501
11647 11648 598
11648 11647 598
11649 11650 38
11650 11649 38
11650 11643 267
11650 11654 110
11650 11664 118
11651 11639 144
11651 11644 335
11651 11658 144
11652 11653 26
11653 11652 26
11654 11650 110
11655 11656 15
11656 11655 15
11657 11568 1877
11657 11671 1975
11657 11683 1505
11657 11708 1166
11658 11643 140
11658 11651 144
11658 11664 266
11659 11616 883
11659 11644 2213
11659 11876 5140
11660 11642 382
11661 11662 7
11662 11661 7
11663 11497 3175
11663 11771 1942
11663 11836 8199
11664 11650 118
11664 11658 266
11664 11759 2594
11665 11626 4182
11665 11766 2173
11666 11667 85
11667 11666 85
11667 13595 88
11668 11594 2019
11668 11681 385
11668 11733 2007
11669 11613 2991
11669 11677 39
11670 11614 2999
11670 11680 40
11671 11657 1975
11671 11559 2200
11671 11672 701
11671 11702 549
11672 11671 701
11672 11673 664
11672 11682 182
11673 11672 664
11673 11693 2487
11673 11728 2487
11673 11741 2487
11673 13596 2487
11674 11638 1316
11674 11675 297
11674 11676 9
11674 11684 483
11675 11674 297
11676 11640 1308
11676 11674 9
11676 11685 484
11677 11678 203
11677 11669 39
11678 11677 203
11678 11746 27
11679 11680 202
11679 11749 27
11680 11679 202
11680 11670 40
11681 11668 385
11681 11686 151
11681 11688 2119
11682 11672 182
11682 11692 616
11682 11701 596
11683 11657 1505
11684 11674 483
11684 11694 705
11685 11676 484
11685 11697 708
11686 11681 151
11686 11778 67
11687 11625 1266
11688 11689 963
11688 11681 2119
11688 11758 1018
11689 11688 963
11689 11636 82
11690 11384 8352
11690 11514 4673
11690 11703 274
11691 11598 1706
11691 11875 8522
11691 11932 4301
11692 11682 616
11692 11693 260
11692 11709 395
11693 11692 260
11693 11673 2487
11693 11728 2487
11693 11741 2487
11693 13596 2487
11694 11695 307
11694 11684 705
11695 11694 307
11695 11696 13
11695 11719 934
11696 11697 296
11696 11695 13
11696 11721 940
11696 11724 614
11697 11696 296
11697 11685 708
11698 11699 474
11698 11700 743
11698 11708 423
11698 11711 269
11699 11698 474
11700 11698 743
11700 11702 333
11700 11714 268
11701 11682 596
11701 11702 343
11701 11717 276
11702 11700 333
11702 11671 549
11702 11701 343
11702 11716 273
11703 11690 274
11703 11707 176
11703 11792 1574
11704 11581 3338
11704 11530 4253
11704 11776 1567
11705 11599 6731
11705 11446 7258
11705 11941 3889
11706 11707 3335
11707 11706 3335
11707 11703 176
11707 12207 8185
11708 11657 1166
11708 11698 423
11708 11723 248
11708 11725 672
11709 11692 395
11709 11727 312
11709 11730 295
11710 11642 1335
11710 12088 66
11711 11698 269
11711 11714 743
11711 11723 309
11712 11713 763
11712 11737 126
11713 11712 763
11714 11711 743
11714 11700 268
11714 11716 334
11714 11739 319
11715 11514 4747
11715 11718 545
11715 11751 2973
11716 11714 334
11716 11702 273
11716 11717 345
11716 11743 321
11717 11701 276
11717 11716 345
11717 11729 163
11718 11715 545
11719 11695 934
11719 11720 426
11719 11721 9
11719 11731 542
11720 11719 426
11721 11696 940
11721 11719 9
11721 11732 547
11721 11760 650
11722 11564 3357
11722 11726 241
11722 11752 1675
11723 11708 248
11723 11711 309
11723 11770 738
11724 11631 2328
11724 11696 614
11724 11760 1123
11724 11831 1850
11725 11708 672
11726 11722 241
11726 11731 319
11727 11709 312
11727 11728 426
11727 11750 394
11728 11727 426
11728 11673 2487
11728 11693 2487
11728 11741 2487
11728 13596 2487
11729 11717 163
11729 11730 225
11729 11745 230
11730 11709 295
11730 11729 225
11730 11744 197
11731 11719 542
11731 11726 319
11732 11721 547
11732 11879 321
11733 11668 2007
11733 11747 273
11733 11839 3159
11734 11572 3084
11734 11735 113
11734 11752 235
11734 11766 1871
11735 11734 113
11736 11737 184
11736 11738 408
11736 11742 206
11736 11753 214
11737 11736 184
11737 11712 126
11738 11736 408
11738 11740 175
11738 11754 211
11739 11714 319
11739 11743 335
11739 11765 398
11740 11738 175
11741 11742 149
11741 11673 2487
11741 11693 2487
11741 11728 2487
11741 13596 2487
11742 11741 149
11742 11736 206
11742 11762 559
11742 11767 388
11743 11739 335
11743 11716 321
11743 11745 321
11743 11769 400
11744 11730 197
11744 11745 333
11744 11750 137
11745 11729 230
11745 11744 333
11745 11743 321
11745 11772 401
11746 11747 2100
11746 11678 27
11747 11746 2100
11747 11733 273
11747 11748 13
11747 11916 3756
11748 11749 2087
11748 11747 13
11748 11779 1707
11748 11931 3989
11749 11748 2087
11749 11679 27
11750 11744 137
11750 11727 394
11750 11772 576
11751 11715 2973
11751 11792 1239
11751 11964 4014
11752 11722 1675
11752 11734 235
11752 11877 4909
11753 11736 214
11753 11754 364
11753 11768 237
11754 11753 364
11754 11738 211
11754 11757 290
11754 11773 237
11755 11483 5695
11755 11777 409
11755 11782 476
11756 11616 2443
11757 11754 290
11758 11688 1018
11758 11817 1058
11758 11873 5226
11759 11664 2594
11759 11815 95
11760 11724 1123
11760 11721 650
11760 11874 2440
11761 11608 4384
11761 11771 1325
11761 12185 8091
11762 11742 559
11762 11764 133
11762 11781 340
11763 11578 3574
11763 11820 2941
11763 11892 2000
11764 11762 133
11764 11767 339
11764 11799 482
11765 11739 398
11765 11769 336
11765 11770 710
11765 11785 369
11766 11734 1871
11766 11665 2173
11766 11838 3332
11767 11764 339
11767 11742 388
11767 11768 215
11767 11802 483
11768 11767 215
11768 11753 237
11768 11773 314
11769 11765 336
11769 11743 400
11769 11772 303
11769 11786 368
11770 11723 738
11770 11765 710
11770 11784 318
11771 11663 1942
11771 11761 1325
11771 11965 3078
11772 11769 303
11772 11745 401
11772 11750 576
11773 11768 314
11773 11754 237
11773 11774 457
11773 11794 416
11774 11773 457
11775 11485 5966
11775 11788 348
11775 11808 490
11776 11704 1567
11777 11755 409
11777 11782 253
11777 11783 163
11778 11779 1444
11778 11686 67
11779 11778 1444
11779 11748 1707
11779 11835 995
11780 11781 49
11781 11780 49
11781 11762 340
11781 11791 228
11782 11755 476
11782 11777 253
11782 11810 350
11783 11777 163
11783 11789 76
11784 11770 318
11784 11785 623
11784 11845 899
11785 11784 623
11785 11765 369
11785 11786 336
11785 11853 854
11786 11785 336
11786 11769 368
11786 11787 93
11786 11854 855
11787 11786 93
11787 11790 215
11788 11775 348
11788 11789 175
11788 11808 380
11788 11809 176
11789 11788 175
11789 11783 76
11790 11791 344
11790 11787 215
11791 11790 344
11791 11781 228
11791 11793 152
11791 11812 294
11792 11703 1574
11792 11751 1239
11792 12184 5603
11793 11791 152
11793 11797 196
11793 11832 542
11794 11773 416
11795 11796 546
11796 11795 546
11797 11793 196
11797 11798 441
11797 11799 83
11798 11797 441
11799 11797 83
11799 11764 482
11799 11800 166
11799 11834 542
11800 11799 166
11800 11801 451
11800 11802 172
11801 11800 451
11802 11800 172
11802 11767 483
11802 11805 319
11802 11827 435
11803 11804 6
11804 11803 6
11805 11802 319
11805 11821 1021
11805 11867 916
11806 11807 535
11807 11806 535
11808 11788 380
11808 11775 490
11808 11811 68
11809 11788 176
11809 11820 244
11810 11782 350
11810 12000 48
11811 11808 68
11811 11995 52
11812 11813 143
11812 11791 294
11812 11830 265
11813 11812 143
11814 11815 769
11814 11816 263
11814 11838 1192
11814 11923 1754
11815 11814 769
11815 11759 95
11816 11814 263
11816 11823 187
11816 11920 2937
11817 11758 1058
11817 11835 671
11817 11873 790
11818 11819 1062
11818 11897 3980
11818 12025 4523
11818 12137 4714
11819 11818 1062
11820 11763 2941
11820 11809 244
11820 11601 10264
11820 11828 282
11821 11805 1021
11821 11822 141
11821 11824 53
11822 11821 141
11823 11816 187
11824 11821 53
11824 13597 368
11825 11826 133
11825 11826 288
11825 11827 102
11825 11850 290
11826 11825 133
11826 11825 288
11826 11847 287
11827 11825 102
11827 11802 435
11827 11851 291
11828 11829 148
11828 11820 282
11828 11885 1530
11828 11922 1661
11829 11828 148
11830 11812 265
11830 11832 239
11830 11849 226
11831 11724 1850
11831 11833 9
11831 11918 3116
11832 11830 239
11832 11793 542
11832 11834 279
11833 11640 3880
11833 11831 9
11833 11842 302
11834 11832 279
11834 11799 542
11834 11844 183
11835 11779 995
11835 11817 671
11835 11889 4008
11836 11837 592
11836 11663 8199
11836 11888 1326
11836 11888 1666
11837 11836 592
11838 11814 1192
11838 11766 3332
11838 11877 685
11839 11733 3159
11839 11843 317
11839 11880 621
11840 11841 251
11840 11874 1020
11840 12021 2982
11841 11840 251
11842 11833 302
11842 11918 53
11843 11839 317
11843 11852 230
11843 11852 4261
11844 11834 183
11844 11847 104
11844 11861 128
11845 11784 899
11845 11846 2
11845 11848 43
11845 12049 2886
11846 11845 2
11846 11848 44
11846 11913 1322
11847 11844 104
11847 11826 287
11847 11850 132
11848 11846 44
11848 11845 43
11848 11853 367
11848 11856 704
11849 11830 226
11849 11857 147
11849 11859 135
11850 11847 132
11850 11825 290
11850 11851 100
11851 11850 100
11851 11827 291
11851 11863 127
11852 11843 230
11852 11843 4261
11852 11865 960
11853 11848 367
11853 11785 854
11853 11854 337
11854 11853 337
11854 11786 855
11854 11855 23
11854 11856 16
11855 11854 23
11855 11856 18
11855 11858 179
11856 11848 704
11856 11854 16
11856 11855 18
11856 11913 971
11857 11858 176
11857 11849 147
11857 11866 148
11858 11857 176
11858 11855 179
11859 11849 135
11859 11860 17
11859 11861 428
11860 11859 17
11860 11862 430
11860 11866 134
11861 11859 428
11861 11844 128
11861 11862 17
11861 11863 336
11862 11860 430
11862 11861 17
11862 11864 336
11862 11883 437
11863 11861 336
11863 11851 127
11863 11864 17
11863 11867 627
11864 11862 336
11864 11863 17
11864 11869 634
11864 11899 684
11865 11852 960
11865 11930 1862
11865 12002 1736
11866 11857 148
11866 11860 134
11866 11881 352
11867 11863 627
11867 11805 916
11867 11868 76
11867 11869 18
11868 11867 76
11868 11871 288
11869 11864 634
11869 11867 18
11869 11870 70
11869 11914 916
11870 11869 70
11870 11872 282
11871 11868 288
11871 12026 306
11872 11870 282
11873 11817 790
11873 11889 415
11873 11758 5226
11874 11760 2440
11874 11840 1020
11874 11934 1136
11875 11691 8522
11875 11932 4197
11875 12321 8352
11876 11659 5140
11877 11752 4909
11877 11838 685
11877 11878 11
11877 11901 1846
11878 11879 6817
11878 11877 11
11878 11902 1854
11878 12015 2919
11879 11878 6817
11879 11732 321
11880 11839 621
11880 11886 140
11880 11887 140
11881 11866 352
11881 11882 218
11881 11893 249
11882 11881 218
11882 11883 300
11882 11894 248
11883 11882 300
11883 11862 437
11883 11896 247
11884 11544 6436
11884 11906 1987
11884 12062 2608
11885 11828 1530
11885 11892 992
11885 11958 2784
11886 11880 140
11886 11900 240
11887 11880 140
11887 11926 544
11888 11836 1326
11888 11836 1666
11888 11924 538
11889 11873 415
11889 11835 4008
11889 12203 4724
11890 11891 1037
11891 11890 1037
11891 11954 2458
11891 11956 3681
11892 11763 2000
11892 11885 992
11892 11940 2441
11893 11881 249
11893 11894 218
11893 11909 167
11894 11893 218
11894 11882 248
11894 11895 160
11895 11894 160
11895 11896 141
11895 11911 227
11896 11895 141
11896 11883 247
11896 11899 336
11896 11917 301
11897 11818 3980
11897 11898 304
11897 11991 2298
11897 12119 2529
11898 11897 304
11899 11896 336
11899 11864 684
11899 11919 291
11900 11886 240
11900 11921 292
11900 11947 580
11901 11877 1846
11901 11903 85
11902 11878 1854
11902 11908 85
11903 11904 78
11903 11901 85
11904 11903 78
11904 11905 531
11904 11907 11
11904 11910 788
11905 11904 531
11906 11884 1987
11906 11977 1627
11906 12062 3683
11907 11908 71
11907 11904 11
11907 11912 776
11907 11923 254
11908 11907 71
11908 11902 85
11909 11893 167
11909 11911 272
11909 11928 224
11910 11904 788
11910 11912 18
11910 11920 901
11911 11909 272
11911 11895 227
11911 11917 182
11912 11907 776
11912 11910 18
11912 11950 755
11912 11979 2684
11913 11846 1322
11913 11856 971
11913 11915 28
11913 11985 709
11914 11869 916
11914 11919 473
11914 11953 494
11915 11913 28
11915 11927 176
11916 11747 3756
11916 11926 662
11916 11945 520
11917 11911 182
11917 11896 301
11917 11933 216
11918 11831 3116
11918 11977 2276
11918 11842 53
11919 11899 291
11919 11914 473
11919 11948 322
11920 11910 901
11920 11816 2937
11920 11955 947
11921 11900 292
11921 11949 308
11921 11962 486
11922 11828 1661
11922 11994 876
11923 11814 1754
11923 11907 254
11923 11993 723
11924 11925 2626
11924 11888 538
11924 11929 39
11925 11924 2626
11926 11887 544
11926 11916 662
11926 11946 271
11927 11928 251
11927 11915 176
11928 11927 251
11928 11909 224
11928 11933 343
11928 12009 775
11929 11924 39
11929 11965 766
11929 12255 7341
11930 11865 1862
11930 12003 1356
11930 12068 1365
11931 11748 3989
11931 11938 125
11931 11975 478
11932 11691 4301
11932 11875 4197
11932 12128 2203
11933 11928 343
11933 11917 216
11933 11937 144
11933 12006 634
11934 11874 1136
11934 12021 1201
11934 12087 4241
11935 11936 79
11936 11935 79
11937 11933 144
11937 11939 111
11937 11939 380
11938 11931 125
11938 11951 280
11938 11987 777
11939 11937 111
11939 11937 380
11939 11948 321
11940 11892 2441
11940 11955 806
11940 11978 346
11941 11705 3889
11941 12044 109
11942 11943 134
11942 11976 62
11943 11942 134
11943 11961 46
11944 11521 7166
11944 12280 5265
11944 12444 17186
11945 11916 520
11945 11952 527
11945 12007 927
11946 11926 271
11946 11968 110
11946 11982 112
11947 11900 580
11947 11983 112
11948 11939 321
11948 11919 322
11948 11953 369
11948 12001 427
11949 11921 308
11949 13599 38
11950 11912 755
11950 11993 636
11950 12067 1051
11951 11938 280
11951 11963 118
11951 11968 406
11952 11945 527
11952 13599 39
11953 11948 369
11953 11914 494
11953 11971 163
11954 11891 2458
11954 12025 1526
11954 12038 751
11955 11920 947
11955 11940 806
11955 11978 823
11956 11957 183
11956 11891 3681
11956 11990 1133
11956 12110 1924
11957 11956 183
11958 11885 2784
11958 11978 733
11958 11979 738
11959 11960 21
11959 13599 57
11960 11959 21
11960 11986 152
11960 11963 379
11961 11962 339
11961 11943 46
11962 11961 339
11962 11921 486
11962 12007 574
11963 11951 118
11963 11960 379
11963 11987 382
11964 11751 4014
11965 11929 766
11965 11771 3078
11965 12014 842
11966 11967 314
11966 11973 39
11966 11974 523
11967 11966 314
11968 11951 406
11968 11946 110
11969 11970 5
11969 11973 54
11969 11988 152
11970 11969 5
11971 11953 163
11971 11972 175
11971 11989 311
11971 12008 280
11972 11971 175
11973 11969 54
11973 11966 39
11973 11985 225
11974 11966 523
11975 11931 478
11975 11976 272
11975 11980 29
11976 11975 272
11976 11942 62
11977 11918 2276
11977 11906 1627
11977 12079 2159
11977 12109 2022
11978 11940 346
11978 11958 733
11978 11979 11
11978 11955 823
11979 11978 11
11979 11958 738
11979 11912 2684
11979 12177 3250
11980 11975 29
11980 12019 99
11981 11982 172
11981 12020 109
11982 11981 172
11982 11946 112
11983 11984 171
11983 11947 112
11984 11983 171
11984 12022 111
11985 11973 225
11985 11913 709
11985 11998 143
11986 11960 152
11986 12022 112
11987 11963 382
11987 11938 777
11987 12016 664
11988 11969 152
11988 11998 230
11988 12028 387
11989 11971 311
11989 12001 221
11989 12008 286
11990 11956 1133
11990 12013 717
11990 12110 1502
11991 11897 2298
11991 11992 1456
11991 12158 2955
11991 12173 2768
11992 11991 1456
11993 11923 723
11993 11950 636
11993 12015 221
11994 11922 876
11994 11995 2630
11994 11999 22
11994 12159 2025
11995 11994 2630
11995 11811 52
11996 11997 799
11997 11996 799
11997 12066 2392
11997 12169 3085
11998 11988 230
11998 11985 143
11998 12029 334
11999 11994 22
11999 12000 2657
11999 12116 1491
11999 12157 1998
12000 11999 2657
12000 11810 48
12001 11948 427
12001 11989 221
12001 12006 528
12001 12037 317
12002 11865 1736
12003 11930 1356
12003 12004 13
12003 12053 420
12004 12003 13
12004 12005 1
12004 12010 182
12004 12052 413
12005 12004 1
12006 11933 634
12006 12001 528
12006 12009 436
12006 12036 278
12007 11945 927
12007 11962 574
12007 12082 1773
12008 11989 286
12008 11971 280
12008 12039 300
12009 11928 775
12009 12006 436
12009 12032 299
12010 12004 182
12010 12011 378
12010 12012 9
12010 12047 931
12011 12010 378
12012 12010 9
12013 11990 717
12013 12027 817
12014 11965 842
12014 12218 5273
12014 12255 9772
12015 11993 221
12015 11878 2919
12015 12065 425
12016 12017 486
12016 11987 664
12016 12083 1424
12017 12016 486
12017 12024 208
12018 12019 314
12018 12020 323
12018 12046 157
12019 12018 314
12019 11980 99
12020 12018 323
12020 11981 109
12021 11934 1201
12021 11840 2982
12021 12066 440
12022 12023 324
12022 11984 111
12022 11986 112
12023 12022 324
12023 12024 730
12023 12048 160
12024 12023 730
12024 12017 208
12025 11818 4523
12025 11954 1526
12025 12038 1009
12026 12027 1905
12026 11871 306
12027 12026 1905
12027 12013 817
12027 12034 21
12028 11988 387
12028 12029 122
12028 12055 729
12029 12028 122
12029 11998 334
12029 12030 26
12030 12029 26
12030 12031 168
12031 12032 282
12031 12030 168
12032 12031 282
12032 12009 299
12032 12033 75
12032 12072 561
12033 12032 75
12033 12036 541
12033 12078 504
12034 12035 1903
12034 12027 21
12034 12040 659
12034 12122 1161
12035 12034 1903
12035 13598 309
12036 12033 541
12036 12006 278
12036 12037 516
12036 12069 353
12037 12036 516
12037 12001 317
12037 12039 355
12037 12058 199
12038 11954 751
12038 12025 1009
12038 12054 144
12039 12037 355
12039 12008 300
12039 12042 336
12039 12070 526
12040 12034 659
12040 12041 37
12040 12122 1278
12041 12040 37
12041 12042 254
12042 12039 336
12042 12041 254
12043 12044 769
12043 12118 1901
12043 12220 3861
12044 12043 769
12044 11941 109
12045 12046 1369
12045 12090 891
12045 12176 3287
12046 12045 1369
12046 12018 157
12046 12048 15
12046 12102 1136
12047 12010 931
12047 12049 189
12047 12052 1091
12048 12046 15
12048 12023 160
12048 12071 810
12048 12103 1134
12049 12047 189
12049 11845 2886
12049 12050 7
12049 12050 7
12049 12055 184
12050 12049 7
12050 12049 7
12050 12051 14
12050 12051 14
12050 12064 380
12051 12050 14
12051 12050 14
12051 12060 118
12051 12061 114
12052 12004 413
12052 12047 1091
12052 12053 13
12052 12132 1310
12053 12003 420
12053 12052 13
12053 12068 1625
12053 12133 1312
12054 12038 144
12054 12200 3507
12054 12238 3747
12055 12049 184
12055 12028 729
12055 12063 197
12056 12057 358
12056 12068 161
12056 12082 536
12057 12056 358
12058 12037 199
12058 12059 161
12058 12069 533
12058 12070 149
12059 12058 161
12060 12051 118
12060 12114 157
12061 12051 114
12061 12111 153
12062 11884 2608
12062 11906 3683
12062 12084 1544
12063 12055 197
12063 12086 140
12064 12050 380
12064 12086 139
12065 12015 425
12065 12101 182
12066 12021 440
12066 11997 2392
12066 12073 221
12067 11950 1051
12068 12056 161
12068 11930 1365
12068 12053 1625
12069 12036 353
12069 12058 533
12069 12081 204
12070 12058 149
12070 12039 526
12070 12095 492
12071 12048 810
12071 12074 102
12071 12080 315
12072 12032 561
12072 12076 90
12072 12085 359
12073 12066 221
12073 12087 5856
12073 12211 3411
12074 12075 388
12074 12071 102
12074 12077 8
12075 12074 388
12076 12072 90
12076 12078 338
12076 12098 373
12077 12074 8
12077 12080 290
12077 12126 1205
12078 12076 338
12078 12033 504
12078 12081 562
12078 12097 367
12079 11977 2159
12079 12109 2515
12079 12134 3937
12080 12071 315
12080 12077 290
12080 12083 1536
12081 12069 204
12081 12078 562
12081 12096 274
12082 12007 1773
12082 12056 536
12082 12083 12
12082 12129 908
12083 12016 1424
12083 12082 12
12083 12080 1536
12083 12125 848
12084 12062 1544
12085 12086 589
12085 12072 359
12085 12099 218
12085 12106 737
12086 12085 589
12086 12064 139
12086 12063 140
12087 11934 4241
12087 12109 1684
12087 12073 5856
12088 12089 10281
12088 11710 66
12089 12088 10281
12089 12142 1303
12089 12204 2505
12090 12045 891
12090 12102 407
12090 12194 2513
12091 12092 127
12092 12091 127
12093 12094 24
12094 12093 24
12095 12070 492
12095 12096 329
12095 12160 885
12096 12081 274
12096 12095 329
12096 12097 641
12097 12078 367
12097 12096 641
12097 12098 261
12097 12123 313
12098 12076 373
12098 12097 261
12098 12099 134
12099 12085 218
12099 12098 134
12099 12123 436
12100 12101 618
12100 12107 967
12100 12124 404
12101 12100 618
12101 12065 182
12102 12090 407
12102 12046 1136
12102 12103 13
12102 12240 3426
12103 12102 13
12103 12048 1134
12103 12126 882
12103 12241 3421
12104 12105 179
12104 12115 276
12104 12130 2675
12104 12163 869
12105 12104 179
12106 12085 737
12106 12112 393
12106 12181 1358
12107 12100 967
12107 12108 314
12107 12121 139
12108 12107 314
12109 12079 2515
12109 11977 2022
12109 12087 1684
12110 11990 1502
12110 11956 1924
12110 12127 206
12111 12112 684
12111 12061 153
12112 12111 684
12112 12106 393
12112 12113 18
12112 12181 1306
12113 12114 687
12113 12112 18
12113 12132 657
12113 12195 2490
12114 12113 687
12114 12060 157
12115 12104 276
12115 12117 146
12115 12120 83
12116 11999 1491
12116 12154 3813
12116 12157 593
12117 12115 146
12117 12120 76
12117 12130 414
12118 12043 1901
12118 12151 248
12119 11897 2529
12119 12137 1346
12119 12161 1146
12120 12115 83
12120 12117 76
12120 12174 885
12121 12107 139
12122 12040 1278
12122 12034 1161
12122 12145 404
12122 12146 404
12122 12242 4138
12123 12099 436
12123 12097 313
12123 12160 1043
12124 12100 404
12124 12166 102
12125 12083 848
12125 12148 516
12125 12156 604
12126 12103 882
12126 12077 1205
12126 12168 631
12127 12110 206
12127 12131 133
12127 12135 164
12128 11932 2203
12128 12273 4053
12128 12328 6757
12129 12082 908
12129 12138 769
12129 12164 809
12130 12104 2675
12130 12117 414
12130 12187 1404
12131 12127 133
12131 12135 153
12131 12179 946
12132 12052 1310
12132 12113 657
12132 12133 12
12132 12229 2990
12133 12053 1312
12133 12132 12
12133 12143 286
12133 12230 2991
12134 12079 3937
12134 12141 297
12134 12172 631
12135 12127 164
12135 12131 153
12135 12136 491
12136 12135 491
12137 11818 4714
12137 12119 1346
12137 12238 6467
12138 12139 296
12138 12129 769
12138 12147 321
12139 12138 296
12139 12140 293
12139 12143 264
12140 12139 293
12140 12152 321
12140 12164 506
12141 12134 297
12141 12144 225
12141 12153 114
12142 12089 1303
12142 12149 27
12143 12139 264
12143 12133 286
12143 12201 3884
12144 12141 225
12144 12153 112
12144 12163 644
12145 12122 404
12145 12197 290
12146 12122 404
12146 12199 295
12147 12138 321
12147 12155 87
12148 12125 516
12148 12155 531
12148 12165 351
12149 12150 74
12149 12142 27
12150 12149 74
12150 12151 225
12150 12162 284
12151 12150 225
12151 12118 248
12152 12140 321
12152 12156 88
12153 12141 114
12153 12144 112
12153 12172 338
12154 11601 8230
12154 12116 3813
12154 12180 764
12155 12148 531
12155 12147 87
12156 12125 604
12156 12152 88
12157 11999 1998
12157 12116 593
12157 12159 22
12157 12346 3974
12158 11991 2955
12158 12161 201
12158 12173 2780
12159 11994 2025
12159 12157 22
12159 12347 3968
12159 12356 5726
12160 12123 1043
12160 12095 885
12160 12170 389
12160 12193 1324
12161 12158 201
12161 12119 1146
12161 12272 2960
12162 12150 284
12162 12204 2294
12162 12336 5289
12163 12104 869
12163 12144 644
12163 12174 474
12164 12129 809
12164 12140 506
12164 12264 87
12165 12148 351
12165 12267 86
12166 12167 637
12166 12124 102
12167 12166 637
12167 12169 22
12167 12239 3611
12168 12126 631
12168 12175 196
12168 12201 1607
12169 11997 3085
12169 12167 22
12169 12202 1257
12170 12160 389
12170 12171 1368
12170 12196 1044
12171 12170 1368
12172 12153 338
12172 12134 631
12172 12182 1161
12173 11991 2768
12173 12158 2780
12173 12178 6012
12173 12253 2319
12174 12120 885
12174 12163 474
12174 12182 315
12174 12183 728
12175 12168 196
12176 12045 3287
12176 12203 2600
12176 12240 2446
12177 11979 3250
12178 12173 6012
12179 12131 946
12179 12219 1912
12179 12242 1553
12180 12154 764
12180 12329 3720
12180 12352 7011
12181 12112 1306
12181 12106 1358
12181 12193 1171
12182 12174 315
12182 12172 1161
12182 12186 720
12182 12248 1831
12183 12174 728
12183 12186 278
12183 12188 644
12184 11792 5603
12185 11561 10775
12185 11761 8091
12185 12218 2094
12186 12183 278
12186 12182 720
12186 12210 736
12186 12216 2348
12187 12130 1404
12188 12189 15
12188 12183 644
12188 12190 7
12189 12188 15
12190 12188 7
12191 12192 12
12192 12191 12
12193 12181 1171
12193 12160 1324
12193 12195 20
12193 12196 1874
12194 12090 2513
12194 12243 77
12195 12113 2490
12195 12193 20
12195 12198 1898
12195 12229 989
12196 12170 1044
12196 12197 1196
12196 12198 15
12196 12193 1874
12197 12196 1196
12197 12145 290
12198 12196 15
12198 12199 1197
12198 12195 1898
12198 12245 1479
12199 12198 1197
12199 12146 295
12200 12054 3507
12200 12219 3134
12200 12400 4345
12201 12168 1607
12201 12143 3884
12201 12275 2857
12202 12169 1257
12202 12233 775
12202 12261 1359
12203 11889 4724
12203 12176 2600
12203 12341 2464
12204 12089 2505
12204 12162 2294
12204 12336 2388
12205 12206 238
12206 12205 238
12206 12208 240
12206 12215 126
12207 11707 8185
12207 12212 195
12207 12228 414
12208 12209 121
12208 12206 240
12208 12211 359
12208 12217 191
12209 12208 121
12210 12186 736
12211 12073 3411
12211 12208 359
12211 12254 1003
12212 12207 195
12212 12228 467
12212 12309 3119
12213 12214 67
12214 12213 67
12214 12215 172
12214 12221 193
12215 12206 126
12215 12214 172
12215 12217 168
12216 12186 2348
12217 12215 168
12217 12208 191
12217 12224 191
12218 12014 5273
12218 12185 2094
12218 12430 7342
12219 12179 1912
12219 12200 3134
12219 12320 1732
12220 12043 3861
12220 12226 26
12221 12214 193
12221 12222 68
12221 12234 181
12222 12221 68
12222 12223 67
12222 12235 181
12223 12222 67
12223 12224 205
12223 12237 182
12224 12217 191
12224 12223 205
12224 12225 59
12224 12237 390
12225 12224 59
12226 12227 489
12226 12231 136
12226 12220 26
12227 12226 489
12228 12207 414
12228 12212 467
12228 12321 1506
12229 12132 2990
12229 12195 989
12229 12230 13
12229 12249 1386
12230 12133 2991
12230 12229 13
12230 12252 1397
12230 12257 682
12231 12226 136
12231 12232 163
12231 12353 3404
12232 12231 163
12232 12326 138
12233 12202 775
12233 12234 253
12233 12250 421
12234 12221 181
12234 12233 253
12234 12235 69
12235 12222 181
12235 12234 69
12235 12236 58
12236 12235 58
12236 12237 7
12236 12246 274
12237 12223 182
12237 12236 7
12237 12224 390
12238 12054 3747
12238 12137 6467
12238 12406 3844
12239 12167 3611
12239 12247 565
12239 12420 10060
12240 12176 2446
12240 12102 3426
12240 12241 15
12240 12333 1780
12241 12240 15
12241 12103 3421
12241 12244 415
12241 12334 1782
12242 12122 4138
12242 12179 1553
12242 12310 1092
12243 12244 1335
12243 12194 77
12244 12243 1335
12244 12241 415
12244 12300 1043
12245 12198 1479
12245 12258 770
12245 12270 1578
12246 12236 274
12247 12239 565
12247 12307 2459
12247 12322 1148
12248 12182 1831
12248 12315 1756
12248 12318 1019
12249 12229 1386
12249 12268 477
12250 12233 421
12250 12251 271
12250 12254 449
12250 12256 173
12251 12250 271
12252 12230 1397
12252 12271 469
12253 12173 2319
12254 12211 1003
12254 12250 449
12254 12259 139
12255 11929 7341
12255 12014 9772
12255 12515 12460
12256 12250 173
12256 12259 299
12256 12283 280
12257 12230 682
12257 12260 158
12257 12398 3477
12258 12245 770
12258 12310 2045
12258 12390 2999
12259 12254 139
12259 12256 299
12259 12284 253
12260 12257 158
12260 12262 83
12260 12263 82
12261 12202 1359
12261 12287 1032
12261 12294 261
12262 12260 83
12262 12285 215
12262 12299 463
12263 12260 82
12263 12279 293
12263 12286 215
12264 12265 3369
12264 12164 87
12265 12264 3369
12265 12278 93
12266 12267 3373
12266 12289 93
12267 12266 3373
12267 12165 86
12268 12269 164
12268 12249 477
12269 12268 164
12270 12271 167
12270 12245 1578
12270 12340 1181
12271 12270 167
12271 12252 469
12272 12161 2960
12272 12311 472
12272 12312 813
12273 12128 4053
12273 12274 2123
12273 12369 1701
12273 12371 2439
12274 12273 2123
12275 12201 2857
12275 12300 455
12275 12409 3303
12276 12277 79
12277 12276 79
12277 12281 135
12277 12291 139
12278 12279 124
12278 12265 93
12279 12278 124
12279 12263 293
12279 12286 208
12280 11944 5265
12280 12494 7849
12280 12744 19129
12281 12277 135
12282 12283 5
12282 12284 45
12283 12282 5
12283 12256 280
12283 12287 36
12284 12259 253
12284 12282 45
12284 12293 53
12285 12262 215
12285 12301 64
12286 12279 208
12286 12263 215
12286 12288 12
12286 12299 277
12287 12283 36
12287 12261 1032
12287 12297 80
12288 12289 337
12288 12286 12
12288 12290 28
12288 12305 620
12289 12288 337
12289 12266 93
12290 12288 28
12290 12301 429
12290 12305 486
12291 12277 139
12291 12292 139
12291 12296 194
12292 12291 139
12293 12284 53
12293 12297 57
12293 12298 420
12294 12261 261
12294 12307 264
12294 12319 853
12295 12296 97
12296 12295 97
12296 12291 194
12296 12298 53
12297 12293 57
12297 12287 80
12297 12306 171
12298 12296 53
12298 12293 420
12298 12304 502
12298 12308 184
12299 12286 277
12299 12262 463
12299 12316 828
12300 12244 1043
12300 12275 455
12300 12313 295
12301 12290 429
12301 12285 64
12302 12303 1580
12303 12302 1580
12303 12304 19
12303 12387 9863
12304 12303 19
12304 12298 502
12304 12364 1230
12305 12288 620
12305 12290 486
12305 12317 584
12306 12297 171
12306 12308 435
12306 12327 420
12307 12294 264
12307 12247 2459
12307 12376 1323
12308 12298 184
12308 12306 435
12308 12330 423
12309 12212 3119
12310 12258 2045
12310 12242 1092
12310 12320 729
12311 12272 472
12311 12314 27
12311 12406 9039
12312 12272 813
12312 12314 529
12312 12314 10631
12313 12300 295
12313 12334 1629
12313 12450 4774
12314 12311 27
12314 12312 529
12314 12312 10631
12315 12248 1756
12315 12318 1644
12315 12332 2364
12316 12299 828
12316 12339 433
12317 12305 584
12317 12344 432
12318 12248 1019
12318 12315 1644
12318 12331 900
12319 12294 853
12319 12327 476
12319 12337 549
12320 12310 729
12320 12219 1732
12320 12400 3800
12321 11875 8352
12321 12228 1506
12321 12377 1063
12322 12247 1148
12323 12324 919
12323 12338 288
12323 12414 3923
12323 12414 4738
12324 12323 919
12325 12326 2263
12325 12345 511
12325 12417 2812
12326 12325 2263
12326 12232 138
12327 12306 420
12327 12319 476
12327 12330 427
12327 12378 1124
12328 12128 6757
12329 12180 3720
12329 12348 395
12329 12352 469
12330 12308 423
12330 12327 427
12330 12335 163
12331 12318 900
12331 12407 6374
12331 12438 3218
12332 12315 2364
12332 12382 1506
12332 12445 6146
12333 12240 1780
12333 12334 13
12333 12354 1176
12333 12357 515
12334 12333 13
12334 12241 1782
12334 12313 1629
12334 12358 518
12335 12330 163
12336 12204 2388
12336 12162 5289
12336 12385 1234
12337 12319 549
12338 12323 288
12339 12340 395
12339 12316 433
12340 12339 395
12340 12270 1181
12340 12343 11
12340 12390 3006
12341 12342 2546
12341 12203 2464
12341 12381 858
12342 12341 2546
12343 12344 397
12343 12340 11
12343 12391 3004
12343 12403 2243
12344 12343 397
12344 12317 432
12345 12325 511
12345 12389 55
12346 12157 3974
12346 12348 40
12346 12349 48
12347 12159 3968
12347 12350 72
12347 12351 80
12348 12346 40
12348 12329 395
12348 12349 11
12348 12355 212
12349 12346 48
12349 12348 11
12349 12350 31
12349 12360 250
12350 12347 72
12350 12349 31
12350 12351 9
12350 12362 275
12351 12347 80
12351 12350 9
12351 12356 135
12351 12365 338
12352 12329 469
12352 12180 7011
12352 12467 7374
12353 12231 3404
12353 12611 125
12354 12333 1176
12354 12359 185
12354 12370 1121
12355 12348 212
12355 12360 151
12355 12361 196
12356 12159 5726
12356 12351 135
12356 12367 266
12357 12333 515
12357 12363 567
12357 12372 353
12358 12334 518
12358 12373 353
12358 12374 354
12359 12354 185
12359 12363 143
12360 12349 250
12360 12355 151
12360 12361 46
12361 12360 46
12361 12355 196
12361 12362 17
12361 12462 3968
12362 12350 275
12362 12361 17
12362 12365 131
12362 12375 216
12363 12359 143
12363 12357 567
12363 12372 319
12363 12383 627
12364 12304 1230
12364 12380 764
12364 12386 5187
12364 12397 1355
12365 12351 338
12365 12362 131
12365 12366 57
12365 12375 250
12366 12365 57
12366 12367 73
12367 12356 266
12367 12366 73
12367 12413 1943
12368 12369 2702
12369 12368 2702
12369 12273 1701
12369 12371 2340
12370 12354 1121
12370 12381 1170
12370 12424 2442
12371 12273 2439
12371 12369 2340
12371 12392 1354
12372 12363 319
12372 12357 353
12372 12373 12
12372 12383 408
12373 12372 12
12373 12358 353
12373 12374 14
12373 12384 404
12374 12373 14
12374 12358 354
12374 12379 178
12374 12379 275
12375 12365 250
12375 12362 216
12375 12460 3688
12376 12307 1323
12376 12378 481
12376 12419 2879
12377 12321 1063
12377 12392 1042
12377 12399 1066
12378 12327 1124
12378 12376 481
12378 12380 568
12378 12632 8977
12379 12374 178
12379 12374 275
12379 12384 335
12380 12364 764
12380 12378 568
12380 12397 896
12381 12341 858
12381 12370 1170
12381 12393 1165
12381 12461 3391
12382 12332 1506
12383 12363 627
12383 12372 408
12383 12424 1418
12384 12373 404
12384 12379 335
12384 12426 1421
12385 12336 1234
12385 11490 20261
12385 12394 518
12386 12364 5187
12386 12387 606
12386 12514 4829
12387 12303 9863
12387 12386 606
12387 12407 4023
12388 12389 1739
12388 12405 3088
12388 12474 3848
12389 12388 1739
12389 12345 55
12390 12340 3006
12390 12258 2999
12390 12391 11
12390 12415 1529
12391 12343 3004
12391 12390 11
12391 12418 1531
12391 12427 1054
12392 12371 1354
12392 12377 1042
12392 12399 516
12392 12440 1759
12393 12381 1165
12393 12401 4778
12393 12425 1355
12394 12385 518
12394 12404 41
12395 12396 236
12396 12395 236
12397 12364 1355
12397 12380 896
12397 12514 5958
12398 12257 3477
12398 12403 74
12398 12421 1992
12399 12392 516
12399 12377 1066
12399 12410 356
12400 12320 3800
12400 12200 4345
12400 12402 10
12400 12458 2511
12401 11625 15492
12401 12393 4778
12401 12430 968
12402 12400 10
12402 12408 305
12403 12398 74
12403 12343 2243
12403 12519 4663
12404 12405 104
12404 12394 41
12405 12404 104
12405 12388 3088
12405 12444 3326
12405 12476 2881
12406 12238 3844
12406 12311 9039
12406 12412 327
12407 12331 6374
12407 12387 4023
12407 12429 2392
12408 12402 305
12408 12412 1011
12408 12434 878
12409 12275 3303
12410 12399 356
12410 12411 2008
12410 12428 421
12411 12410 2008
12412 12406 327
12412 12408 1011
12412 12434 645
12413 12367 1943
12413 12420 633
12413 12468 2147
12414 12323 3923
12414 12323 4738
12414 12437 616
12414 12439 799
12415 12390 1529
12415 12416 174
12415 12418 10
12415 12458 3282
12416 12415 174
12417 12325 2812
12417 12423 52
12418 12391 1531
12418 12415 10
12418 12427 1770
12418 12459 3281
12419 12376 2879
12419 12431 3288
12419 12510 4751
12420 12239 10060
12420 12413 633
12420 12449 3149
12421 12398 1992
12421 12485 3381
12421 12535 4731
12422 12423 36
12422 12581 6206
12422 12636 9058
12423 12422 36
12423 12417 52
12424 12370 2442
12424 12383 1418
12424 12426 12
12424 12573 6298
12425 12393 1355
12425 12469 4710
12425 12472 2324
12426 12424 12
12426 12384 1421
12426 12450 4148
12426 12575 6309
12427 12391 1054
12427 12418 1770
12427 12524 5192
12428 12410 421
12428 12440 1060
12428 12442 716
12429 12407 2392
12429 12438 1929
12429 12589 6508
12430 12218 7342
12430 12401 968
12430 12469 2050
12431 12419 3288
12431 12435 32
12432 12433 3793
12433 12432 3793
12433 12484 2357
12433 12495 3403
12434 12408 878
12434 12412 645
12434 12443 733
12434 12470 2565
12435 12436 654
12435 12431 32
12436 12435 654
12436 12452 30
12437 12414 616
12437 12439 165
12437 12478 8249
12438 12331 3218
12438 12429 1929
12438 12457 3147
12439 12437 165
12439 12414 799
12439 12478 1725
12439 12488 2476
12440 12392 1759
12440 12428 1060
12440 12441 46
12441 12440 46
12441 12442 1135
12441 12614 9395
12442 12441 1135
12442 12428 716
12442 12574 9478
12443 12434 733
12443 12446 370
12443 12463 1360
12444 11944 17186
12444 12405 3326
12444 12481 2602
12445 12332 6146
12446 12443 370
12446 12456 196
12447 12448 63
12448 12447 63
12449 12420 3149
12449 12451 217
12449 12468 3375
12450 12313 4774
12450 12426 4148
12450 12554 3948
12451 12449 217
12451 12453 238
12451 12675 6802
12452 12453 2537
12452 12436 30
12453 12452 2537
12453 12451 238
12453 12510 3445
12454 12455 23
12455 12454 23
12456 12446 196
12456 12466 1058
12456 12475 766
12456 12490 1236
12457 12438 3147
12457 12479 1592
12457 12635 6858
12458 12415 3282
12458 12400 2511
12458 12459 13
12458 12463 485
12459 12418 3281
12459 12458 13
12459 12464 478
12459 12625 5778
12460 12375 3688
12460 12489 964
12460 12489 844
12461 12381 3391
12461 12471 1175
12461 12573 4326
12462 12361 3968
12462 12483 703
12462 12483 867
12463 12458 485
12463 12443 1360
12463 12464 16
12463 12466 318
12464 12459 478
12464 12463 16
12464 12465 62
12464 12523 2004
12465 12464 62
12465 12473 756
12465 12482 619
12466 12463 318
12466 12456 1058
12466 12475 593
12467 12352 7374
12467 12494 2807
12467 12497 3648
12468 12449 3375
12468 12413 2147
12468 12496 2346
12468 12617 4783
12469 12430 2050
12469 12425 4710
12469 12599 6721
12470 12434 2565
12470 12493 1099
12470 12518 1571
12471 12461 1175
12472 12425 2324
12473 12465 756
12473 12477 101
12473 12482 586
12474 12388 3848
12474 12476 784
12474 12556 4170
12475 12466 593
12475 12456 766
12475 12477 14
12475 12490 741
12476 12405 2881
12476 12474 784
12476 12481 330
12477 12473 101
12477 12475 14
12477 12482 702
12477 12520 2687
12478 12439 1725
12478 12488 1450
12478 12437 8249
12478 12570 3200
12479 12480 103
12479 12457 1592
12479 12670 6808
12480 12479 103
12481 12476 330
12481 12444 2602
12481 12491 272
12482 12465 619
12482 12473 586
12482 12477 702
12483 12462 703
12483 12462 867
12483 12497 464
12484 12433 2357
12484 12486 28
12484 12530 3266
12485 12421 3381
12485 12542 2080
12485 12545 4727
12486 12487 5014
12486 12484 28
12486 12530 1579
12487 12486 5014
12487 12493 6793
12488 12478 1450
12488 12439 2476
12488 12492 167
12489 12460 964
12489 12460 844
12489 12496 371
12490 12475 741
12490 12456 1236
12490 12518 1944
12491 12481 272
12492 12488 167
12492 12511 1979
12492 12522 964
12493 12470 1099
12493 12487 6793
12493 12513 952
12494 12467 2807
12494 12280 7849
12494 12541 1806
12495 12433 3403
12495 12498 41
12495 12499 84
12496 12468 2346
12496 12489 371
12496 12497 18
12496 12578 3281
12497 12496 18
12497 12483 464
12497 12467 3648
12497 12577 3275
12498 12495 41
12498 12499 87
12498 12605 3857
12499 12498 87
12499 12495 84
12499 12500 42
12499 12501 49
12500 12499 42
12501 12499 49
12502 12503 2070
12502 12509 3738
12502 12585 4393
12503 12502 2070
12504 12505 275
12505 12504 275
12505 12506 129
12505 12507 56
12505 12631 4215
12506 12505 129
12507 12505 56
12508 12509 2292
12508 12515 7758
12508 12609 4452
12509 12508 2292
12509 12502 3738
12509 12586 3452
12510 12419 4751
12510 12453 3445
12510 12576 2906
12510 12665 5812
12511 12512 1646
12511 12492 1979
12511 12565 3025
12512 12511 1646
12513 12493 952
12513 12521 794
12513 12536 968
12514 12386 4829
12514 12397 5958
12514 12525 552
12515 12255 12460
12515 12508 7758
12515 12574 2566
12516 12517 13
12517 12516 13
12518 12490 1944
12518 12470 1571
12518 12520 14
12518 12536 1505
12519 12403 4663
12519 12524 658
12519 12721 6055
12520 12477 2687
12520 12518 14
12520 12538 1504
12520 12882 11874
12521 12513 794
12521 12537 3081
12521 12561 1917
12522 12492 964
12522 12543 1310
12522 12560 1825
12523 12464 2004
12524 12519 658
12524 12427 5192
12524 12607 2803
12525 12514 552
12525 12540 821
12525 12598 2688
12526 12527 36
12527 12526 36
12528 12529 24
12529 12528 24
12530 12486 1579
12530 12484 3266
12530 12594 2248
12531 12532 39
12532 12531 39
12533 12534 259
12534 12533 259
12534 12549 2637
12534 12550 1280
12535 12421 4731
12535 12542 2158
12535 12591 1916
12536 12518 1505
12536 12513 968
12536 12538 12
12536 12561 2076
12537 12521 3081
12537 12553 1866
12537 12593 1811
12538 12520 1504
12538 12536 12
12538 12562 2083
12538 12582 1633
12539 12540 2102
12540 12539 2102
12540 12525 821
12540 12601 2631
12541 12494 1806
12541 12555 1411
12541 12654 3692
12542 12485 2080
12542 12535 2158
12542 12545 154
12543 12544 844
12543 12522 1310
12543 12564 707
12543 12584 2151
12544 12543 844
12545 12485 4727
12545 12542 154
12545 12546 141
12546 12545 141
12546 12590 1592
12546 12644 3090
12547 12548 1377
12548 12547 1377
12548 12567 2341
12548 12706 5498
12549 12534 2637
12549 12551 1751
12549 12552 139
12550 12534 1280
12550 12551 1272
12550 12567 337
12551 12549 1751
12551 12550 1272
12551 12588 1443
12552 12549 139
12553 12537 1866
12553 12563 437
12553 12606 1564
12554 12450 3948
12554 12642 2524
12554 12698 5246
12555 12541 1411
12556 12474 4170
12556 12581 1317
12556 12678 5682
12557 12558 2191
12557 12559 1531
12557 12594 2347
12558 12557 2191
12559 12557 1531
12559 12563 694
12559 12592 1222
12560 12522 1825
12560 12565 2107
12560 12583 704
12561 12536 2076
12561 12521 1917
12561 12562 15
12561 12593 2209
12562 12538 2083
12562 12561 15
12562 12595 2198
12562 12602 1195
12563 12559 694
12563 12553 437
12563 12618 1611
12564 12543 707
12564 12570 1465
12564 12616 1799
12565 12511 3025
12565 12566 345
12565 12560 2107
12566 12565 345
12567 12550 337
12567 12548 2341
12567 12588 791
12568 12569 7323
12569 12568 7323
12570 12478 3200
12570 12564 1465
12570 12613 1442
12571 12572 626
12572 12571 626
12572 12600 27
12573 12461 4326
12573 12424 6298
12573 12575 14
12573 12658 2525
12574 12515 2566
12574 12442 9478
12574 12646 3079
12575 12573 14
12575 12426 6309
12575 12587 294
12575 12659 2512
12576 12510 2906
12576 12620 2455
12576 12620 4277
12577 12497 3275
12577 12578 23
12577 12654 6267
12577 12906 10841
12578 12496 3281
12578 12577 23
12578 12617 3247
12578 12910 11004
12579 12580 157
12580 12579 157
12580 12591 749
12580 12730 4154
12581 12556 1317
12581 12422 6206
12581 12682 2834
12582 12538 1633
12583 12560 704
12583 12584 11
12583 12720 5533
12584 12543 2151
12584 12583 11
12584 12626 1369
12585 12502 4393
12585 12599 462
12585 12667 4208
12586 12509 3452
12587 12575 294
12587 12596 259
12587 12659 2752
12588 12567 791
12588 12551 1443
12588 12693 3274
12589 12429 6508
12589 12635 3768
12589 12680 3888
12590 12546 1592
12590 12643 1818
12590 12644 2078
12591 12535 1916
12591 12580 749
12591 12643 1812
12592 12559 1222
12593 12561 2209
12593 12537 1811
12593 12595 12
12593 12606 1390
12594 12557 2347
12594 12530 2248
12594 12605 1068
12595 12562 2198
12595 12593 12
12595 12608 1392
12595 12627 925
12596 12587 259
12596 12597 1912
12596 12597 2488
12597 12596 1912
12597 12624 1060
12597 12596 2488
12598 12525 2688
12598 12633 5786
12598 12685 1986
12599 12585 462
12599 12469 6721
12599 12664 1800
12600 12601 1395
12600 12572 27
12601 12600 1395
12601 12540 2631
12601 12612 333
12602 12562 1195
12603 12604 15689
12603 12614 1294
12603 12640 3341
12604 12603 15689
12605 12594 1068
12605 12498 3857
12605 12615 510
12606 12593 1390
12606 12553 1564
12606 12608 15
12606 12618 820
12607 12524 2803
12607 12637 621
12607 12625 5006
12608 12595 1392
12608 12606 15
12608 12619 829
12608 12645 1022
12609 12508 4452
12609 12688 3811
12609 12761 4495
12610 12611 9240
12610 12636 950
12610 12640 2321
12610 12655 1118
12611 12610 9240
12611 12353 125
12612 12601 333
12612 12679 49
12613 12570 1442
12613 12621 2563
12613 12704 2300
12614 12603 1294
12614 12441 9395
12614 12808 6113
12615 12605 510
12615 12622 463
12615 12647 898
12616 12564 1799
12616 12621 712
12616 12626 325
12617 12468 4783
12617 12578 3247
12617 12641 686
12617 12697 3614
12618 12606 820
12618 12563 1611
12618 12619 17
12618 12648 3870
12619 12608 829
12619 12618 17
12619 12651 3995
12619 12645 3198
12620 12576 2455
12620 12632 462
12620 12576 4277
12621 12616 712
12621 12613 2563
12621 12626 1183
12622 12615 463
12622 12623 1422
12622 12631 320
12622 12634 283
12623 12622 1422
12624 12597 1060
12624 12638 417
12624 12642 4675
12625 12459 5778
12625 12607 5006
12625 12707 2539
12626 12584 1369
12626 12616 325
12626 12621 1183
12627 12595 925
12627 12645 1975
12628 12629 2323
12629 12628 2323
12629 12630 1852
12629 12691 2787
12629 12704 3117
12630 12629 1852
12631 12622 320
12631 12505 4215
12631 12634 253
12631 12700 2017
12632 12378 8977
12632 12620 462
12632 12633 195
12632 12751 3339
12633 12598 5786
12633 12632 195
12633 12663 1570
12634 12622 283
12634 12631 253
12634 12647 877
12635 12457 6858
12635 12589 3768
12635 12639 299
12636 12422 9058
12636 12610 950
12636 12666 800
12636 12696 1808
12637 12607 621
12637 12721 2950
12637 12755 4927
12638 12624 417
12639 12635 299
12639 12670 1643
12639 12713 1854
12640 12610 2321
12640 12603 3341
12640 12655 2293
12641 12617 686
12641 12662 1274
12641 12890 7595
12642 12554 2524
12642 12624 4675
12642 12681 820
12643 12590 1818
12643 12591 1812
12643 12717 1907
12644 12546 3090
12644 12590 2078
12644 12698 1121
12645 12608 1022
12645 12627 1975
12645 12619 3198
12646 12574 3079
12646 12687 357
12647 12615 898
12647 12634 877
12647 12683 794
12648 12618 3870
12648 12649 153
12648 12650 146
12649 12648 153
12649 12652 66
12650 12648 146
12650 12660 62
12651 12619 3995
12651 12672 66
12652 12653 281
12652 12649 66
12653 12652 281
12653 12656 133
12653 12661 243
12654 12541 3692
12654 12577 6267
12654 12710 4139
12654 12888 7833
12655 12610 1118
12655 12640 2293
12655 12666 289
12655 12867 7600
12656 12653 133
12656 12677 96
12657 12658 349
12657 12701 1790
12658 12657 349
12658 12573 2525
12658 12659 15
12658 12701 937
12659 12658 15
12659 12575 2512
12659 12587 2752
12659 12702 941
12660 12661 342
12660 12650 62
12661 12660 342
12661 12653 243
12661 12683 981
12662 12641 1274
12663 12633 1570
12663 12736 92
12664 12599 1800
12664 12674 228
12664 12772 6942
12665 12510 5812
12665 12675 550
12665 12703 2655
12666 12636 800
12666 12655 289
12666 12696 1676
12667 12585 4208
12667 12686 500
12667 12715 5479
12668 12669 2716
12668 12678 836
12668 12783 4931
12669 12668 2716
12670 12479 6808
12670 12639 1643
12670 12673 153
12670 12713 2178
12671 12672 796
12671 12676 487
12671 12684 530
12672 12671 796
12672 12676 552
12672 12651 66
12673 12670 153
12674 12664 228
12674 12686 758
12674 12689 245
12675 12665 550
12675 12451 6802
12675 12697 733
12676 12672 552
12676 12677 194
12676 12671 487
12676 12690 331
12677 12676 194
12677 12656 96
12678 12668 836
12678 12556 5682
12678 12709 3409
12679 12680 1722
12679 12612 49
12680 12679 1722
12680 12589 3888
12680 12766 4421
12681 12642 820
12682 12581 2834
12682 12695 3215
12682 12699 810
12683 12661 981
12683 12647 794
12683 12684 13
12683 12711 1869
12684 12671 530
12684 12683 13
12684 12694 610
12684 12712 1872
12685 12598 1986
12685 12735 2438
12685 12860 7315
12686 12667 500
12686 12674 758
12686 12689 670
12686 12715 1710
12687 12688 500
12687 12646 357
12688 12687 500
12688 12609 3811
12688 12776 8304
12689 12686 670
12689 12674 245
12689 12726 1435
12690 12676 331
12690 12694 260
12691 12692 2358
12691 12629 2787
12691 12741 1407
12692 12691 2358
12693 12588 3274
12693 12705 1639
12693 12708 1599
12694 12690 260
12694 12684 610
12694 12848 6102
12695 12682 3215
12695 12696 153
12695 12854 4879
12696 12695 153
12696 12636 1808
12696 12666 1676
12697 12675 733
12697 12617 3614
12697 12775 5097
12697 12881 6858
12698 12554 5246
12698 12644 1121
12698 12714 740
12698 12716 631
12699 12682 810
12699 12709 2315
12699 12719 1453
12700 12631 2017
12700 12711 458
12700 12718 851
12701 12657 1790
12701 12658 937
12701 12702 14
12701 12779 3435
12702 12701 14
12702 12659 941
12702 12728 921
12702 12780 3429
12703 12665 2655
12704 12629 3117
12704 12613 2300
12704 12757 1755
12705 12693 1639
12705 12706 449
12705 12733 822
12706 12548 5498
12706 12705 449
12706 12724 796
12707 12625 2539
12707 12764 2238
12707 12814 4151
12708 12693 1599
12708 12738 672
12708 12741 3214
12709 12699 2315
12709 12678 3409
12709 12829 3659
12710 12654 4139
12711 12683 1869
12711 12700 458
12711 12712 11
12711 12722 786
12712 12684 1872
12712 12711 11
12712 12723 790
12712 12782 2511
12713 12670 2178
12713 12639 1854
12713 12732 743
12713 12766 3596
12714 12698 740
12714 12716 359
12714 12737 644
12715 12667 5479
12715 12686 1710
12715 12731 800
12716 12698 631
12716 12714 359
12716 12739 507
12717 12643 1907
12717 12737 1015
12717 12730 3092
12718 12700 851
12718 12722 108
12718 12724 1794
12719 12699 1453
12719 12823 4306
12719 12861 4396
12720 12583 5533
12720 12725 130
12720 12727 180
12721 12519 6055
12721 12637 2950
12721 12730 904
12722 12711 786
12722 12718 108
12722 12723 11
12722 12742 1925
12723 12712 790
12723 12722 11
12723 12743 1926
12723 12797 2546
12724 12706 796
12724 12718 1794
12724 12742 394
12725 12720 130
12725 12727 157
12725 12749 1099
12726 12689 1435
12726 12729 170
12726 12845 4237
12727 12720 180
12727 12725 157
12727 12752 1725
12728 12702 921
12729 12726 170
12729 12773 2116
12729 12773 2358
12730 12580 4154
12730 12721 904
12730 12717 3092
12731 12715 800
12731 12761 3506
12731 12847 3755
12732 12713 743
12733 12705 822
12733 12734 12
12733 12738 3040
12733 12742 996
12734 12733 12
12734 12740 3041
12734 12743 998
12734 12802 3447
12735 12736 3174
12735 12685 2438
12735 12813 2581
12736 12735 3174
12736 12663 92
12737 12714 644
12737 12717 1015
12737 12745 1068
12738 12733 3040
12738 12708 672
12738 12740 13
12738 12762 3282
12739 12716 507
12739 12880 5765
12739 12969 10817
12740 12734 3041
12740 12738 13
12740 12765 3284
12740 12802 2518
12741 12708 3214
12741 12691 1407
12741 12746 2689
12741 12762 932
12742 12724 394
12742 12733 996
12742 12722 1925
12742 12743 12
12743 12742 12
12743 12734 998
12743 12723 1926
12743 12754 585
12744 12280 19129
12744 12783 1939
12744 12894 5675
12745 12737 1068
12746 12741 2689
12746 12748 62
12747 12748 80
12747 12757 1869
12747 12812 3748
12748 12747 80
12748 12746 62
12749 12725 1099
12749 12750 24
12749 12759 406
12750 12749 24
12751 12632 3339
12751 12770 158
12752 12753 425
12752 12727 1725
12752 12758 519
12753 12752 425
12753 12756 1133
12753 12777 1649
12754 12743 585
12754 12797 2561
12754 12830 3464
12755 12637 4927
12755 12764 1730
12755 12798 1611
12756 12753 1133
12756 12757 156
12756 12760 172
12757 12704 1755
12757 12756 156
12757 12747 1869
12757 12763 179
12758 12752 519
12758 12759 295
12758 12767 374
12759 12758 295
12759 12749 406
12759 12767 203
12760 12756 172
12760 12763 153
12760 12778 602
12761 12609 4495
12761 12731 3506
12761 12776 1888
12762 12738 3282
12762 12741 932
12762 12765 16
12762 12784 2363
12763 12757 179
12763 12760 153
12763 12768 108
12764 12755 1730
12764 12707 2238
12764 12798 1548
12764 12843 3120
12765 12740 3284
12765 12762 16
12765 12785 2355
12765 12812 1505
12766 12713 3596
12766 12680 4421
12766 12774 646
12766 12860 6759
12767 12758 374
12767 12759 203
12767 12787 1354
12768 12763 108
12768 12771 212
12768 12778 266
12769 12770 445
12769 12801 1213
12769 12809 2707
12770 12769 445
12770 12751 158
12771 12768 212
12772 12664 6942
12772 12779 750
12772 12788 927
12773 12729 2116
12773 12729 2358
12773 12832 3180
12773 12834 2321
12774 12766 646
12775 12697 5097
12775 12801 3139
12775 12873 4082
12776 12761 1888
12776 12688 8304
12776 12916 6799
12777 12753 1649
12778 12768 266
12778 12760 602
12778 12786 326
12779 12772 750
12779 12701 3435
12779 12780 15
12779 12788 502
12780 12779 15
12780 12702 3429
12780 12781 1059
12780 12789 512
12781 12780 1059
12782 12712 2511
12782 12848 6721
12783 12744 1939
12783 12668 4931
12783 12815 1744
12784 12762 2363
12784 12790 35
12785 12765 2355
12785 12793 35
12786 12778 326
12786 12799 771
12786 12862 2174
12787 12767 1354
12788 12772 927
12788 12779 502
12788 12789 15
12788 12835 1609
12789 12788 15
12789 12780 512
12789 12836 1598
12789 12842 1523
12790 12791 839
12790 12784 35
12791 12790 839
12791 12794 539
12791 12795 591
12792 12793 952
12792 12800 838
12792 12805 496
12793 12792 952
12793 12785 35
12794 12791 539
12794 12803 84
12795 12791 591
12795 12796 539
12795 12810 1170
12796 12795 539
12796 12806 87
12797 12723 2546
12797 12754 2561
12797 12961 9422
12797 12978 7810
12798 12755 1611
12798 12764 1548
12798 12827 759
12799 12786 771
12799 12817 100
12800 12792 838
12800 12804 536
12800 12811 817
12801 12769 1213
12801 12775 3139
12801 12820 439
12802 12734 3447
12802 12740 2518
12802 12830 1505
12803 12804 148
12803 12794 84
12804 12803 148
12804 12800 536
12804 12807 77
12805 12792 496
12805 12806 152
12805 12807 76
12806 12805 152
12806 12796 87
12807 12805 76
12807 12804 77
12807 12816 188
12808 12614 6113
12808 12821 6674
12808 12886 3080
12809 12769 2707
12809 12819 34
12810 12795 1170
12810 12850 45
12811 12800 817
12811 12853 46
12812 12765 1505
12812 12747 3748
12812 12899 4869
12813 12735 2581
12813 12818 2720
12813 12903 3835
12814 12707 4151
12814 12843 1951
12814 12882 3731
12815 12783 1744
12815 12870 4867
12815 12879 2115
12816 12807 188
12816 12817 410
12816 12967 6899
12817 12816 410
12817 12799 100
12818 12813 2720
12818 12819 170
12818 12866 1690
12819 12818 170
12819 12809 34
12820 12801 439
12820 12826 252
12820 12859 1852
12821 12808 6674
12821 12822 1737
12821 12828 184
12821 12886 2779
12822 12821 1737
12823 12719 4306
12823 12861 1610
12823 12854 2070
12824 12825 108
12825 12824 108
12825 12826 139
12825 12831 132
12826 12820 252
12826 12825 139
12826 12833 223
12827 12798 759
12827 12865 2628
12827 12887 2186
12828 12821 184
12829 12709 3659
12830 12754 3464
12830 12802 1505
12830 12899 4005
12831 12825 132
12832 12773 3180
12832 12835 570
12832 12841 201
12833 12826 223
12833 12859 1151
12833 12923 3314
12834 12773 2321
12835 12832 570
12835 12788 1609
12835 12836 16
12835 12849 506
12836 12835 16
12836 12789 1598
12836 12837 23
12836 12844 262
12837 12836 23
12837 12840 815
12837 12840 459
12838 12839 2393
12838 12880 12060
12838 12912 5223
12839 12838 2393
12840 12837 815
12840 12837 459
12840 12842 899
12840 12936 3417
12841 12832 201
12841 12846 313
12842 12840 899
12842 12789 1523
12842 12994 11651
12843 12764 3120
12843 12814 1951
12843 12887 2692
12844 12836 262
12844 12855 339
12844 12856 393
12845 12726 4237
12846 12841 313
12846 12849 319
12846 12857 249
12846 12868 620
12847 12731 3755
12848 12694 6102
12848 12782 6721
12848 12882 9005
12849 12835 506
12849 12846 319
12849 12857 173
12850 12851 2267
12850 12810 45
12851 12850 2267
12851 12871 68
12852 12853 2260
12852 12875 68
12853 12852 2260
12853 12811 46
12854 12695 4879
12854 12823 2070
12854 12942 3276
12855 12844 339
12855 12856 251
12855 12858 187
12856 12844 393
12856 12855 251
12856 12858 27
12857 12846 249
12857 12849 173
12857 12858 16
12857 12868 457
12858 12857 16
12858 12856 27
12858 12855 187
12858 12934 2962
12859 12820 1852
12859 12833 1151
12859 12891 1865
12860 12766 6759
12860 12685 7315
12860 12877 1014
12861 12719 4396
12861 12823 1610
12861 12942 5829
12862 12786 2174
12862 12863 8
12862 12876 856
12863 12862 8
12863 12864 1526
12863 12904 2021
12864 12863 1526
12864 12884 35
12865 12827 2628
12865 12869 481
12866 12818 1690
12866 12895 1615
12866 12897 2576
12867 12655 7600
12867 12928 5758
12867 12962 5852
12868 12846 620
12868 12857 457
12868 12933 2519
12869 12865 481
12870 12815 4867
12871 12872 1614
12871 12851 68
12872 12871 1614
12873 12775 4082
12874 12875 1624
12875 12874 1624
12875 12852 68
12876 12862 856
12876 12878 402
12876 12892 1041
12877 12860 1014
12877 12903 2700
12877 12909 2027
12878 12876 402
12879 12815 2115
12879 12896 978
12879 12907 2092
12880 12739 5765
12880 12838 12060
12880 12914 2059
12881 12697 6858
12881 12890 495
12881 12931 2724
12882 12520 11874
12882 12814 3731
12882 12848 9005
12883 12884 1899
12883 12885 121
12883 12930 1852
12884 12883 1899
12884 12864 35
12885 12883 121
12886 12808 3080
12886 12821 2779
12886 12893 326
12887 12827 2186
12887 12843 2692
12887 12977 5491
12888 12654 7833
12888 12889 6052
12888 12939 4045
12888 12973 4144
12889 12888 6052
12890 12881 495
12890 12641 7595
12890 12954 3087
12891 12859 1865
12891 12898 34
12892 12876 1041
12893 12886 326
12893 12928 2753
12893 12963 3515
12894 12744 5675
12894 12905 1972
12894 12929 1389
12895 12866 1615
12895 12900 98
12895 12902 573
12895 12924 2151
12896 12879 978
12896 12907 1182
12896 12929 1027
12897 12866 2576
12897 12898 772
12897 12901 425
12897 12947 1745
12898 12897 772
12898 12891 34
12899 12830 4005
12899 12812 4869
12899 12961 3153
12900 12895 98
12900 12917 678
12900 12952 2027
12901 12897 425
12901 12902 30
12902 12895 573
12902 12901 30
12903 12877 2700
12903 12813 3835
12903 12908 305
12903 12908 468
12904 12863 2021
12904 12943 2044
12904 12967 5950
12905 12894 1972
12906 12577 10841
12906 12911 275
12906 12918 392
12907 12896 1182
12907 12879 2092
12907 12935 2542
12908 12903 305
12908 12903 468
12908 12924 1797
12908 12953 2358
12909 12877 2027
12910 12578 11004
12910 12920 281
12910 12925 407
12911 12906 275
12911 12918 261
12911 12919 291
12912 12838 5223
12912 12913 42
12913 12912 42
12913 12914 67
12913 12915 44
12914 12913 67
12914 12880 2059
12914 12915 76
12915 12913 44
12915 12914 76
12915 12957 2145
12916 12776 6799
12916 12990 15961
12916 13099 15908
12917 12900 678
12917 12945 49
12918 12906 392
12918 12911 261
12918 12919 38
12919 12918 38
12919 12911 291
12919 12920 21
12919 12939 421
12920 12910 281
12920 12919 21
12920 12925 181
12920 12927 223
12921 12922 200
12921 12930 433
12921 12938 264
12922 12921 200
12923 12833 3314
12923 12947 3129
12923 12976 5804
12924 12895 2151
12924 12908 1797
12924 12944 791
12925 12910 407
12925 12920 181
12925 12926 70
12926 12925 70
12926 12927 329
12926 12937 152
12927 12926 329
12927 12920 223
12927 12940 192
12928 12867 5758
12928 12893 2753
12928 12964 2780
12929 12894 1389
12929 12896 1027
12929 12981 3414
12930 12883 1852
12930 12921 433
12930 12943 1485
12931 12932 6123
12931 12881 2724
12931 12959 1908
12932 12931 6123
12933 12868 2519
12933 12991 2031
12934 12858 2962
12934 12993 2022
12935 12907 2542
12936 12840 3417
12937 12926 152
12937 12941 218
12938 12921 264
12939 12919 421
12939 12888 4045
12939 12940 21
12939 12955 1513
12940 12927 192
12940 12939 21
12940 12941 337
12940 12956 1516
12941 12937 218
12941 12940 337
12941 12946 614
12942 12854 3276
12942 12861 5829
12942 13011 5978
12943 12904 2044
12943 12930 1485
12943 12948 356
12944 12924 791
12944 12945 1414
12944 12950 386
12945 12944 1414
12945 12917 49
12946 12941 614
12946 12954 5295
12946 12968 1500
12947 12897 1745
12947 12923 3129
12947 12952 1387
12948 12943 356
12948 12949 370
12948 12951 420
12949 12948 370
12950 12944 386
12950 12953 605
12950 12958 2061
12951 12948 420
12952 12900 2027
12952 12947 1387
12952 12958 490
12953 12908 2358
12953 12950 605
12953 12958 2977
12954 12890 3087
12954 12946 5295
12954 12959 3090
12954 12960 429
12955 12939 1513
12955 12956 17
12955 13004 3579
12955 13004 5332
12956 12940 1516
12956 12955 17
12956 12968 1692
12956 13005 3570
12957 12915 2145
12957 12972 787
12957 12972 1061
12958 12952 490
12958 12950 2061
12958 12953 2977
12959 12931 1908
12959 12954 3090
12959 12976 3518
12960 12954 429
12960 12966 1224
12960 12983 2823
12961 12797 9422
12961 12899 3153
12961 12970 401
12962 12867 5852
12962 13009 3715
12962 13011 4581
12963 12893 3515
12963 12986 2581
12963 13009 9111
12964 12928 2780
12965 12966 296
12966 12965 296
12966 12960 1224
12966 12971 975
12966 12983 6630
12967 12816 6899
12967 12904 5950
12967 12975 1738
12968 12946 1500
12968 12956 1692
12968 13012 3109
12969 12739 10817
12969 12974 6531
12969 13002 4183
12970 12961 401
12970 12975 1636
12970 12985 3023
12971 12966 975
12971 12998 4316
12971 13025 4434
12972 12957 787
12972 12957 1061
12972 12974 412
12973 12888 4144
12973 12984 1336
12973 13000 12573
12974 12972 412
12974 12969 6531
12974 12995 3138
12975 12970 1636
12975 12967 1738
12975 12982 1370
12976 12923 5804
12976 12959 3518
12976 12998 2121
12977 12887 5491
12977 12989 71
12978 12797 7810
12978 13033 6312
12978 13035 10042
12979 12980 2760
12980 12979 2760
12980 12981 126
12980 13000 3582
12981 12980 126
12981 12929 3414
12981 13013 2295
12982 12975 1370
12983 12960 2823
12983 12966 6630
12983 13029 4194
12984 12973 1336
12984 13079 8592
12984 13147 13087
12985 12970 3023
12985 12987 522
12985 13035 4698
12986 12963 2581
12987 12985 522
12988 12989 1511
12988 12999 544
12988 13010 3629
12989 12988 1511
12989 13014 5210
12989 12977 71
12990 12991 2925
12990 12992 13
12990 12916 15961
12990 13007 566
12991 12990 2925
12991 12933 2031
12992 12990 13
12992 12993 2960
12992 13008 561
12992 13039 7323
12993 12992 2960
12993 12934 2022
12994 12842 11651
12994 12996 68
12995 12996 23
12995 12974 3138
12995 12997 26
12996 12995 23
12996 12994 68
12997 12995 26
12997 13034 4018
12997 13039 9727
12998 12976 2121
12998 12971 4316
12998 13001 2096
12998 13107 11232
12999 12988 544
12999 13006 268
12999 13027 3911
13000 12973 12573
13000 12980 3582
13000 13060 6934
13001 12998 2096
13002 12969 4183
13002 13003 3623
13002 13014 1078
13003 13002 3623
13004 12955 3579
13004 12955 5332
13004 13005 17
13004 13079 6696
13005 12956 3570
13005 13004 17
13005 13012 2815
13005 13080 6705
13006 12999 268
13007 12990 566
13007 13022 592
13008 12992 561
13008 13019 574
13009 12962 3715
13009 12963 9111
13009 13024 1678
13010 12988 3629
13010 13151 669
13011 12942 5978
13011 12962 4581
13012 12968 3109
13012 13005 2815
13012 13029 2086
13013 12981 2295
13013 13015 1897
13013 13026 1525
13014 13002 1078
13014 12989 5210
13014 13016 197
13015 13013 1897
13015 13018 1307
13015 13026 2412
13016 13014 197
13016 13023 517
13016 13052 3912
13017 13018 8378
13018 13017 8378
13018 13015 1307
13018 13077 8217
13019 13020 560
13019 13008 574
13020 13019 560
13020 13044 643
13021 13022 576
13021 13047 667
13022 13021 576
13022 13007 592
13023 13016 517
13023 13030 4165
13023 13086 6316
13024 13009 1678
13025 12971 4434
13026 13013 1525
13026 13015 2412
13026 13054 2827
13027 12999 3911
13027 13028 1427
13027 13030 187
13028 13027 1427
13029 12983 4194
13029 13012 2086
13029 13038 1959
13029 13083 5808
13030 13027 187
13030 13023 4165
13030 13031 1713
13031 13030 1713
13031 13032 2330
13031 13036 768
13032 13031 2330
13033 12978 6312
13033 13088 8672
13033 13145 15604
13034 12997 4018
13034 13037 893
13034 13104 4651
13035 12985 4698
13035 12978 10042
13035 13076 2928
13036 13031 768
13037 13034 893
13037 13040 509
13037 13082 2950
13038 13029 1959
13038 13063 3398
13038 13107 4777
13039 12992 7323
13039 12997 9727
13039 13120 5554
13040 13037 509
13040 13041 1072
13040 13074 5076
13041 13040 1072
13042 13043 1675
13042 13046 391
13042 13066 1483
13043 13042 1675
13044 13045 2365
13044 13020 643
13045 13044 2365
13045 13048 116
13045 13049 118
13046 13042 391
13046 13047 2429
13046 13048 14
13046 13050 33
13047 13046 2429
13047 13021 667
13048 13046 14
13048 13045 116
13048 13049 8
13048 13057 401
13049 13048 8
13049 13045 118
13049 13062 600
13049 13069 1231
13050 13046 33
13050 13051 255
13050 13056 370
13051 13050 255
13051 13053 234
13051 13053 226
13052 13016 3912
13052 13073 332
13053 13051 234
13053 13051 226
13053 13056 15
13053 13064 221
13054 13055 1996
13054 13026 2827
13054 13058 34
13055 13054 1996
13056 13053 15
13056 13050 370
13056 13057 14
13056 13064 221
13057 13056 14
13057 13048 401
13057 13059 225
13057 13065 222
13058 13054 34
13058 13061 536
13058 13068 1491
13059 13057 225
13059 13062 61
13059 13065 351
13060 13000 6934
13061 13058 536
13062 13059 61
13062 13049 600
13062 13067 366
13063 13038 3398
13064 13053 221
13064 13056 221
13064 13070 1087
13065 13057 222
13065 13059 351
13065 13071 1095
13066 13042 1483
13067 13062 366
13067 13069 343
13068 13058 1491
13068 13130 2802
13068 13136 3802
13069 13067 343
13069 13049 1231
13069 13081 982
13069 13120 2887
13070 13064 1087
13070 13071 19
13070 13132 3903
13070 13132 2214
13071 13070 19
13071 13065 1095
13071 13081 936
13071 13133 2210
13072 13073 1663
13072 13092 33
13073 13072 1663
13073 13052 332
13074 13040 5076
13074 13075 2791
13074 13094 1755
13075 13074 2791
13075 13084 2226
13075 13094 2071
13076 13035 2928
13076 13078 106
13077 13018 8217
13078 13076 106
13079 13004 6696
13079 12984 8592
13079 13080 20
13079 13123 1535
13080 13005 6705
13080 13079 20
13080 13085 336
13080 13125 1532
13081 13071 936
13081 13069 982
13081 13119 1167
13082 13037 2950
13083 13029 5808
13083 13085 606
13083 13163 4657
13084 13075 2226
13085 13083 606
13085 13080 336
13085 13131 1285
13086 13023 6316
13086 13087 372
13086 13161 5393
13087 13086 372
13088 13033 8672
13089 13090 5
13089 13093 23
13090 13089 5
13090 13096 68
13091 13092 1287
13091 13093 5
13091 13095 13
13092 13091 1287
13092 13072 33
13093 13091 5
13093 13089 23
13094 13074 1755
13094 13075 2071
13094 13141 3066
13094 13142 2656
13095 13091 13
13096 13090 68
13096 13097 13
13096 13098 70
13097 13096 13
13098 13096 70
13098 13100 85
13099 12916 15908
13099 13113 1767
13099 13135 1467
13100 13101 218
13100 13098 85
13101 13100 218
13101 13102 187
13101 13103 344
13102 13101 187
13102 13106 66
13103 13101 344
13104 13034 4651
13105 13106 94
13105 13112 139
13105 13114 107
13106 13105 94
13106 13102 66
13107 12998 11232
13107 13038 4777
13107 13200 16493
13108 13109 5
13109 13108 5
13109 13110 13
13109 13110 29
13110 13111 106
13110 13109 13
13110 13109 29
13111 13110 106
13112 13105 139
13112 13114 52
13112 13115 48
13113 13099 1767
13113 13128 1359
13113 13135 2801
13114 13112 52
13114 13105 107
13115 13112 48
13115 13116 27
13116 13115 27
13116 13118 15
13116 13122 121
13117 13118 15
13117 13121 54
13118 13117 15
13118 13116 15
13119 13081 1167
13119 13120 818
13119 13137 1725
13120 13119 818
13120 13069 2887
13120 13039 5554
13120 13198 7465
13121 13117 54
13121 13127 124
13122 13116 121
13123 13079 1535
13123 13124 2837
13123 13125 21
13123 13157 2951
13124 13123 2837
13125 13080 1532
13125 13123 21
13125 13131 296
13125 13159 3117
13126 13127 298
13127 13126 298
13127 13121 124
13128 13113 1359
13128 13129 695
13128 13173 7563
13129 13128 695
13129 13134 3175
13129 13139 9986
13130 13068 2802
13130 13140 3050
13130 13148 1853
13131 13085 1285
13131 13125 296
13131 13162 3061
13132 13070 3903
13132 13070 2214
13132 13133 13
13132 13139 363
13133 13132 13
13133 13071 2210
13133 13137 329
13133 13138 347
13134 13129 3175
13135 13099 1467
13135 13113 2801
13135 13190 3414
13136 13068 3802
13136 13140 231
13136 13140 330
13136 13147 2586
13137 13133 329
13137 13119 1725
13137 13138 330
13138 13133 347
13138 13137 330
13138 13139 20
13138 13144 1092
13139 13132 363
13139 13138 20
13139 13129 9986
13139 13143 1079
13140 13136 231
13140 13130 3050
13140 13136 330
13141 13094 3066
13142 13094 2656
13143 13139 1079
13143 13174 535
13144 13138 1092
13144 13178 536
13145 13033 15604
13145 13146 3568
13145 13155 770
13146 13145 3568
13147 12984 13087
13147 13136 2586
13147 13186 6755
13148 13130 1853
13149 13150 522
13149 13151 9924
13149 13154 815
13149 13160 870
13150 13149 522
13150 13152 1550
13151 13149 9924
13151 13010 669
13152 13153 1215
13152 13150 1550
13153 13152 1215
13154 13149 815
13154 13155 669
13154 13156 418
13155 13154 669
13155 13145 770
13155 13181 806
13156 13154 418
13156 13158 770
13156 13181 872
13157 13123 2951
13157 13170 431
13157 13175 554
13158 13156 770
13158 13160 278
13158 13164 205
13159 13125 3117
13159 13168 287
13159 13172 258
13160 13149 870
13160 13158 278
13160 13165 167
13161 13086 5393
13161 13183 2736
13161 13197 4592
13162 13131 3061
13162 13163 121
13162 13166 272
13162 13189 562
13163 13083 4657
13163 13162 121
13163 13223 8767
13164 13158 205
13165 13160 167
13165 13182 490
13165 13199 2514
13166 13162 272
13166 13167 243
13166 13184 518
13167 13166 243
13167 13168 68
13167 13171 48
13168 13167 68
13168 13159 287
13168 13172 125
13169 13170 5
13169 13175 11
13170 13157 431
13170 13169 5
13170 13172 19
13170 13176 11
13171 13167 48
13171 13179 153
13171 13184 279
13172 13159 258
13172 13170 19
13172 13168 125
13172 13179 10
13173 13174 1271
13173 13177 13
13173 13128 7563
13173 13194 2589
13174 13173 1271
13174 13143 535
13175 13169 11
13175 13157 554
13175 13176 4
13175 13180 26
13176 13170 11
13176 13175 4
13176 13179 19
13176 13180 25
13177 13173 13
13177 13178 1270
13177 13187 1313
13177 13193 2528
13178 13177 1270
13178 13144 536
13179 13172 10
13179 13176 19
13179 13171 153
13179 13185 193
13180 13176 25
13180 13175 26
13180 13186 184
13181 13156 872
13181 13155 806
13181 13195 6206
13181 13199 2050
13182 13165 490
13183 13161 2736
13184 13166 518
13184 13171 279
13184 13185 11
13184 13188 133
13185 13184 11
13185 13179 193
13185 13186 23
13185 13188 126
13186 13185 23
13186 13180 184
13186 13192 483
13186 13147 6755
13187 13177 1313
13188 13184 133
13188 13185 126
13188 13191 358
13189 13162 562
13190 13135 3414
13191 13188 358
13192 13186 483
13193 13177 2528
13193 13604 261
13194 13173 2589
13194 13603 233
13195 13181 6206
13196 13197 1016
13197 13196 1016
13197 13161 4592
13197 13203 2460
13197 13225 3613
13198 13120 7465
13198 13226 2907
13198 13235 9454
13199 13165 2514
13199 13181 2050
13199 13219 905
13199 13220 1291
13200 13107 16493
13201 13202 39
13202 13201 39
13203 13197 2460
13203 13206 17
13204 13205 2
13205 13204 2
13206 13203 17
13207 13208 17
13208 13207 17
13209 13210 23
13210 13209 23
13211 13212 28
13212 13211 28
13213 13214 37
13214 13213 37
13215 13216 5
13216 13215 5
13217 13218 0
13218 13217 0
13219 13199 905
13220 13199 1291
13221 13222 483
13222 13221 483
13223 13224 310
13223 13163 8767
13223 13237 3043
13224 13223 310
13225 13197 3613
13225 13238 3340
13225 13250 9620
13226 13198 2907
13226 13227 924
13226 13236 1248
13227 13226 924
13227 13232 5278
13228 13229 1166
13228 13230 76
13228 13231 155
13229 13228 1166
13230 13228 76
13231 13228 155
13231 13232 123
13231 13234 430
13232 13231 123
13232 13233 2347
13232 13227 5278
13233 13232 2347
13234 13231 430
13235 13198 9454
13236 13226 1248
13237 13223 3043
13238 13225 3340
13238 13239 247
13238 13242 746
13239 13238 247
13240 13241 684
13241 13240 684
13242 13238 746
13242 13243 9
13243 13242 9
13244 13245 9
13245 13244 9
13246 13247 2606
13247 13246 2606
13248 13249 2578
13249 13248 2578
13250 13225 9620
13250 13251 5674
13250 13254 3571
13251 13250 5674
13252 13253 14
13253 13252 14
13254 13250 3571
13255 13256 42
13256 13255 42
13257 13258 34
13258 13257 34
13259 712 155
13260 707 601
13260 779 601
13260 13261 71
13261 758 400
13261 773 400
13261 13260 71
13262 1520 215
13262 1479 185
13262 1631 167
13263 1466 270
13263 1441 193
13263 1623 84
13264 1844 12
13264 1882 24
13265 2062 35
13265 2058 36
13265 1968 378
13265 2177 301
13266 2409 136
13266 13267 45
13266 13269 451
13267 2447 1
13267 13266 45
13267 2474 52
13267 2523 294
13268 2495 95
13268 2517 185
13269 13270 135
13269 13266 451
13269 13271 108
13270 2447 527
13270 2558 527
13270 13269 135
13271 13269 108
13271 2523 288
13271 13272 307
13272 13271 307
13272 2613 322
13272 13275 562
13273 2593 209
13273 13274 50
13274 2640 138
13274 13273 50
13274 2644 142
13274 13279 502
13275 2760 4
13275 13272 562
13275 2790 91
13275 2878 773
13276 2776 247
13276 13282 1435
13277 2822 238
13277 2830 238
13277 13278 183
13278 13277 183
13278 2825 193
13278 2791 391
13278 2838 182
13279 2854 204
13279 13274 502
13279 13293 529
13280 2797 143
13280 13282 138
13280 13283 117
13281 2797 158
13281 13283 112
13281 2953 209
13282 13280 138
13282 13283 29
13282 13276 1435
13283 13280 117
13283 13282 29
13283 13281 112
13283 2954 112
13284 2879 237
13284 13285 24
13284 2986 113
13285 2938 72
13285 13284 24
13285 13286 73
13286 2937 26
13286 13285 73
13286 13287 11
13286 2985 53
13287 13286 11
13287 13288 161
13287 13289 265
13288 13287 161
13288 13289 122
13289 13288 122
13289 13287 265
13289 13290 70
13289 3207 288
13290 2984 601
13290 3203 601
13290 13289 70
13291 3150 17
13292 3163 17
13293 13279 529
13293 3020 333
13293 3299 85
13294 3195 31
13295 3268 1033
13295 13296 41
13295 13299 158
13296 13295 41
13296 13297 319
13296 13300 155
13297 3639 77
13297 13298 73
13297 13296 319
13298 13297 73
13298 13303 101
13298 3939 165
13299 13295 158
13299 13300 127
13299 13304 158
13300 13296 155
13300 13299 127
13300 13304 48
13301 3407 529
13301 13302 552
13301 13305 276
13302 3456 192
13302 3514 192
13302 13301 552
13303 13298 101
13303 13304 43
13304 13303 43
13304 13300 48
13304 13299 158
13304 3940 73
13305 3878 224
13305 13301 276
13305 13306 60
13306 13305 60
13306 13307 221
13306 13308 221
13307 13306 221
13307 13311 158
13307 13312 144
13308 13306 221
13308 13313 144
13308 13314 159
13309 4070 94
13309 13316 247
13309 13327 186
13310 4118 86
13310 13311 27
13310 13317 22
13311 13307 158
13311 13310 27
13311 13312 57
13311 13317 49
13312 13307 144
13312 13311 57
13312 13313 21
13312 13322 21
13313 13308 144
13313 13312 21
13313 13314 59
13313 13323 21
13314 13308 159
13314 13313 59
13314 13315 37
13314 13318 59
13315 13314 37
13315 4132 141
13315 13318 22
13316 3974 397
13316 13309 247
13316 4135 194
13316 13328 22
13317 13310 22
13317 4119 447
13317 13311 49
13317 13320 13
13318 13315 22
13318 13314 59
13318 4133 214
13318 13325 15
13319 4119 284
13319 13320 156
13319 13341 411
13320 13317 13
13320 13319 156
13320 13321 39
13320 13329 45
13321 13320 39
13321 13322 72
13321 13329 58
13322 13312 21
13322 13321 72
13322 13323 21
13322 13331 67
13323 13313 21
13323 13322 21
13323 13324 73
13323 13332 73
13324 13323 73
13324 13325 50
13324 13330 64
13325 13318 15
13325 13324 50
13325 13326 121
13325 13330 49
13326 13325 121
13326 4140 88
13326 13340 378
13327 13309 186
13327 4139 251
13327 13328 66
13327 13334 129
13328 13316 22
13328 13327 66
13328 4142 58
13328 13334 96
13329 13321 58
13329 13320 45
13329 13336 94
13329 13336 96
13330 13325 49
13330 13324 64
13330 13335 84
13330 13335 83
13331 13322 67
13331 13336 72
13331 13341 197
13332 13323 73
13332 13335 71
13332 13340 189
13333 3970 559
13333 13338 191
13333 13339 177
13334 13328 96
13334 13327 129
13334 13360 2443
13335 13330 84
13335 13330 83
13335 13332 71
13335 13340 168
13336 13329 94
13336 13329 96
13336 13331 72
13336 13341 166
13337 4089 862
13337 13346 190
13337 13347 203
13338 13333 191
13338 13363 1530
13339 13333 177
13339 13364 1515
13340 13326 378
13340 13335 168
13340 13332 189
13340 13352 232
13341 13331 197
13341 13336 166
13341 13319 411
13341 13356 390
13342 4212 169
13342 4267 169
13342 4257 136
13343 4264 56
13343 4265 129
13344 4267 55
13344 13345 10
13345 13344 10
13345 4273 178
13345 4305 115
13346 13337 190
13346 13347 21
13346 13350 50
13347 13346 21
13347 13337 203
13347 13348 13
13347 13349 12
13348 13347 13
13348 13349 20
13348 4297 348
13349 13347 12
13349 13348 20
13349 13350 35
13349 13353 243
13350 13346 50
13350 13349 35
13350 13353 206
13351 4290 38
13351 4303 32
13351 13353 1312
13352 13340 232
13352 13354 112
13352 13355 128
13353 13350 206
13353 13349 243
13353 13351 1312
13354 13352 112
13355 13352 128
13356 13341 390
13357 4589 63
13357 4595 3
13357 4600 36
13358 4582 607
13358 4687 607
13358 13359 395
13359 13358 395
13359 4633 331
13359 13360 8
13359 13366 39
13360 13334 2443
13360 13359 8
13360 13361 5
13360 13366 32
13361 13362 404
13361 13360 5
13361 13365 17
13361 13366 28
13362 4584 635
13362 4701 635
13362 13361 404
13363 4707 219
13363 4746 219
13363 13338 1530
13364 4746 220
13364 13339 1515
13365 4701 291
13365 4736 291
13365 13361 17
13366 13361 28
13366 13360 32
13366 13359 39
13366 13403 2386
13367 4753 24
13367 4754 24
13367 13368 47
13368 4759 29
13368 4760 29
13368 13367 47
13369 4991 28
13369 13370 695
13369 13370 714
13370 4981 68
13370 13369 695
13370 13369 714
13371 13372 51
13372 13371 51
13373 13374 44
13374 13373 44
13375 13376 47
13376 13375 47
13377 13378 46
13378 13377 46
13379 13380 41
13380 13379 41
13381 13382 47
13382 13381 47
13383 13384 41
13384 13383 41
13385 13386 51
13386 13385 51
13387 13388 46
13388 13387 46
13389 13390 42
13390 13389 42
13391 13392 52
13392 13391 52
13393 13394 57
13394 13393 57
13395 13396 62
13396 13395 62
13397 13398 50
13398 13397 50
13399 13400 53
13400 13399 53
13401 13402 53
13402 13401 53
13403 13366 2386
13403 13404 49
13404 13403 49
13404 5058 274
13404 5074 366
13404 5937 5769
13405 5135 418
13405 5148 135
13405 13406 105
13405 5142 416
13406 5108 289
13406 13405 105
13406 5156 343
13406 5212 275
13407 5616 116
13407 13410 338
13407 5732 520
13408 5610 383
13408 13409 238
13408 5728 253
13409 13408 238
13410 13407 338
13411 5786 295
13411 5853 79
13411 5908 354
13412 5787 295
13412 5889 264
13412 5895 354
13413 13414 10
13414 13413 10
13415 13416 134
13415 5856 234
13415 5910 373
13416 13415 134
13417 5881 459
13418 5995 256
13419 5942 524
13419 5941 554
13419 6164 140
13420 13421 31
13421 13420 31
13422 13423 17
13423 13422 17
13424 13425 24
13425 13424 24
13426 13427 73
13427 13426 73
13428 13429 269
13429 13428 269
13430 13431 76
13431 13430 76
13432 13433 93
13433 13432 93
13434 13435 52
13435 13434 52
13436 13437 276
13437 13436 276
13438 13439 235
13439 13438 235
13440 13441 74
13441 13440 74
13442 13443 33
13443 13442 33
13444 13445 59
13445 13444 59
13446 6226 68
13446 13448 227
13446 13451 418
13447 6230 61
13447 6274 226
13447 13452 418
13448 13446 227
13448 6267 488
13448 6300 420
13449 6333 272
13449 6290 179
13450 6336 274
13450 6296 166
13451 13446 418
13451 6280 286
13451 13455 223
13452 13447 418
13452 6288 217
13452 13460 226
13453 6281 95
13454 6283 102
13455 13451 223
13455 6289 180
13455 13460 21
13455 6328 91
13456 13457 2493
13457 13456 2493
13458 13459 2382
13459 13458 2382
13460 13452 226
13460 13455 21
13460 6273 417
13460 6331 93
13461 13462 23
13462 13461 23
13463 13464 20
13464 13463 20
13465 13466 18
13466 13465 18
13467 13468 1
13468 13467 1
13469 6332 677
13470 6337 657
13471 6597 505
13472 6601 519
13473 6716 383
13473 13474 297
13473 7464 2173
13474 6720 152
13474 13473 297
13474 13475 14
13474 13477 373
13475 13474 14
13475 13476 61
13475 13480 295
13475 7467 2452
13476 13475 61
13476 13479 366
13476 13480 263
13477 13478 463
13477 13474 373
13477 7759 2745
13478 6649 429
13478 6720 429
13478 13477 463
13479 13476 366
13479 13480 289
13479 7763 2685
13480 13479 289
13480 13476 263
13480 13475 295
13481 13482 62
13482 13481 62
13483 13484 57
13484 13483 57
13485 7174 206
13486 13487 22
13486 13488 8
13486 7246 167
13487 13486 22
13488 13486 8
13489 13490 47
13490 13489 47
13491 7466 88
13491 13495 362
13491 7571 230
13492 7465 321
13492 7524 266
13492 13496 329
13493 13494 63
13494 13493 63
13495 13491 362
13495 7572 170
13495 7649 369
13496 13492 329
13496 7532 134
13496 7638 168
13497 13498 337
13498 13497 337
13498 7667 328
13498 13502 215
13499 13500 195
13499 13503 209
13499 7749 292
13500 13499 195
13501 7667 111
13501 13502 88
13501 7805 275
13502 13498 215
13502 13501 88
13502 13503 17
13502 13505 58
13503 13499 209
13503 13502 17
13503 13504 79
13503 13506 59
13504 13503 79
13504 7749 90
13504 7807 292
13505 13502 58
13505 7703 152
13505 7803 161
13506 13503 59
13506 7714 142
13506 7808 160
13507 7731 34
13508 7725 127
13509 13510 45
13510 13509 45
13511 13512 34
13512 13511 34
13513 13514 3
13514 13513 3
13515 13516 8
13516 13515 8
13517 7967 114
13518 7978 106
13519 7937 27
13519 7937 20
13519 13520 3
13520 13519 3
13520 7937 24
13521 7942 16
13521 13523 109
13521 13526 167
13521 13528 139
13522 7878 229
13522 8030 192
13522 7966 301
13522 13524 180
13523 13521 109
13523 13531 106
13524 13522 180
13525 7970 41
13526 13521 167
13526 7797 542
13526 8057 214
13527 7980 73
13527 7905 283
13527 13530 12
13527 13531 43
13528 13521 139
13528 13529 216
13528 13536 42
13529 13528 216
13529 13536 233
13530 7983 71
13530 13527 12
13530 13533 46
13530 8022 36
13531 13527 43
13531 13523 106
13531 13533 12
13531 13534 33
13532 7996 13
13533 13530 46
13533 13531 12
13533 13537 35
13533 13556 145
13534 13531 33
13534 13536 35
13534 13538 34
13535 7982 153
13535 13545 82
13535 13547 148
13536 13534 35
13536 13528 42
13536 13538 6
13536 13529 233
13537 13533 35
13537 13539 32
13537 13542 32
13538 13534 34
13538 13536 6
13538 13539 12
13538 8055 273
13539 13537 32
13539 13538 12
13539 13542 2
13539 13550 92
13540 13541 15
13541 13540 15
13542 13537 32
13542 13539 2
13542 13551 41
13542 13559 231
13543 13544 21
13544 13543 21
13544 7979 323
13544 13546 18
13545 13535 82
13546 13544 18
13547 13535 148
13548 13549 341
13549 13548 341
13550 13539 92
13550 8061 182
13551 13542 41
13551 13558 134
13551 13559 194
13552 13553 27
13553 13552 27
13554 13555 292
13555 13554 292
13556 8021 74
13556 13533 145
13556 8090 37
13556 13558 61
13557 8060 157
13557 13558 210
13557 8129 94
13558 13556 61
13558 13551 134
13558 8127 29
13558 13557 210
13559 13542 231
13559 13551 194
13560 13561 104
13561 13560 104
13562 8126 110
13563 8367 309
13564 8366 322
13565 8378 318
13565 8440 522
13565 8426 70
13566 8475 390
13567 8550 1887
13568 13569 13
13569 13568 13
13570 8551 1916
13571 8592 63
13571 8597 161
13571 8615 156
13572 13573 103
13573 13572 103
13574 13575 15
13575 13574 15
13576 8830 61
13577 8894 41
13578 8867 743
13578 8868 743
13578 8870 43
13579 8940 450
13580 9418 8
13581 9940 15
13582 9941 14
13583 10070 68
13584 10055 69
13585 10319 49
13586 13587 169
13587 13586 169
13588 13589 169
13589 13588 169
13590 10751 499
13590 10771 499
13590 10787 165
13591 11062 82
13592 11065 90
13593 11079 186
13594 11086 204
13595 11667 88
13596 11547 1885
13596 11595 1885
13596 11673 2487
13596 11693 2487
13596 11728 2487
13596 11741 2487
13597 11824 368
13598 12035 309
13599 11949 38
13599 11952 39
13599 11959 57
13600 5359 1079
13601 13602 57
13602 13601 57
13603 13194 233
13604 13193 261
