15289 40090
0 1 9992
0 2 52
0 5 52
1 0 9992
2 3 471
2 0 52
2 5 52
3 2 471
4 5 3074
5 4 3074
5 0 52
5 2 52
6 7 702
7 6 702
8 9 1206
8 11 48
9 8 1206
9 43 34
10 11 126
11 10 126
11 8 48
12 13 903
12 14 3596
12 23 954
13 12 903
14 12 3596
14 15 736
14 26 770
15 14 736
15 16 283
15 17 266
16 15 283
17 15 266
18 19 299
19 18 299
19 22 351
19 27 344
20 21 222
20 25 332
20 48 779
21 20 222
22 19 351
22 23 417
22 41 227
23 12 954
23 24 609
23 22 417
24 23 609
25 20 332
25 30 152
25 40 172
26 14 770
26 29 106
26 33 89
27 19 344
27 32 828
27 41 435
28 29 628
29 28 628
29 26 106
29 33 114
30 25 152
30 31 140
30 45 180
31 30 140
32 27 828
32 42 239
32 50 1234
33 29 114
33 26 89
33 51 213
34 35 705
34 36 1204
34 38 8
34 39 24
35 34 705
36 34 1204
37 38 210
37 15174 164
38 37 210
38 34 8
38 39 24
39 38 24
39 34 24
39 77 676
40 25 172
41 27 435
41 22 227
41 50 132
42 32 239
43 44 4471
43 9 34
44 43 4471
44 78 45
45 30 180
45 48 871
45 72 499
46 47 40
47 46 40
48 20 779
48 49 148
48 45 871
49 48 148
50 41 132
50 32 1234
50 62 295
51 33 213
51 52 262
51 65 355
52 51 262
52 53 178
52 65 398
52 66 302
53 52 178
54 55 1891
55 54 1891
56 57 5781
56 91 59
57 56 5781
57 15173 132
58 59 537
59 58 537
60 61 43
60 79 4984
60 168 853
61 60 43
61 63 139
62 50 295
62 71 75
63 64 192
63 61 139
64 63 192
65 51 355
65 52 398
65 146 608
66 52 302
67 68 616
68 67 616
68 75 55
69 70 852
69 71 63
69 228 1269
70 69 852
71 69 63
71 62 75
72 45 499
73 74 188
74 73 188
75 76 8
75 68 55
76 75 8
76 77 1133
76 99 301
77 39 676
77 76 1133
77 140 1403
77 179 776
78 79 855
78 44 45
79 78 855
79 80 24
79 60 4984
80 79 24
80 92 165
80 95 227
81 82 20
82 81 20
82 83 153
82 84 34
82 96 169
83 82 153
84 82 34
84 85 76
84 86 31
84 97 169
85 84 76
86 84 31
86 87 80
86 88 33
86 98 169
87 86 80
88 86 33
88 89 79
88 101 169
89 88 79
90 91 687
90 94 39
91 90 687
91 56 59
92 80 165
93 94 612
93 169 33
94 93 612
94 90 39
95 80 227
95 201 137
96 82 169
96 97 34
96 113 86
96 114 80
97 96 34
97 84 169
97 98 32
97 115 80
98 97 32
98 86 169
98 101 32
98 119 79
99 76 301
99 100 513
99 190 933
100 99 513
101 98 32
101 88 169
101 102 32
101 120 79
102 101 32
102 103 54
102 104 33
102 121 78
103 102 54
104 102 33
104 105 59
104 106 33
104 122 78
105 104 59
106 104 33
106 107 66
106 108 33
106 126 77
107 106 66
108 106 33
108 109 63
108 110 33
108 127 76
109 108 63
110 108 33
110 111 60
110 112 22
110 128 76
111 110 60
112 110 22
113 96 86
113 114 20
113 134 77
114 113 20
114 96 80
114 115 33
114 135 74
115 114 33
115 97 80
115 119 32
115 136 74
116 117 142
116 118 623
116 155 143
117 116 142
117 125 18
118 116 623
119 115 32
119 98 79
119 120 31
119 137 75
120 119 31
120 101 79
120 121 33
120 138 75
121 120 33
121 102 78
121 122 33
121 139 75
122 121 33
122 104 78
122 126 33
122 141 75
123 124 272
123 125 71
123 156 265
124 123 272
125 123 71
125 117 18
126 122 33
126 106 77
126 127 32
126 142 76
127 126 32
127 108 76
127 128 33
127 144 76
128 127 33
128 110 76
128 129 32
128 145 76
129 128 32
129 130 69
129 131 33
129 147 76
130 129 69
131 129 33
131 132 62
131 133 30
131 143 62
132 131 62
133 131 30
134 113 77
134 135 43
134 166 144
135 134 43
135 114 74
135 136 33
135 149 54
136 135 33
136 115 74
136 137 32
136 150 53
137 136 32
137 119 75
137 138 31
137 152 52
138 137 31
138 120 75
138 139 33
138 153 52
139 138 33
139 121 75
139 141 34
139 154 57
140 77 1403
141 139 34
141 122 75
141 142 33
141 159 63
142 141 33
142 126 76
142 144 31
142 160 64
143 131 62
144 142 31
144 127 76
144 145 33
144 161 69
145 144 33
145 128 76
145 147 33
145 162 83
146 65 608
146 151 132
146 171 153
147 145 33
147 129 76
147 148 2
147 165 89
148 147 2
149 135 54
150 136 53
151 146 132
152 137 52
153 138 52
154 139 57
155 116 143
155 157 55
155 158 62
156 123 265
156 157 23
157 155 55
157 156 23
158 155 62
159 141 63
160 142 64
161 144 69
162 145 83
163 164 167
163 204 962
163 217 540
164 163 167
165 147 89
166 167 554
166 134 144
166 208 457
167 166 554
168 60 853
168 169 1592
168 170 19
169 168 1592
169 93 33
170 168 19
170 176 115
170 216 1639
171 146 153
171 177 288
171 189 256
172 173 289
172 174 97
172 181 161
173 172 289
174 172 97
174 175 61
174 213 413
175 174 61
176 170 115
176 254 159
177 171 288
177 178 473
177 192 228
178 177 473
179 77 776
179 180 241
179 200 395
179 266 1589
180 179 241
181 172 161
181 182 105
181 214 276
182 181 105
182 183 153
182 184 78
182 193 114
183 182 153
184 182 78
184 185 150
184 186 79
185 184 150
186 184 79
186 187 153
186 188 77
186 196 113
187 186 153
188 186 77
189 171 256
189 192 176
189 222 283
190 99 933
190 191 574
190 200 78
191 190 574
192 177 228
192 189 176
192 198 104
192 215 235
193 194 84
193 182 114
193 195 78
193 203 61
194 193 84
195 193 78
195 196 79
195 205 61
196 195 79
196 186 113
196 197 81
196 206 60
197 196 81
198 199 200
198 192 104
198 199 224
199 198 200
199 198 224
199 233 608
200 179 395
200 190 78
200 204 300
201 202 544
201 95 137
202 201 544
203 193 61
203 205 79
203 211 41
204 200 300
204 163 962
204 209 166
204 243 616
205 203 79
205 195 61
205 206 79
205 210 25
206 205 79
206 196 60
206 212 41
207 208 1520
208 207 1520
208 166 457
208 219 139
209 204 166
209 217 745
209 220 154
210 205 25
211 203 41
212 206 41
213 174 413
213 214 89
213 230 152
214 213 89
214 181 276
214 218 594
215 192 235
215 222 108
215 242 572
216 170 1639
217 209 745
217 163 540
217 221 509
218 214 594
219 208 139
219 348 29
220 209 154
220 227 72
220 229 539
221 217 509
221 223 430
221 225 58
222 189 283
222 215 108
222 237 137
223 221 430
223 224 942
223 226 26
224 223 942
225 221 58
225 234 281
225 238 61
226 223 26
226 230 112
226 236 54
227 220 72
227 232 44
227 235 226
228 69 1269
228 231 618
228 271 601
229 220 539
230 226 112
230 213 152
230 244 886
231 228 618
232 227 44
232 240 72
232 260 666
233 199 608
234 225 281
234 236 183
234 241 39
235 227 226
236 234 183
236 226 54
236 272 634
237 222 137
237 239 16
237 263 1806
238 225 61
238 241 287
238 250 210
239 237 16
239 251 43
240 232 72
241 238 287
241 234 39
241 253 204
242 215 572
243 204 616
243 249 70
244 230 886
244 245 54
244 256 168
245 244 54
245 246 1124
245 247 21
246 245 1124
247 245 21
247 279 69
248 249 165
248 302 1223
249 248 165
249 243 70
250 238 210
250 253 301
250 265 200
251 252 226
251 239 43
252 251 226
252 259 291
252 261 165
253 250 301
253 241 204
253 267 493
254 255 1147
254 176 159
255 254 1147
256 244 168
256 268 485
256 283 491
257 258 207
258 257 207
259 252 291
260 232 666
260 275 24
261 252 165
261 262 406
261 269 202
262 261 406
262 263 231
262 269 270
263 237 1806
263 262 231
263 264 348
263 316 751
264 263 348
265 250 200
266 179 1589
266 277 23
267 253 493
268 256 485
268 270 98
268 284 241
269 262 270
269 261 202
269 273 105
269 285 636
270 268 98
270 276 181
270 282 177
271 228 601
271 356 753
272 236 634
272 289 258
272 335 1518
273 269 105
273 287 40
274 275 420
274 281 73
275 274 420
275 260 24
276 270 181
277 278 856
277 266 23
278 277 856
279 280 983
279 247 69
280 279 983
280 286 86
280 347 870
281 274 73
281 335 710
282 270 177
283 256 491
283 310 31
284 268 241
284 290 33
285 269 636
286 280 86
286 301 102
286 395 1155
287 288 209
287 273 40
288 287 209
288 299 246
288 316 474
289 272 258
289 298 23
290 291 64
290 284 33
291 290 64
291 294 28
292 293 105
293 292 105
293 296 147
293 299 204
293 304 146
294 295 8
294 291 28
295 294 8
295 297 69
295 303 95
296 293 147
296 300 106
296 305 121
297 298 46
297 295 69
297 303 77
298 297 46
298 289 23
299 288 246
299 293 204
299 304 118
300 296 106
301 286 102
301 311 235
301 326 407
302 248 1223
303 297 77
303 295 95
303 307 166
304 299 118
304 293 146
304 306 163
304 315 251
305 296 121
306 304 163
307 303 166
307 309 25
308 309 20
308 310 695
308 551 1488
309 308 20
309 307 25
310 308 695
310 283 31
311 301 235
311 322 199
311 325 58
312 313 291
313 312 291
313 314 560
313 317 338
313 324 48
314 313 560
315 304 251
316 263 751
316 288 474
316 343 223
316 353 173
317 313 338
317 318 1785
317 319 383
317 321 14
318 317 1785
319 317 383
319 320 503
319 339 122
320 319 503
321 317 14
321 327 35
321 334 345
322 311 199
322 326 85
322 329 58
323 324 284
323 328 55
324 323 284
324 313 48
324 327 332
324 330 49
325 311 58
325 329 199
325 331 53
326 322 85
326 301 407
326 336 83
327 324 332
327 321 35
327 332 48
328 323 55
328 330 290
328 337 45
329 325 199
329 322 58
329 333 25
330 328 290
330 324 49
330 332 328
330 338 45
331 325 53
331 340 199
331 350 59
332 330 328
332 327 48
332 334 343
332 342 45
333 329 25
333 336 85
333 340 29
334 332 343
334 321 345
334 339 56
335 281 710
335 272 1518
335 484 769
336 333 85
336 326 83
336 341 69
336 354 54
337 328 45
337 338 287
337 355 53
338 337 287
338 330 45
338 342 325
338 358 53
339 334 56
339 319 122
339 343 197
339 351 21
340 331 199
340 333 29
340 359 56
341 336 69
342 338 325
342 332 45
342 351 395
342 360 53
343 316 223
343 339 197
343 353 141
343 381 273
344 345 29
344 346 140
344 374 147
345 344 29
346 344 140
347 280 870
347 348 1401
347 386 306
348 347 1401
348 219 29
349 350 3
349 370 168
349 378 161
350 349 3
350 331 59
350 352 42
351 342 395
351 339 21
351 363 53
352 350 42
352 357 122
352 362 49
353 343 141
353 316 173
353 374 404
354 336 54
354 361 45
354 364 42
355 337 53
355 358 288
355 365 51
356 271 753
356 487 1083
356 499 711
357 352 122
357 359 36
357 366 50
358 355 288
358 338 53
358 360 322
358 367 51
359 357 36
359 340 56
359 361 60
360 358 322
360 342 53
360 363 397
360 368 51
361 359 60
361 354 45
361 364 78
362 352 49
362 366 122
362 369 46
363 360 397
363 351 53
363 371 51
364 354 42
364 361 78
365 355 51
365 367 288
365 372 49
366 362 122
366 357 50
366 373 46
367 365 288
367 358 51
367 368 319
367 375 49
368 367 319
368 360 51
368 371 401
368 376 49
369 362 46
369 373 122
369 380 66
370 349 168
370 377 45
370 399 263
371 368 401
371 363 51
371 379 51
372 365 49
372 375 289
372 382 53
373 369 122
373 366 46
373 388 92
374 353 404
374 344 147
374 411 352
375 372 289
375 367 49
375 376 325
375 383 52
376 375 325
376 368 49
376 379 393
376 385 52
377 370 45
377 378 51
377 402 169
378 377 51
378 349 161
378 380 45
378 404 169
379 376 393
379 371 51
379 381 20
380 378 45
380 369 66
380 384 26
381 379 20
381 343 273
381 387 44
382 372 53
382 383 289
382 389 50
383 382 289
383 375 52
383 385 332
383 391 52
384 380 26
384 388 122
384 390 46
385 383 332
385 376 52
385 387 360
385 392 55
386 347 306
386 395 77
386 499 794
387 385 360
387 381 44
387 394 79
388 384 122
388 373 92
388 393 46
389 382 50
389 391 289
389 403 109
390 384 46
390 393 122
390 396 46
391 389 289
391 383 52
391 392 331
391 397 52
392 391 331
392 385 55
392 394 307
392 398 50
393 390 122
393 388 46
393 400 46
394 392 307
394 387 79
394 401 68
395 286 1155
395 386 77
395 596 1597
396 390 46
396 400 122
396 405 51
397 391 52
397 398 329
397 403 252
397 406 51
398 397 329
398 392 50
398 401 261
398 408 51
399 370 263
399 402 49
399 422 108
400 396 122
400 393 46
400 409 51
401 398 261
401 394 68
401 410 79
402 399 49
402 377 169
402 404 51
402 423 104
403 389 109
403 397 252
403 407 75
403 421 90
404 402 51
404 378 169
404 405 46
404 479 329
405 404 46
405 396 51
405 409 122
405 425 96
406 397 51
406 407 176
406 408 328
406 413 51
407 403 75
407 406 176
407 412 86
408 406 328
408 398 51
408 410 206
408 426 74
409 405 122
409 400 51
409 418 49
410 408 206
410 401 79
410 457 297
411 374 352
412 407 86
412 424 101
412 436 86
413 406 51
413 424 29
413 426 331
414 415 2856
415 414 2856
415 416 131
415 495 327
416 415 131
416 419 111
416 427 37
417 418 117
418 417 117
418 409 49
418 430 47
419 420 34
419 416 111
419 421 66
419 428 38
420 419 34
421 419 66
421 403 90
421 429 38
422 399 108
422 423 46
422 463 311
423 422 46
423 402 104
423 435 55
424 412 101
424 413 29
424 431 73
424 432 35
425 405 96
425 430 122
425 441 90
426 413 331
426 408 74
426 433 33
427 416 37
427 428 112
427 437 34
428 427 112
428 419 38
428 429 62
428 438 31
429 428 62
429 421 38
429 439 64
430 425 122
430 418 47
430 451 90
431 424 73
431 433 261
431 442 266
432 424 35
432 434 51
432 448 89
433 431 261
433 426 33
433 442 56
434 432 51
434 436 53
434 445 58
435 423 55
435 446 59
435 464 268
436 412 86
436 434 53
436 445 96
437 427 34
437 438 111
437 444 43
438 437 111
438 428 31
438 440 36
439 429 64
439 440 55
439 447 21
440 438 36
440 439 55
440 444 109
440 453 37
441 425 90
441 451 122
441 455 47
442 431 266
442 433 56
442 457 52
443 444 35
444 443 35
444 437 43
444 440 109
444 454 37
445 436 96
445 434 58
445 448 95
445 473 103
446 435 59
446 459 54
446 468 176
447 439 21
447 452 18
447 458 181
448 445 95
448 432 89
448 505 236
449 450 1527
450 449 1527
450 506 371
450 530 616
451 441 122
451 430 90
451 462 47
452 447 18
452 453 55
452 456 14
453 440 37
453 452 55
453 454 108
453 461 35
454 444 37
454 453 108
454 460 28
455 441 47
455 462 122
455 466 45
456 452 14
456 458 152
456 465 38
457 442 52
457 410 297
457 505 292
457 555 547
458 456 152
458 447 181
458 467 37
459 446 54
459 472 95
459 477 57
460 454 28
460 461 106
460 471 37
461 460 106
461 453 35
461 470 34
462 455 122
462 451 47
462 474 45
463 422 311
463 464 58
463 478 58
464 463 58
464 435 268
464 468 59
464 509 271
465 456 38
465 467 150
465 475 33
466 455 45
466 474 122
466 480 52
467 465 150
467 458 37
467 469 6
468 464 59
468 446 176
468 472 51
468 503 177
469 467 6
469 473 77
469 476 19
470 461 34
470 471 104
470 481 46
471 460 37
471 470 104
471 497 113
472 468 51
472 459 95
472 489 95
473 469 77
473 445 103
473 486 54
474 466 122
474 462 45
474 488 54
475 465 33
475 476 154
475 482 34
476 469 19
476 475 154
476 485 43
477 459 57
477 479 51
477 489 57
478 463 58
479 477 51
479 404 329
479 480 47
479 513 172
480 479 47
480 466 52
480 488 122
480 492 50
481 470 46
481 482 56
481 490 35
482 481 56
482 475 34
482 483 3
483 482 3
483 485 151
483 491 31
484 335 769
484 575 930
484 705 1927
485 483 151
485 476 43
485 486 76
485 494 36
486 485 76
486 473 54
486 512 133
487 356 1083
487 498 392
487 541 369
488 480 122
488 474 54
488 496 48
489 472 95
489 477 57
489 503 54
490 481 35
490 491 56
490 500 35
491 490 56
491 483 31
491 493 4
492 480 50
492 496 122
492 504 46
493 491 4
493 494 152
493 501 31
494 493 152
494 485 36
494 501 182
495 415 327
495 497 135
495 498 5
496 492 122
496 488 48
496 507 46
497 495 135
497 471 113
497 500 104
497 508 69
498 487 392
498 495 5
498 510 70
499 386 794
499 356 711
499 502 11
500 497 104
500 490 35
500 501 56
501 500 56
501 493 31
501 494 182
501 511 73
502 499 11
502 541 449
502 612 1247
503 468 177
503 489 54
503 509 61
504 492 46
504 507 122
504 514 75
505 448 236
505 457 292
505 526 182
506 450 371
506 545 401
507 504 122
507 496 46
507 518 97
508 497 69
508 510 136
508 511 156
509 464 271
509 503 61
509 513 50
509 523 125
510 498 70
510 508 136
510 531 125
511 508 156
511 501 73
511 512 251
511 522 72
512 486 133
512 511 251
512 524 84
513 509 50
513 479 172
513 514 48
513 523 74
514 513 48
514 504 75
514 517 23
515 516 122
515 544 620
515 556 499
516 515 122
516 565 497
517 514 23
517 518 122
517 525 50
518 517 122
518 507 97
518 529 48
519 520 58
519 521 30
519 531 178
520 519 58
521 519 30
521 522 139
521 536 82
522 521 139
522 511 72
522 532 60
523 509 125
523 513 74
523 525 48
524 512 84
524 526 9
524 527 145
525 523 48
525 517 50
525 529 122
526 524 9
526 505 182
526 549 186
527 528 84
527 524 145
527 534 27
528 527 84
529 525 122
529 518 48
529 533 114
530 450 616
530 544 170
530 558 319
531 510 125
531 519 178
531 540 64
532 522 60
532 534 129
532 535 13
533 529 114
534 532 129
534 527 27
534 554 125
535 532 13
535 536 134
535 538 33
536 521 82
536 535 134
536 537 74
536 539 35
537 536 74
538 535 33
538 539 133
538 542 169
539 536 35
539 538 133
539 540 157
539 542 36
540 531 64
540 539 157
540 557 124
541 502 449
541 487 369
541 557 529
542 539 36
542 538 169
542 543 71
543 542 71
544 530 170
544 515 620
544 556 112
544 570 275
545 506 401
545 574 610
546 547 815
546 548 188
546 553 16
547 546 815
548 546 188
549 526 186
549 550 364
549 554 16
550 549 364
551 308 1488
551 552 11
551 571 588
552 551 11
552 606 27
553 546 16
553 581 43
554 534 125
554 549 16
554 568 179
555 457 547
555 642 1401
556 544 112
556 515 499
556 560 85
557 541 529
557 540 124
557 559 241
557 612 1954
558 530 319
558 579 408
558 615 1115
559 557 241
559 563 44
559 564 42
560 556 85
560 565 42
560 579 313
561 562 94
561 567 34
562 561 94
563 559 44
563 564 43
563 568 82
563 569 75
564 559 42
564 563 43
564 568 680
565 560 42
565 516 497
565 573 85
566 567 696
566 580 857
566 878 2424
567 566 696
567 561 34
568 563 82
568 554 179
568 569 18
568 564 680
569 563 75
569 568 18
569 572 46
570 544 275
571 551 588
571 577 23
572 569 46
572 620 838
573 565 85
574 545 610
575 484 930
575 585 129
575 588 242
576 577 103
576 578 232
576 582 32
577 576 103
577 571 23
578 576 232
579 558 408
579 560 313
579 584 8
580 566 857
580 581 305
580 588 643
581 580 305
581 553 43
582 576 32
582 583 169
582 586 469
583 582 169
584 579 8
585 575 129
586 587 144
586 589 91
586 582 469
587 586 144
588 580 643
588 575 242
588 705 1356
589 586 91
589 590 71
589 591 9
590 589 71
591 589 9
591 592 160
591 593 86
592 591 160
593 591 86
594 595 348
594 599 1084
594 608 187
595 594 348
595 611 211
595 626 521
596 395 1597
596 597 232
596 605 123
597 596 232
598 599 59
598 604 263
598 609 42
599 598 59
599 594 1084
599 627 120
600 601 236
601 600 236
601 602 196
601 625 114
602 601 196
603 604 141
604 603 141
604 598 263
604 610 47
605 606 1309
605 596 123
605 794 585
606 605 1309
606 552 27
607 608 193
608 607 193
608 594 187
608 617 52
609 598 42
609 610 267
609 628 85
610 604 47
610 609 267
610 634 101
611 595 211
611 613 100
612 502 1247
612 557 1954
612 696 224
613 611 100
613 614 103
613 618 18
614 613 103
615 558 1115
615 616 8
615 695 264
616 615 8
616 631 89
616 660 189
617 608 52
617 638 86
617 676 546
618 613 18
618 626 168
618 629 54
619 620 173
619 661 146
620 619 173
620 572 838
621 622 865
622 621 865
622 630 91
622 783 493
623 624 63
624 623 63
624 633 44
624 647 408
625 601 114
625 632 121
625 666 166
626 618 168
626 595 521
626 639 49
627 599 120
627 628 60
627 648 55
628 609 85
628 627 60
628 634 288
629 618 54
629 639 164
629 676 97
630 622 91
630 634 153
630 635 28
631 616 89
631 660 185
631 807 845
632 625 121
633 624 44
633 653 40
633 659 142
634 630 153
634 610 101
634 628 288
635 630 28
635 664 121
635 693 118
636 637 68
636 649 92
636 657 50
637 636 68
637 638 220
637 657 82
638 617 86
638 637 220
638 722 153
639 629 164
639 626 49
639 686 91
640 641 47
640 646 36
640 662 40
641 640 47
641 643 17
641 663 43
642 555 1401
643 641 17
643 644 34
643 665 40
644 645 65
644 643 34
644 668 44
645 644 65
645 649 70
645 670 42
646 640 36
646 650 64
646 662 66
647 624 408
647 655 69
647 912 902
648 627 55
648 651 51
648 654 48
648 739 175
649 645 70
649 636 92
649 687 80
650 646 64
650 654 49
650 673 47
651 648 51
651 652 118
651 683 72
652 651 118
652 656 90
652 674 46
653 633 40
653 659 109
653 671 125
654 648 48
654 650 49
654 673 85
655 647 69
656 652 90
656 658 29
656 674 120
657 637 82
657 636 50
657 699 98
658 656 29
658 664 80
658 688 59
659 653 109
659 633 142
660 661 26
660 616 189
660 631 185
660 695 111
661 660 26
661 619 146
662 646 66
662 640 40
662 663 47
662 675 22
663 662 47
663 641 43
663 665 13
664 635 121
664 658 80
664 688 95
664 690 106
665 663 13
665 643 40
665 667 11
666 625 166
667 665 11
667 668 24
667 678 24
668 644 44
668 669 29
668 667 24
669 668 29
669 670 35
669 681 26
670 669 35
670 645 42
670 672 47
670 684 37
671 653 125
672 670 47
673 654 85
673 650 47
673 677 9
674 652 46
674 656 120
674 679 8
675 662 22
675 677 96
675 678 68
675 706 73
676 617 546
676 629 97
676 686 165
677 673 9
677 675 96
677 719 78
678 675 68
678 667 24
678 681 51
679 674 8
679 680 43
679 692 31
680 679 43
680 682 35
680 708 68
681 678 51
681 669 26
681 689 25
682 680 35
682 683 26
682 711 68
683 682 26
683 651 72
683 713 65
684 685 32
684 670 37
684 687 92
684 691 17
685 684 32
686 676 165
686 639 91
686 734 112
687 649 80
687 684 92
687 730 80
688 664 95
688 658 59
688 694 41
689 681 25
689 691 33
689 698 35
690 664 106
690 693 70
690 704 40
691 689 33
691 684 17
691 700 30
692 679 31
692 694 83
692 702 34
693 635 118
693 690 70
693 790 554
694 688 41
694 692 83
694 701 38
695 660 111
695 615 264
695 783 267
696 612 224
696 697 445
696 799 312
697 696 445
698 689 35
698 700 33
698 703 38
699 657 98
699 740 305
700 698 33
700 691 30
700 712 14
701 694 38
701 724 47
701 735 80
702 692 34
702 708 38
702 724 22
703 698 38
703 707 2
703 706 87
704 690 40
704 720 79
704 776 149
705 484 1927
705 588 1356
705 848 1156
706 675 73
706 703 87
706 726 24
707 703 2
707 729 32
708 702 38
708 680 68
708 711 31
709 710 23
709 717 35
709 720 11
710 709 23
711 708 31
711 682 68
711 713 32
712 700 14
712 721 33
712 723 19
713 711 32
713 683 65
713 716 17
714 715 15
714 719 54
714 761 80
715 714 15
716 713 17
716 736 37
717 709 35
717 718 30
717 760 80
718 717 30
719 714 54
719 677 78
719 725 9
720 704 79
720 709 11
720 742 51
721 712 33
721 730 86
721 732 27
722 638 153
722 733 212
722 740 37
723 712 19
723 731 44
724 701 47
724 702 22
724 735 23
724 743 97
725 719 9
725 728 61
725 754 63
726 706 24
726 727 4
726 728 33
727 726 4
727 729 75
727 753 58
728 725 61
728 726 33
728 758 60
729 727 75
729 707 32
729 731 18
730 721 86
730 687 80
730 741 25
731 729 18
731 723 44
731 746 41
732 721 27
732 741 94
732 767 68
733 722 212
734 686 112
734 738 48
734 827 498
735 701 80
735 724 23
735 749 37
736 737 47
736 716 37
736 739 51
737 736 47
738 734 48
739 736 51
739 648 175
739 759 37
740 722 37
740 699 305
740 859 476
741 732 94
741 730 25
741 763 43
742 720 51
743 724 97
743 748 10
743 755 32
744 745 72
744 751 40
744 764 34
745 744 72
746 731 41
746 747 10
746 750 34
747 746 10
747 762 16
748 743 10
749 735 37
749 757 7
749 755 125
750 746 34
750 753 50
750 780 59
751 744 40
751 752 7
751 757 38
751 764 79
752 751 7
753 727 58
753 750 50
753 758 33
754 725 63
754 756 9
754 761 51
755 743 32
755 749 125
755 773 61
756 754 9
756 758 52
756 775 35
757 751 38
757 749 7
757 858 482
758 756 52
758 728 60
758 753 33
759 739 37
759 761 57
759 765 16
760 717 80
761 714 80
761 754 51
761 759 57
762 747 16
762 767 47
762 779 44
763 741 43
763 768 30
764 744 34
764 751 79
764 776 178
765 759 16
765 766 28
765 773 11
766 765 28
766 769 61
767 762 47
767 732 68
767 770 20
768 763 30
769 766 61
770 767 20
770 777 56
770 784 60
771 772 21
771 774 72
771 781 26
772 771 21
773 755 61
773 765 11
773 789 138
774 771 72
774 775 21
774 788 64
775 756 35
775 774 21
775 789 67
776 704 149
776 764 178
777 770 56
777 778 10
777 785 46
778 777 10
778 782 33
779 762 44
779 780 36
779 793 131
780 750 59
780 779 36
780 781 30
781 771 26
781 780 30
781 786 37
782 778 33
783 695 267
783 622 493
783 790 30
783 823 320
784 770 60
784 787 34
784 798 127
785 777 46
785 787 37
785 804 204
786 781 37
786 788 75
786 792 26
787 784 34
787 785 37
787 805 137
788 774 64
788 786 75
788 791 16
789 773 138
789 775 67
789 791 25
790 783 30
790 693 554
790 831 282
791 789 25
791 788 16
791 793 135
792 786 26
793 791 135
793 779 131
793 805 88
794 795 196
794 605 585
794 796 52
794 851 227
795 794 196
795 843 49
796 794 52
796 797 229
796 816 281
797 796 229
798 784 127
799 696 312
799 800 124
799 806 660
800 799 124
801 802 107
801 810 50
802 801 107
803 804 32
804 803 32
804 785 204
804 813 73
805 793 88
805 787 137
805 811 89
806 799 660
807 631 845
807 824 204
807 886 321
808 809 5379
808 825 1826
808 1394 1796
809 808 5379
810 801 50
810 835 105
811 805 89
811 812 143
811 813 42
812 811 143
813 811 42
813 804 73
813 859 341
814 815 893
814 896 549
814 1006 521
815 814 893
816 796 281
816 841 168
816 882 346
817 818 611
817 836 65
817 886 284
818 817 611
819 820 134
819 837 79
820 819 134
821 822 40
821 826 49
821 833 177
822 821 40
822 826 36
823 783 320
823 830 184
823 867 175
824 807 204
824 832 65
824 847 115
825 808 1826
825 921 2342
825 1261 1194
826 822 36
826 821 49
826 832 36
826 868 136
827 734 498
827 834 321
827 839 31
828 829 100
828 840 83
828 856 79
829 828 100
829 833 24
830 823 184
830 831 144
830 854 92
831 830 144
831 790 282
831 858 495
831 863 112
832 824 65
832 826 36
832 894 181
833 821 177
833 829 24
833 855 68
834 827 321
835 810 105
835 837 12
836 817 65
836 844 34
836 885 196
837 819 79
837 835 12
837 838 6
838 837 6
838 860 96
839 827 31
839 852 212
839 988 401
840 828 83
840 853 34
840 867 143
841 816 168
841 929 359
842 843 257
842 850 192
842 876 241
843 842 257
843 795 49
844 836 34
844 865 95
844 888 153
845 846 258
846 845 258
846 884 133
846 1059 1027
847 824 115
847 857 30
847 874 122
848 849 163
848 850 275
848 705 1156
849 848 163
850 842 192
850 848 275
850 889 184
851 794 227
851 877 64
852 839 212
853 840 34
854 830 92
854 863 141
854 920 199
855 833 68
855 856 99
855 875 61
856 855 99
856 828 79
856 881 72
857 847 30
858 831 495
858 757 482
858 884 327
859 813 341
859 740 476
859 988 708
859 1166 755
860 838 96
860 910 130
861 862 49
861 866 18
861 880 73
862 861 49
863 854 141
863 831 112
863 883 39
864 865 57
865 864 57
865 844 95
865 924 221
865 935 214
866 861 18
866 15175 25
867 840 143
867 823 175
867 870 7
868 826 136
868 869 35
868 900 70
869 868 35
869 908 86
870 867 7
870 913 106
870 1262 888
871 872 114
871 887 32
872 871 114
873 874 65
873 906 83
874 873 65
874 847 122
874 891 49
875 855 61
875 881 107
875 967 222
876 842 241
876 877 22
876 1025 342
877 876 22
877 851 64
878 566 2424
878 879 617
878 921 137
879 878 617
880 861 73
880 887 95
881 856 72
881 875 107
881 969 280
882 816 346
883 863 39
883 916 98
883 928 720
884 858 327
884 846 133
884 915 97
885 836 196
886 817 284
886 807 321
886 890 27
886 904 124
887 871 32
887 880 95
887 901 95
888 844 153
889 850 184
890 886 27
890 903 126
890 911 60
891 874 49
892 893 64
892 934 101
893 892 64
893 909 28
894 895 45
894 832 181
894 897 5
895 894 45
895 907 108
895 918 66
896 814 549
896 912 111
896 1112 430
897 894 5
897 898 41
897 919 62
898 897 41
898 899 29
898 900 36
899 898 29
900 898 36
900 868 70
901 902 3
901 887 95
901 914 78
902 901 3
903 890 126
903 904 2
903 917 47
904 903 2
904 886 124
904 905 34
905 904 34
905 906 31
905 936 84
906 905 31
906 873 83
906 907 82
906 937 82
907 906 82
907 895 108
907 938 89
908 869 86
908 909 41
908 926 63
909 908 41
909 893 28
909 927 69
910 860 130
910 914 18
911 890 60
911 917 165
911 954 132
912 647 902
912 896 111
912 960 222
913 870 106
913 920 282
913 1240 686
914 910 18
914 901 78
914 923 35
915 884 97
915 1026 378
915 1047 423
916 883 98
916 920 159
916 1182 485
917 911 165
917 903 47
917 930 33
918 895 66
918 939 55
919 897 62
919 925 108
919 933 49
920 913 282
920 854 199
920 916 159
921 825 2342
921 878 137
921 922 176
922 921 176
922 948 1293
922 1152 408
923 914 35
923 941 29
923 947 101
924 865 221
924 932 119
924 945 52
925 919 108
925 926 10
925 970 103
926 925 10
926 908 63
926 927 36
927 926 36
927 909 69
927 934 62
928 883 720
929 841 359
929 1034 259
930 931 46
930 917 33
930 962 56
931 930 46
932 924 119
932 935 64
932 946 29
933 919 49
933 940 11
934 927 62
934 892 101
934 956 42
935 865 214
935 932 64
935 961 53
936 905 84
937 906 82
938 907 89
938 942 42
938 966 79
939 918 55
939 940 26
939 951 27
940 939 26
940 933 11
940 950 25
941 923 29
941 944 8
941 981 142
942 938 42
942 943 33
942 994 138
943 942 33
944 941 8
945 924 52
945 957 66
945 1016 142
946 932 29
946 949 51
946 957 23
947 923 101
947 971 99
948 922 1293
948 997 424
948 1220 588
949 946 51
950 940 25
950 953 34
950 968 41
951 939 27
951 952 52
951 982 74
952 951 52
952 978 68
953 950 34
954 911 132
954 958 9
954 961 20
955 956 71
956 955 71
956 934 42
956 964 21
957 945 66
957 946 23
957 987 88
958 954 9
958 959 66
958 989 74
959 958 66
960 912 222
960 977 118
960 1036 173
961 935 53
961 954 20
961 963 14
962 930 56
962 965 77
963 961 14
963 987 64
963 999 72
964 956 21
964 967 58
965 962 77
965 966 27
965 972 26
966 965 27
966 938 79
967 964 58
967 875 222
967 969 58
967 976 26
968 950 41
968 970 112
968 983 33
969 967 58
969 881 280
969 974 19
970 968 112
970 925 103
970 984 20
971 947 99
971 981 22
971 1000 98
972 973 77
972 965 26
972 1013 66
973 972 77
974 969 19
974 979 19
974 1010 63
975 976 100
975 985 17
976 975 100
976 967 26
976 980 8
977 960 118
977 1005 80
977 1018 82
978 952 68
978 994 17
979 974 19
980 976 8
980 990 45
980 1004 31
981 971 22
981 941 142
981 1052 25
982 951 74
982 998 17
983 968 33
983 991 73
983 1089 174
984 970 20
984 986 32
984 993 13
985 986 37
985 975 17
985 1045 121
986 985 37
986 984 32
986 1065 132
987 957 88
987 963 64
987 1002 19
988 859 708
988 839 401
988 1005 27
989 958 74
989 992 39
989 999 40
990 980 45
990 1007 29
991 983 73
991 993 34
991 1061 120
992 989 39
992 1003 82
992 1035 145
993 991 34
993 984 13
993 1064 119
994 978 17
994 942 138
994 1008 25
995 996 125
996 995 125
997 948 424
997 1011 62
997 1290 1187
998 982 17
998 1008 51
999 963 72
999 989 40
999 1002 52
999 1035 78
1000 1001 41
1000 971 98
1000 1015 50
1001 1000 41
1002 987 19
1002 999 52
1002 1042 102
1003 992 82
1003 1009 101
1004 980 31
1004 1007 40
1004 1038 80
1005 988 27
1005 977 80
1005 1017 70
1006 814 521
1006 1014 20
1006 1033 157
1007 1004 40
1007 990 29
1007 1010 17
1007 1039 84
1008 994 25
1008 998 51
1008 1020 29
1009 1003 101
1009 1013 31
1009 1080 118
1010 1007 17
1010 974 63
1010 1091 147
1011 997 62
1011 1012 846
1011 1123 316
1012 1011 846
1013 1009 31
1013 972 66
1013 1020 159
1014 1006 20
1014 1158 276
1015 1000 50
1015 1019 13
1015 1019 13
1016 945 142
1016 1044 132
1017 1005 70
1017 1069 83
1017 1181 622
1018 977 82
1018 1036 89
1018 1085 100
1019 1015 13
1019 1015 13
1019 1024 19
1019 1024 20
1020 1008 29
1020 1021 13
1020 1013 159
1021 1020 13
1022 1023 69
1023 1022 69
1024 1019 19
1024 1019 20
1024 1031 27
1024 1031 29
1025 876 342
1025 1123 905
1025 1155 210
1026 1027 155
1026 915 378
1026 1191 323
1027 1026 155
1028 1029 10
1028 1030 13
1028 1043 32
1029 1028 10
1030 1028 13
1031 1024 27
1031 1024 29
1031 1032 1
1031 1034 9
1032 1031 1
1033 1006 157
1034 929 259
1034 1031 9
1034 1037 7
1035 999 78
1035 992 145
1035 1070 45
1036 1018 89
1036 960 173
1036 1112 229
1037 1034 7
1037 1050 38
1037 1071 97
1038 1004 80
1038 1039 26
1038 1046 22
1039 1038 26
1039 1007 84
1040 1041 65
1040 1100 102
1040 1105 75
1041 1040 65
1042 1002 102
1042 1055 36
1042 1068 19
1043 1028 32
1043 1053 40
1043 1078 32
1044 1016 132
1044 1083 37
1045 985 121
1045 1046 70
1045 1066 32
1046 1045 70
1046 1038 22
1046 1075 26
1047 915 423
1047 1059 4
1047 1108 94
1048 1049 85
1048 1051 1
1049 1048 85
1050 1037 38
1050 1128 42
1051 1052 154
1051 1048 1
1051 1074 28
1051 1088 60
1052 1051 154
1052 981 25
1053 1043 40
1053 1054 4
1053 1057 7
1054 1053 4
1055 1042 36
1055 1056 96
1055 1063 13
1056 1055 96
1057 1058 73
1057 1053 7
1057 1082 27
1058 1057 73
1059 1047 4
1059 846 1027
1060 1061 60
1061 1060 60
1061 991 120
1061 1062 4
1062 1061 4
1062 1064 28
1062 1093 44
1063 1055 13
1063 1070 37
1063 1094 45
1064 1062 28
1064 993 119
1064 1065 34
1065 1064 34
1065 986 132
1065 1066 12
1066 1065 12
1066 1045 32
1066 1072 12
1067 1068 71
1068 1067 71
1068 1042 19
1068 1110 57
1069 1017 83
1069 1085 95
1069 1162 159
1070 1063 37
1070 1035 45
1070 1073 23
1071 1037 97
1072 1066 12
1072 1075 91
1072 1097 32
1073 1070 23
1073 1082 102
1073 1113 61
1074 1051 28
1074 1095 37
1074 1104 58
1075 1072 91
1075 1046 26
1076 1077 49
1076 1078 12
1076 1079 34
1077 1076 49
1078 1043 32
1078 1076 12
1078 1082 44
1079 1076 34
1079 1080 31
1079 1109 67
1080 1079 31
1080 1009 118
1080 1081 11
1081 1080 11
1081 1086 77
1081 1126 78
1082 1073 102
1082 1057 27
1082 1078 44
1083 1084 189
1083 1044 37
1083 1111 54
1084 1083 189
1085 1069 95
1085 1018 100
1085 1090 56
1086 1081 77
1086 1087 93
1086 1125 73
1087 1086 93
1087 1089 83
1087 1139 96
1088 1051 60
1089 1087 83
1089 983 174
1089 1092 33
1090 1085 56
1091 1010 147
1092 1089 33
1092 1093 65
1092 1156 118
1093 1092 65
1093 1062 44
1093 1098 66
1094 1063 45
1095 1074 37
1095 1096 94
1095 1119 54
1096 1095 94
1097 1072 32
1097 1098 6
1097 1099 27
1098 1093 66
1098 1097 6
1098 1160 116
1099 1097 27
1099 1101 54
1099 1134 65
1100 1040 102
1100 1102 10
1100 1103 26
1101 1099 54
1102 1100 10
1102 1105 37
1102 1148 83
1103 1100 26
1103 1147 135
1103 1151 89
1104 1074 58
1105 1102 37
1105 1040 75
1105 1116 52
1106 1107 29
1106 1110 24
1106 1111 89
1107 1106 29
1108 1047 94
1108 1149 143
1108 1159 157
1109 1079 67
1110 1106 24
1110 1068 57
1110 1122 35
1111 1083 54
1111 1106 89
1111 1135 55
1112 1036 229
1112 896 430
1112 1133 160
1112 1212 217
1113 1073 61
1113 1120 70
1113 1129 47
1114 1115 55
1114 1116 111
1114 1137 44
1115 1114 55
1116 1105 52
1116 1114 111
1116 1138 54
1117 1118 64
1118 1117 64
1119 1095 54
1119 1124 19
1120 1113 70
1120 1121 43
1120 1225 216
1121 1120 43
1122 1110 35
1122 1131 13
1122 1135 104
1123 1011 316
1123 1025 905
1123 1174 138
1124 1119 19
1124 1167 123
1125 1086 73
1125 1126 80
1125 1143 31
1126 1081 78
1126 1125 80
1126 1163 77
1127 1128 116
1127 1188 177
1128 1127 116
1128 1050 42
1129 1113 47
1129 1130 31
1129 1132 30
1129 1157 52
1130 1129 31
1131 1122 13
1131 1132 53
1131 1169 80
1132 1129 30
1132 1131 53
1132 1141 20
1133 1112 160
1133 1158 160
1133 1266 302
1134 1099 65
1135 1111 55
1135 1122 104
1135 1136 15
1136 1135 15
1136 1137 86
1136 1154 26
1137 1114 44
1137 1136 86
1137 1138 81
1137 1150 18
1138 1116 54
1138 1137 81
1138 1148 103
1138 1198 139
1139 1087 96
1139 1140 7
1139 1142 79
1140 1139 7
1140 1183 81
1141 1132 20
1142 1139 79
1143 1125 31
1143 1144 64
1143 1165 46
1144 1143 64
1145 1146 270
1145 1149 244
1145 1191 316
1146 1145 270
1147 1103 135
1147 1151 125
1147 1189 110
1148 1102 83
1148 1138 103
1148 1151 32
1149 1108 143
1149 1145 244
1149 1320 399
1150 1137 18
1150 1154 85
1150 1198 109
1151 1103 89
1151 1148 32
1151 1147 125
1151 1193 252
1152 922 408
1152 1153 257
1152 1264 1380
1153 1152 257
1153 1281 724
1154 1150 85
1154 1136 26
1154 1211 134
1155 1025 210
1155 1335 418
1156 1092 118
1157 1129 52
1158 1133 160
1158 1014 276
1158 1190 211
1158 1266 516
1159 1108 157
1159 1166 189
1159 1215 184
1160 1098 116
1160 1161 99
1161 1160 99
1162 1069 159
1162 1176 35
1162 1212 408
1163 1164 62
1163 1126 77
1163 1165 84
1163 1203 89
1164 1163 62
1164 1238 157
1165 1163 84
1165 1143 46
1166 1159 189
1166 859 755
1167 1168 157
1167 1124 123
1167 1194 70
1168 1167 157
1169 1131 80
1169 1170 40
1169 1192 45
1170 1169 40
1170 1171 44
1170 1186 37
1171 1170 44
1172 1173 902
1173 1172 902
1173 1177 402
1173 1195 741
1174 1123 138
1174 1175 220
1174 1213 100
1175 1174 220
1175 1179 59
1176 1162 35
1176 1221 118
1176 1221 167
1177 1173 402
1177 1178 742
1177 1911 1032
1178 1177 742
1179 1175 59
1179 1180 80
1179 1206 83
1180 1179 80
1181 1017 622
1181 1199 93
1181 1243 558
1182 916 485
1182 1191 608
1182 1197 41
1183 1140 81
1184 1185 84
1185 1184 84
1186 1170 37
1186 1187 8
1186 1200 50
1187 1186 8
1188 1127 177
1188 1217 118
1189 1147 110
1189 1193 37
1189 1255 227
1190 1158 211
1190 1195 214
1190 1318 281
1191 1182 608
1191 1026 323
1191 1145 316
1192 1169 45
1192 1196 29
1192 1208 46
1193 1189 37
1193 1151 252
1193 1205 217
1194 1167 70
1194 1227 31
1195 1173 741
1195 1190 214
1195 1425 542
1196 1192 29
1196 1200 73
1196 1204 20
1197 1182 41
1197 1496 880
1197 1519 983
1197 1833 767
1198 1138 139
1198 1150 109
1198 1205 151
1198 1216 46
1199 1181 93
1199 1215 87
1199 2329 1123
1200 1196 73
1200 1186 50
1200 1219 74
1201 1202 97
1201 1203 214
1201 1223 49
1202 1201 97
1202 1267 162
1203 1163 89
1203 1201 214
1203 1236 65
1204 1196 20
1205 1198 151
1205 1193 217
1205 1230 53
1206 1207 46
1206 1179 83
1206 1229 109
1207 1206 46
1207 1214 16
1208 1192 46
1208 1209 80
1208 1233 56
1209 1210 114
1209 1208 80
1209 1211 32
1210 1209 114
1211 1154 134
1211 1209 32
1211 1260 106
1212 1162 408
1212 1112 217
1212 1362 387
1213 1174 100
1213 1214 121
1213 1252 75
1214 1213 121
1214 1207 16
1214 1229 29
1215 1159 184
1215 1199 87
1215 1405 917
1216 1198 46
1216 1218 54
1216 1222 14
1217 1188 118
1217 1335 327
1218 1216 54
1219 1200 74
1219 1225 8
1219 1274 115
1220 948 588
1220 1254 60
1221 1176 118
1221 1176 167
1221 1243 41
1222 1216 14
1222 1226 37
1222 1277 115
1223 1224 24
1223 1201 49
1223 1251 102
1224 1223 24
1225 1219 8
1225 1120 216
1225 1239 70
1226 1222 37
1226 1230 88
1226 1270 99
1227 1228 90
1227 1194 31
1228 1227 90
1228 1246 84
1229 1214 29
1229 1206 109
1229 1289 125
1230 1205 53
1230 1226 88
1230 1258 70
1231 1232 27
1231 1233 17
1231 1234 32
1232 1231 27
1233 1208 56
1233 1231 17
1233 1249 27
1234 1231 32
1234 1235 42
1234 1237 32
1235 1234 42
1236 1203 65
1236 1238 62
1236 1242 58
1236 1282 95
1237 1234 32
1238 1164 157
1238 1236 62
1238 1239 71
1239 1225 70
1239 1238 71
1239 1268 67
1240 913 686
1240 1241 200
1240 1262 153
1240 1313 149
1241 1240 200
1242 1236 58
1242 1251 110
1242 1259 44
1243 1181 558
1243 1221 41
1243 1362 1072
1244 1245 285
1244 1265 107
1244 1271 76
1245 1244 285
1246 1228 84
1246 1257 81
1247 1248 217
1247 1254 256
1247 1297 131
1248 1247 217
1249 1233 27
1249 1250 3
1249 1260 144
1250 1249 3
1250 1256 91
1250 1272 57
1251 1242 110
1251 1223 102
1251 1267 123
1252 1213 75
1252 1289 95
1253 1254 55
1254 1253 55
1254 1220 60
1254 1247 256
1254 1279 61
1255 1189 227
1255 1263 43
1255 1258 491
1256 1250 91
1257 1246 81
1258 1230 70
1258 1270 69
1258 1255 491
1259 1242 44
1259 1283 44
1259 1295 237
1260 1211 106
1260 1249 144
1260 1280 39
1261 825 1194
1261 1264 1094
1261 1622 498
1262 870 888
1262 1240 153
1262 1310 91
1263 1255 43
1263 1271 34
1263 1323 142
1264 1261 1094
1264 1152 1380
1264 2209 1027
1265 1244 107
1265 1304 113
1265 1346 144
1266 1133 302
1266 1158 516
1266 1362 224
1267 1251 123
1267 1202 162
1267 1296 61
1268 1239 67
1268 1269 41
1268 1285 30
1269 1268 41
1270 1226 99
1270 1258 69
1270 1277 27
1271 1244 76
1271 1263 34
1271 1343 123
1272 1250 57
1272 1273 75
1272 1316 69
1273 1272 75
1273 1276 39
1273 1316 129
1274 1219 115
1274 1276 12
1274 1278 43
1274 1331 105
1275 1276 24
1276 1275 24
1276 1274 12
1276 1273 39
1277 1270 27
1277 1222 115
1277 1284 9
1278 1274 43
1278 1285 40
1278 1301 35
1279 1254 61
1280 1260 39
1280 1284 115
1280 1291 49
1280 1309 43
1281 1153 724
1282 1236 95
1282 1283 43
1282 1288 5
1283 1282 43
1283 1259 44
1283 1286 29
1283 1312 46
1284 1277 9
1284 1280 115
1284 1293 10
1285 1278 40
1285 1268 30
1285 1287 8
1286 1283 29
1287 1285 8
1287 1288 122
1287 1347 103
1288 1287 122
1288 1282 5
1288 1311 39
1289 1252 95
1289 1229 125
1289 1366 299
1290 997 1187
1291 1280 49
1291 1292 47
1291 1308 66
1292 1291 47
1293 1294 58
1293 1284 10
1293 1305 20
1294 1293 58
1295 1259 237
1295 1296 6
1295 1327 79
1296 1295 6
1296 1267 61
1296 1298 27
1297 1247 131
1298 1296 27
1298 1299 5
1298 1359 136
1299 1298 5
1299 1300 74
1299 1310 38
1300 1299 74
1301 1278 35
1302 1303 27
1302 1307 49
1302 1319 43
1303 1302 27
1304 1265 113
1304 1353 200
1304 1400 210
1305 1306 55
1305 1293 20
1305 1322 45
1306 1305 55
1307 1302 49
1308 1291 66
1309 1280 43
1309 1321 111
1309 1329 57
1310 1299 38
1310 1262 91
1310 1410 257
1311 1288 39
1311 1312 40
1311 1339 57
1312 1311 40
1312 1283 46
1312 1315 57
1313 1240 149
1313 1314 51
1313 1392 170
1314 1313 51
1315 1312 57
1315 1317 52
1315 1350 69
1316 1272 69
1316 1273 129
1316 1325 26
1317 1315 52
1318 1190 281
1318 1425 631
1318 1426 404
1319 1302 43
1319 1326 82
1319 1330 23
1320 1149 399
1321 1309 111
1321 1322 37
1321 1338 46
1322 1305 45
1322 1321 37
1322 1328 119
1322 1367 82
1323 1263 142
1323 1324 59
1323 1336 59
1324 1323 59
1324 1342 120
1324 1369 90
1325 1316 26
1325 1331 117
1325 1332 115
1325 1365 72
1326 1319 82
1327 1295 79
1328 1322 119
1328 1333 131
1328 1361 62
1329 1309 57
1329 1332 7
1329 1338 97
1330 1319 23
1330 1337 64
1330 1345 18
1331 1325 117
1331 1274 105
1331 1334 13
1332 1329 7
1332 1325 115
1332 1373 73
1333 1328 131
1333 1342 55
1333 1370 80
1334 1331 13
1334 1340 39
1334 1364 55
1335 1155 418
1335 1217 327
1335 1413 195
1335 1593 588
1336 1323 59
1336 1343 39
1336 1369 198
1337 1330 64
1337 1344 33
1337 1351 25
1338 1321 46
1338 1329 97
1338 1379 83
1339 1311 57
1339 1347 124
1339 1349 31
1340 1334 39
1340 1341 54
1340 1347 33
1341 1340 54
1342 1324 120
1342 1333 55
1342 1377 74
1343 1271 123
1343 1336 39
1343 1346 78
1343 1383 90
1344 1337 33
1345 1330 18
1345 1348 23
1345 1354 27
1346 1265 144
1346 1343 78
1346 1400 179
1347 1340 33
1347 1287 103
1347 1339 124
1348 1345 23
1349 1339 31
1349 1350 74
1349 1363 32
1350 1349 74
1350 1315 69
1350 1357 56
1350 1372 39
1351 1352 23
1351 1337 25
1352 1351 23
1353 1304 200
1353 1376 44
1353 1387 160
1354 1345 27
1354 1355 26
1355 1354 26
1355 1356 16
1355 1360 37
1356 1355 16
1357 1350 56
1357 1358 58
1357 1374 27
1358 1357 58
1358 1384 60
1359 1298 136
1359 1385 71
1360 1355 37
1361 1328 62
1361 1367 120
1361 1375 48
1362 1212 387
1362 1266 224
1362 1243 1072
1363 1349 32
1363 1371 70
1363 1380 34
1364 1334 55
1364 1368 108
1364 1388 58
1365 1325 72
1365 1368 8
1365 1373 106
1366 1289 299
1366 1543 267
1367 1361 120
1367 1322 82
1367 1391 53
1368 1365 8
1368 1364 108
1368 1389 53
1369 1324 90
1369 1336 198
1369 1377 61
1370 1333 80
1370 1375 67
1370 1378 52
1371 1363 70
1371 1372 8
1371 1381 24
1372 1371 8
1372 1350 39
1372 1374 50
1373 1332 73
1373 1365 106
1373 1401 76
1374 1372 50
1374 1357 27
1374 1382 30
1375 1370 67
1375 1361 48
1375 1399 72
1376 1353 44
1376 1417 177
1376 1423 163
1377 1369 61
1377 1342 74
1377 1378 73
1377 1393 41
1378 1377 73
1378 1370 52
1378 1398 49
1379 1338 83
1379 1401 157
1380 1363 34
1380 1382 128
1380 1386 20
1381 1371 24
1382 1380 128
1382 1374 30
1382 1384 57
1382 1390 17
1383 1343 90
1383 1393 255
1383 1469 139
1384 1382 57
1384 1358 60
1384 1385 9
1385 1384 9
1385 1359 71
1385 1397 23
1386 1380 20
1386 1390 130
1386 1422 72
1387 1353 160
1387 1402 90
1387 1417 72
1388 1364 58
1388 1389 86
1388 1416 62
1389 1368 53
1389 1388 86
1389 1406 49
1390 1386 130
1390 1382 17
1391 1367 53
1391 1399 141
1391 1419 64
1392 1313 170
1392 1395 12
1392 1496 148
1393 1383 255
1393 1377 41
1393 1398 73
1393 1412 51
1394 808 1796
1394 1453 522
1394 3498 1450
1394 3701 1959
1395 1396 93
1395 1392 12
1395 1541 166
1396 1395 93
1397 1385 23
1398 1393 73
1398 1378 49
1398 1399 109
1399 1398 109
1399 1375 72
1399 1391 141
1400 1304 210
1400 1346 179
1400 1423 85
1400 1546 202
1401 1373 76
1401 1379 157
1401 1495 104
1402 1387 90
1402 1444 76
1402 1457 156
1403 1404 49
1403 1407 39
1403 1474 89
1404 1403 49
1404 1477 89
1405 1215 917
1405 1519 256
1406 1389 49
1406 1416 70
1406 1499 130
1407 1403 39
1407 1476 81
1407 1482 154
1408 1409 34
1408 1480 77
1409 1408 34
1409 1487 78
1410 1310 257
1410 1411 4
1410 1699 309
1411 1410 4
1411 1420 37
1411 1835 407
1412 1393 51
1412 1414 124
1412 1475 204
1412 1536 114
1413 1335 195
1413 1674 244
1414 1415 101
1414 1412 124
1414 1434 63
1415 1414 101
1415 1434 74
1416 1406 70
1416 1388 62
1416 1418 27
1417 1387 72
1417 1376 177
1417 1444 86
1417 1506 87
1418 1416 27
1418 1422 174
1418 1500 73
1419 1391 64
1419 1475 156
1419 1515 89
1420 1411 37
1420 1421 24
1420 1428 101
1421 1420 24
1422 1418 174
1422 1386 72
1422 1424 162
1422 1560 124
1423 1376 163
1423 1400 85
1423 1427 32
1424 1422 162
1425 1318 631
1425 1195 542
1425 1440 20
1426 1318 404
1427 1423 32
1427 1506 224
1427 1510 92
1428 1420 101
1428 1442 28
1428 1565 104
1429 1430 23
1429 1431 58
1429 1437 26
1429 1542 85
1430 1429 23
1431 1429 58
1431 1432 22
1431 1433 7
1431 1570 106
1432 1431 22
1433 1431 7
1433 1435 19
1434 1415 74
1434 1414 63
1434 1469 79
1435 1433 19
1435 1436 22
1435 1443 31
1435 1458 18
1436 1435 22
1437 1429 26
1437 1450 47
1438 1439 22
1438 1441 19
1438 1443 34
1438 1572 100
1439 1438 22
1440 1425 20
1440 1911 689
1440 3089 1088
1441 1438 19
1441 1445 31
1441 1575 104
1442 1428 28
1442 1595 120
1443 1435 31
1443 1438 34
1443 1552 87
1444 1402 76
1444 1417 86
1444 1555 86
1445 1441 31
1445 1446 27
1445 1452 7
1446 1445 27
1447 1448 45
1448 1447 45
1448 1449 8
1448 1450 34
1448 1461 8
1449 1448 8
1449 1462 9
1450 1448 34
1450 1451 32
1450 1437 47
1450 1526 51
1451 1450 32
1452 1445 7
1452 1456 29
1452 1587 103
1453 1394 522
1454 1455 63
1454 1459 71
1454 1547 69
1455 1454 63
1456 1452 29
1456 1465 63
1456 1520 44
1457 1402 156
1457 1558 148
1457 1631 117
1458 1435 18
1458 1566 82
1459 1454 71
1459 1460 58
1459 1462 32
1459 1635 117
1460 1459 58
1461 1448 8
1461 1462 9
1461 1607 100
1462 1459 32
1462 1449 9
1462 1461 9
1463 1464 21
1463 1505 100
1463 1548 70
1464 1463 21
1465 1456 63
1465 1466 50
1465 1470 14
1466 1465 50
1467 1468 42
1468 1467 42
1469 1383 139
1469 1434 79
1469 1551 64
1470 1465 14
1470 1471 54
1470 1485 31
1470 1723 203
1471 1470 54
1472 1473 787
1472 1488 7
1472 2600 2355
1473 1472 787
1474 1403 89
1474 1476 44
1474 1477 43
1475 1412 204
1475 1419 156
1475 1523 44
1476 1407 81
1476 1474 44
1476 1481 32
1477 1474 43
1477 1404 89
1477 1478 12
1478 1477 12
1478 1479 76
1478 1480 16
1479 1478 76
1480 1478 16
1480 1408 77
1480 1487 33
1481 1476 32
1481 1482 33
1481 1769 216
1482 1407 154
1482 1481 33
1482 1483 39
1483 1484 85
1483 1482 39
1483 1491 46
1484 1483 85
1485 1470 31
1485 1486 58
1485 1494 24
1485 1690 167
1486 1485 58
1487 1480 33
1487 1409 78
1487 1547 129
1488 1472 7
1488 1589 28
1489 1490 27
1489 1501 30
1489 1524 34
1490 1489 27
1491 1483 46
1491 1502 144
1491 1706 171
1492 1493 18
1493 1492 18
1493 1505 11
1493 1511 58
1494 1485 24
1494 1497 36
1494 1849 289
1495 1401 104
1495 1525 29
1495 1530 31
1496 1392 148
1496 1197 880
1496 1541 83
1496 1682 151
1497 1498 17
1497 1494 36
1497 1601 94
1498 1497 17
1498 1509 25
1499 1406 130
1499 1525 31
1499 1549 127
1500 1418 73
1500 1504 94
1500 1571 62
1501 1489 30
1502 1503 91
1502 1491 144
1502 1508 31
1503 1502 91
1504 1500 94
1505 1463 100
1505 1493 11
1505 1538 33
1506 1417 87
1506 1427 224
1506 1554 59
1506 1620 90
1507 1508 90
1508 1507 90
1508 1502 31
1508 1513 45
1508 1773 212
1509 1498 25
1509 1521 31
1509 1612 81
1510 1427 92
1510 1615 74
1510 1620 112
1511 1493 58
1511 1512 24
1511 1517 19
1511 1648 109
1512 1511 24
1513 1514 86
1513 1508 45
1513 1516 8
1514 1513 86
1515 1419 89
1515 1529 80
1515 1592 58
1516 1513 8
1516 1528 52
1516 1751 179
1517 1511 19
1517 1518 25
1517 1534 38
1517 1649 110
1518 1517 25
1519 1197 983
1519 1405 256
1519 1846 550
1519 1948 370
1520 1456 44
1521 1509 31
1521 1522 68
1521 1548 35
1521 1576 48
1522 1521 68
1523 1475 44
1523 1527 17
1523 1531 35
1524 1489 34
1525 1495 29
1525 1499 31
1525 1530 15
1525 1561 50
1526 1450 51
1526 1557 29
1526 1564 78
1527 1523 17
1527 1529 52
1527 1614 57
1528 1516 52
1528 1535 21
1529 1515 80
1529 1527 52
1529 1592 130
1530 1495 31
1530 1525 15
1530 1585 50
1530 1592 251
1531 1523 35
1531 1536 92
1531 1693 179
1532 1533 1958
1533 1532 1958
1533 1577 511
1533 1602 77
1534 1517 38
1534 1537 29
1534 1655 104
1535 1528 21
1535 1539 52
1535 1811 216
1536 1412 114
1536 1531 92
1536 1562 95
1536 1616 57
1537 1534 29
1537 1567 84
1537 1688 119
1538 1505 33
1538 1544 7
1538 1559 32
1539 1540 75
1539 1535 52
1539 1563 74
1539 1845 227
1540 1539 75
1540 1563 130
1541 1395 166
1541 1496 83
1541 1595 60
1542 1429 85
1542 1564 15
1542 1570 49
1543 1366 267
1544 1545 32
1544 1538 7
1544 1619 47
1545 1544 32
1546 1400 202
1546 1556 8
1546 1696 182
1547 1487 129
1547 1454 69
1547 1635 77
1548 1521 35
1548 1463 70
1548 1598 37
1549 1499 127
1549 1550 72
1549 1571 52
1550 1549 72
1551 1469 64
1551 1556 67
1551 1691 96
1552 1443 87
1552 1572 30
1552 1623 41
1553 1554 19
1553 1555 39
1553 1704 106
1554 1553 19
1554 1506 59
1554 1705 103
1555 1444 86
1555 1553 39
1555 1695 147
1556 1546 8
1556 1551 67
1556 1750 133
1557 1526 29
1557 1658 82
1558 1457 148
1558 1594 56
1558 1713 113
1559 1538 32
1560 1422 124
1560 1582 66
1560 1625 41
1561 1525 50
1561 1585 87
1561 1640 140
1562 1536 95
1562 1616 165
1562 1691 180
1563 1540 130
1563 1539 74
1563 1569 20
1564 1526 78
1564 1542 15
1564 1583 15
1565 1428 104
1565 1624 51
1565 1692 254
1566 1458 82
1567 1537 84
1567 1568 42
1567 1574 10
1568 1567 42
1569 1563 20
1569 1613 73
1569 1687 84
1570 1542 49
1570 1431 106
1570 1573 3
1571 1549 52
1571 1500 62
1571 1640 39
1571 1625 180
1572 1552 30
1572 1438 100
1572 1575 14
1573 1570 3
1573 1586 27
1573 1634 35
1574 1567 10
1574 1603 64
1574 1629 32
1575 1572 14
1575 1441 104
1575 1587 30
1576 1521 48
1576 1606 28
1576 1838 214
1577 1533 511
1578 1579 13
1579 1578 13
1579 1590 25
1579 1591 9
1580 1581 20
1581 1580 20
1581 1591 29
1581 1630 28
1582 1560 66
1582 1584 25
1582 1675 69
1583 1564 15
1583 1685 67
1584 1582 25
1585 1530 50
1585 1561 87
1585 1618 24
1586 1573 27
1586 1623 35
1586 1711 87
1587 1575 30
1587 1452 103
1587 1659 55
1588 1589 58
1588 1602 194
1588 2763 1498
1589 1588 58
1589 1488 28
1590 1579 25
1590 1617 37
1590 1676 65
1591 1581 29
1591 1579 9
1591 1686 66
1592 1515 58
1592 1529 130
1592 1530 251
1592 1681 66
1593 1335 588
1594 1558 56
1594 1610 11
1595 1442 120
1595 1541 60
1595 1624 24
1596 1597 36
1597 1596 36
1598 1548 37
1598 1606 2
1598 1636 32
1599 1600 39
1600 1599 39
1600 1627 17
1600 1637 38
1601 1497 94
1601 1621 10
1601 1628 38
1602 1588 194
1602 1533 77
1602 3240 1115
1603 1574 64
1603 1611 20
1603 1753 136
1604 1605 58
1605 1604 58
1605 1627 23
1605 1636 19
1606 1576 28
1606 1598 2
1606 1709 88
1607 1461 100
1608 1609 64
1608 1741 109
1609 1608 64
1610 1594 11
1610 1674 122
1610 1689 60
1611 1603 20
1611 1630 46
1611 1753 121
1612 1509 81
1612 1628 12
1613 1569 73
1613 1646 84
1613 1667 53
1614 1527 57
1615 1510 74
1615 1644 30
1615 1739 128
1616 1536 57
1616 1562 165
1616 1797 226
1617 1590 37
1617 1632 43
1617 1702 69
1618 1585 24
1618 1738 360
1618 1826 198
1619 1544 47
1619 1637 12
1619 1647 44
1620 1506 90
1620 1510 112
1620 1705 88
1621 1601 10
1621 1869 214
1622 1261 498
1622 1870 316
1622 2863 901
1623 1586 35
1623 1552 41
1623 1626 3
1624 1565 51
1624 1595 24
1624 1794 241
1625 1560 41
1625 1571 180
1625 1675 73
1626 1623 3
1626 1657 63
1626 1719 80
1627 1605 23
1627 1600 17
1627 1650 28
1628 1601 38
1628 1612 12
1628 1896 225
1629 1574 32
1629 1643 24
1629 1668 42
1630 1611 46
1630 1581 28
1630 1700 61
1631 1457 117
1631 1665 45
1631 1764 204
1632 1633 19
1632 1617 43
1632 1638 16
1632 1670 38
1633 1632 19
1634 1573 35
1634 1701 56
1635 1547 77
1635 1459 117
1635 1652 49
1636 1598 32
1636 1605 19
1636 1708 68
1637 1600 38
1637 1619 12
1637 1730 93
1638 1632 16
1638 1639 17
1638 1645 32
1638 1670 58
1639 1638 17
1640 1561 140
1640 1571 39
1640 1664 82
1641 1642 46
1641 1665 61
1641 1800 123
1642 1641 46
1643 1629 24
1644 1615 30
1644 1715 143
1644 1731 72
1645 1638 32
1645 1651 32
1645 1798 119
1646 1613 84
1646 1662 35
1646 1913 212
1647 1619 44
1647 1648 12
1647 1783 124
1648 1647 12
1648 1511 109
1648 1649 23
1649 1648 23
1649 1517 110
1649 1655 32
1649 1726 67
1650 1627 28
1651 1645 32
1651 1660 22
1651 1791 104
1652 1635 49
1652 1654 21
1652 1656 19
1653 1654 36
1653 1666 111
1653 1934 190
1654 1653 36
1654 1652 21
1654 1765 74
1655 1649 32
1655 1534 104
1655 1688 26
1655 1760 80
1656 1652 19
1656 1658 4
1656 1766 71
1657 1626 63
1657 1659 4
1657 1759 72
1658 1656 4
1658 1557 82
1658 1685 63
1659 1657 4
1659 1587 55
1659 1723 80
1660 1651 22
1660 1661 29
1660 1663 9
1661 1660 29
1662 1646 35
1662 1725 69
1662 1878 173
1663 1660 9
1663 1671 44
1663 1789 92
1664 1640 82
1664 1834 178
1664 1932 193
1665 1631 45
1665 1641 61
1665 1764 77
1666 1653 111
1666 1680 18
1667 1613 53
1667 1684 18
1667 1707 26
1668 1669 55
1668 1629 42
1668 1782 94
1669 1668 55
1669 1716 72
1670 1632 38
1670 1638 58
1670 1778 83
1671 1663 44
1671 1672 12
1671 1792 106
1672 1671 12
1672 1673 23
1672 1677 25
1673 1672 23
1674 1610 122
1674 1737 54
1674 1899 351
1674 2001 221
1674 1413 244
1675 1625 73
1675 1582 69
1675 1699 40
1676 1590 65
1676 1702 41
1676 1807 112
1677 1672 25
1677 1678 20
1678 1677 20
1679 1680 11
1680 1679 11
1680 1666 18
1680 1712 31
1681 1592 66
1681 1683 117
1681 1693 78
1681 1854 130
1682 1496 151
1682 1831 506
1682 1850 295
1682 2106 290
1683 1681 117
1684 1667 18
1685 1658 63
1685 1583 67
1685 1701 45
1686 1591 66
1686 1700 51
1686 1813 102
1687 1569 84
1687 1710 34
1687 1965 207
1688 1655 26
1688 1537 119
1688 1694 10
1689 1610 60
1689 1703 41
1689 1728 52
1690 1485 167
1691 1551 96
1691 1562 180
1691 1750 89
1691 1829 95
1692 1565 254
1693 1531 179
1693 1681 78
1693 1797 79
1694 1688 10
1694 1716 25
1694 1842 123
1695 1555 147
1695 1704 96
1695 1771 54
1696 1546 182
1697 1698 150
1697 1732 58
1697 2465 643
1698 1697 150
1699 1675 40
1699 1410 309
1699 1834 103
1700 1630 61
1700 1686 51
1700 1817 87
1701 1685 45
1701 1634 56
1701 1711 21
1701 1762 80
1702 1676 41
1702 1617 69
1702 1774 55
1703 1689 41
1703 1737 59
1703 1780 71
1704 1553 106
1704 1695 96
1704 1717 20
1705 1554 103
1705 1620 88
1705 1715 14
1705 1717 18
1706 1491 171
1706 1714 40
1706 1841 100
1707 1667 26
1707 1727 20
1707 2066 293
1708 1636 68
1708 1718 13
1708 1730 58
1709 1606 88
1709 1718 35
1709 1756 37
1710 1687 34
1710 1727 32
1710 1873 132
1711 1701 21
1711 1586 87
1711 1719 31
1712 1680 31
1712 1722 31
1712 2009 197
1713 1558 113
1713 1729 49
1713 1761 50
1714 1706 40
1715 1705 14
1715 1644 143
1715 1746 18
1716 1694 25
1716 1669 72
1716 1770 43
1717 1704 20
1717 1705 18
1717 1724 10
1718 1709 35
1718 1708 13
1719 1711 31
1719 1626 80
1719 1742 22
1720 1721 38
1721 1720 38
1721 1725 48
1722 1712 31
1722 1741 28
1722 1915 130
1723 1659 80
1723 1470 203
1723 1818 68
1724 1717 10
1724 1744 23
1724 1754 50
1725 1721 48
1725 1662 69
1725 1777 49
1725 1946 180
1726 1649 67
1726 1760 30
1726 1790 57
1727 1707 20
1727 1710 32
1727 1907 134
1728 1689 52
1728 1772 30
1729 1713 49
1730 1708 58
1730 1637 93
1730 1755 15
1731 1644 72
1731 1739 57
1731 1743 78
1732 1697 58
1732 1733 133
1732 2510 642
1733 1732 133
1734 1735 121
1734 1736 10
1734 1769 44
1735 1734 121
1736 1734 10
1736 1752 15
1737 1674 54
1737 1703 59
1737 1824 62
1738 1618 360
1738 1784 42
1738 1826 227
1739 1731 57
1739 1615 128
1739 1740 107
1740 1739 107
1740 1750 125
1740 1883 105
1741 1608 109
1741 1722 28
1741 1752 25
1741 2034 200
1742 1719 22
1742 1745 13
1742 1828 58
1743 1731 78
1743 1746 62
1743 1968 149
1744 1724 23
1744 1746 10
1744 2002 166
1745 1742 13
1745 1759 21
1746 1744 10
1746 1715 18
1746 1743 62
1747 1748 14
1748 1747 14
1748 1749 77
1748 1767 15
1748 1775 41
1749 1748 77
1750 1740 125
1750 1556 133
1750 1691 89
1750 1847 71
1751 1516 179
1751 1810 52
1751 1811 72
1752 1736 15
1752 1741 25
1752 2060 213
1753 1603 136
1753 1611 121
1753 1815 48
1754 1724 50
1754 1771 43
1754 2021 228
1755 1730 15
1755 1783 47
1755 1806 43
1756 1709 37
1756 1838 65
1757 1758 37
1758 1757 37
1758 1776 32
1758 1879 100
1759 1745 21
1759 1657 72
1759 1818 84
1760 1726 30
1760 1655 80
1760 1799 37
1761 1713 50
1761 1857 72
1762 1763 15
1762 1701 80
1762 1830 55
1763 1762 15
1764 1665 77
1764 1631 204
1765 1654 74
1766 1656 71
1767 1748 15
1767 1768 42
1767 1776 10
1768 1767 42
1769 1481 216
1769 1734 44
1769 1785 41
1769 1822 37
1770 1716 43
1770 1782 25
1770 1804 37
1771 1695 54
1771 1754 43
1771 1781 23
1772 1728 30
1772 1816 31
1773 1508 212
1773 1775 2
1773 1810 54
1774 1702 55
1774 1779 45
1774 1805 25
1775 1773 2
1775 1748 41
1775 1808 28
1776 1767 10
1776 1758 32
1776 1917 104
1777 1725 49
1777 1840 47
1777 2004 175
1778 1670 83
1778 1779 3
1778 1798 50
1779 1774 45
1779 1778 3
1779 1803 11
1780 1703 71
1780 1824 61
1780 1825 45
1781 1771 23
1781 1852 68
1781 1914 85
1782 1770 25
1782 1668 94
1782 1786 3
1783 1755 47
1783 1647 124
1783 1793 5
1784 1738 42
1785 1769 41
1785 1801 14
1785 2118 228
1786 1782 3
1786 1815 96
1786 1843 46
1787 1788 100
1788 1787 100
1789 1663 92
1790 1726 57
1790 1837 29
1790 1844 44
1791 1651 104
1792 1671 106
1793 1783 5
1793 1819 14
1794 1624 241
1794 1835 172
1794 1850 77
1795 1796 55
1795 1821 50
1795 1900 68
1796 1795 55
1796 1853 45
1796 1859 138
1797 1616 226
1797 1693 79
1797 1874 70
1798 1778 50
1798 1645 119
1799 1760 37
1799 1837 25
1799 1842 34
1800 1641 123
1801 1802 147
1801 1785 14
1801 1841 35
1802 1801 147
1803 1779 11
1804 1770 37
1805 1774 25
1806 1755 43
1806 1858 48
1806 1905 77
1807 1676 112
1808 1775 28
1808 1809 18
1808 1827 7
1809 1808 18
1810 1751 52
1810 1773 54
1810 1860 39
1810 1920 140
1811 1535 216
1811 1751 72
1811 1812 0
1811 1814 1
1812 1811 0
1813 1686 102
1814 1811 1
1814 1845 48
1815 1753 48
1815 1786 96
1815 1823 6
1816 1772 31
1816 1820 10
1816 1882 55
1817 1700 87
1818 1759 84
1818 1723 68
1818 1849 43
1819 1793 14
1819 1844 18
1819 1858 41
1820 1816 10
1820 1825 30
1820 1904 57
1821 1795 50
1821 1829 27
1821 2083 171
1822 1769 37
1822 2101 193
1823 1815 6
1824 1737 62
1824 1780 61
1824 1996 109
1825 1780 45
1825 1820 30
1825 1972 96
1826 1618 198
1826 1738 227
1826 1854 52
1827 1808 7
1827 1860 55
1827 1952 100
1828 1742 58
1828 1836 5
1828 1929 143
1829 1691 95
1829 1821 27
1829 1847 122
1830 1762 55
1830 1877 55
1831 1682 506
1831 1832 140
1831 1848 33
1832 1831 140
1833 1197 767
1833 1846 16
1833 1848 25
1834 1664 178
1834 1699 103
1834 1835 10
1834 1978 110
1835 1834 10
1835 1411 407
1835 1794 172
1836 1828 5
1836 1851 38
1837 1790 29
1837 1799 25
1837 1881 51
1838 1576 214
1838 1756 65
1838 1954 97
1839 1840 40
1840 1839 40
1840 1777 47
1840 1890 42
1840 2222 343
1841 1706 100
1841 1801 35
1841 1861 55
1841 2141 219
1842 1799 34
1842 1694 123
1842 1880 35
1842 1906 58
1843 1786 46
1843 1895 40
1843 1933 81
1844 1819 18
1844 1790 44
1844 1881 31
1845 1539 227
1845 1814 48
1845 1864 42
1845 1898 43
1846 1833 16
1846 1519 550
1846 1868 20
1847 1750 71
1847 1829 122
1847 1902 37
1848 1831 33
1848 1833 25
1848 1862 13
1849 1818 43
1849 1494 289
1849 1869 27
1850 1794 77
1850 1682 295
1850 1978 340
1850 2173 396
1851 1836 38
1851 1855 24
1851 2244 263
1852 1781 68
1852 1894 32
1852 1935 107
1853 1796 45
1853 1859 80
1853 2161 221
1854 1681 130
1854 1826 52
1854 2011 181
1854 2018 110
1855 1856 43
1855 1851 24
1855 1877 34
1856 1855 43
1857 1761 72
1857 1882 29
1857 1903 28
1858 1806 48
1858 1819 41
1858 1876 15
1859 1796 138
1859 1853 80
1859 1874 94
1859 2065 144
1860 1810 39
1860 1827 55
1861 1841 55
1861 1879 19
1861 2162 221
1862 1848 13
1862 1865 30
1862 1875 10
1863 1864 106
1864 1863 106
1864 1845 42
1864 1923 41
1865 1862 30
1865 1886 12
1865 2029 364
1866 1867 43
1866 1905 31
1866 1958 74
1867 1866 43
1868 1846 20
1868 1875 23
1868 1950 142
1869 1849 27
1869 1621 214
1869 1896 25
1870 1622 316
1870 1871 3
1871 1870 3
1871 1872 1
1871 2229 984
1871 3346 1121
1872 1871 1
1873 1710 132
1873 1897 13
1873 1907 32
1874 1797 70
1874 1859 94
1874 2011 90
1875 1862 10
1875 1868 23
1875 1886 37
1876 1858 15
1876 1912 28
1876 1938 50
1877 1830 55
1877 1855 34
1877 1908 84
1877 1963 52
1878 1662 173
1878 1943 51
1879 1758 100
1879 1861 19
1879 1917 32
1880 1842 35
1880 1892 5
1880 1940 55
1881 1844 31
1881 1837 51
1881 1925 44
1881 1941 40
1882 1816 55
1882 1857 29
1882 1904 37
1882 1931 42
1883 1740 105
1883 1902 102
1883 1986 58
1884 1885 28
1884 2025 89
1884 2059 166
1885 1884 28
1886 1865 12
1886 1875 37
1886 1953 158
1886 2523 551
1887 1888 9
1887 1889 9
1887 1894 7
1888 1887 9
1889 1887 9
1890 1891 43
1890 1840 42
1890 1937 39
1891 1890 43
1892 1880 5
1892 1893 104
1892 1933 34
1893 1892 104
1894 1852 32
1894 1887 7
1894 1910 12
1895 1843 40
1895 1942 34
1895 2006 84
1896 1869 25
1896 1628 225
1896 1901 5
1897 1873 13
1898 1845 43
1898 1920 14
1898 1923 31
1899 1674 351
1899 1951 87
1899 1990 53
1900 1795 68
1901 1896 5
1901 1930 27
1901 1998 58
1902 1883 102
1902 1847 37
1902 2020 72
1903 1857 28
1903 1931 19
1904 1820 57
1904 1882 37
1904 1966 39
1905 1866 31
1905 1806 77
1905 1947 37
1906 1842 58
1906 1940 31
1906 1941 31
1907 1727 134
1907 1873 32
1907 2044 99
1908 1909 43
1908 1877 84
1908 1926 40
1909 1908 43
1910 1894 12
1910 1918 3
1910 1979 70
1911 1440 689
1911 1177 1032
1911 2168 1136
1911 3261 854
1912 1876 28
1912 1925 10
1912 1964 48
1913 1646 212
1913 1943 38
1913 2104 144
1914 1781 85
1914 1916 23
1914 1987 40
1915 1722 130
1916 1914 23
1916 1921 14
1916 1939 16
1917 1776 104
1917 1879 32
1917 1922 3
1918 1910 3
1918 1919 16
1918 1959 29
1919 1918 16
1920 1898 14
1920 1810 140
1920 1924 5
1921 1916 14
1922 1917 3
1922 1952 36
1922 1969 36
1923 1864 41
1923 1898 31
1923 1965 53
1924 1920 5
1924 1988 47
1924 2005 88
1925 1912 10
1925 1881 44
1925 1936 11
1926 1908 40
1926 1934 17
1926 2331 291
1927 1928 156
1927 1951 259
1927 2193 192
1928 1927 156
1928 2057 603
1928 2371 339
1929 1828 143
1930 1901 27
1930 1954 22
1931 1882 42
1931 1903 19
1931 1955 15
1932 1664 193
1932 1978 154
1932 2018 380
1933 1892 34
1933 1843 81
1933 1944 10
1934 1653 190
1934 1926 17
1934 1960 57
1935 1852 107
1935 1955 35
1935 1971 23
1936 1925 11
1936 2040 83
1936 2052 94
1937 1890 39
1937 1980 29
1937 2202 245
1938 1876 50
1938 1964 18
1939 1916 16
1940 1906 31
1940 1880 55
1940 1994 37
1941 1881 40
1941 1906 31
1941 1956 7
1942 1895 34
1943 1878 51
1943 1913 38
1943 2000 43
1944 1945 9
1944 1933 10
1944 2006 39
1945 1944 9
1945 2008 59
1946 1725 180
1946 2000 30
1946 2004 41
1947 1905 37
1947 1974 24
1948 1519 370
1948 1949 15
1948 1950 584
1949 1948 15
1949 2334 285
1949 2399 1169
1950 1868 142
1950 1948 584
1950 2392 372
1951 1899 87
1951 1927 259
1951 2112 119
1952 1827 100
1952 1922 36
1952 1981 17
1953 1886 158
1953 2046 201
1953 2336 273
1954 1930 22
1954 1838 97
1954 1985 25
1955 1931 15
1955 1935 35
1955 1961 19
1956 1941 7
1957 1958 36
1958 1957 36
1958 1866 74
1958 2013 37
1959 1918 29
1959 1962 18
1959 1975 31
1960 1934 57
1960 2009 55
1960 2354 284
1961 1955 19
1961 1966 44
1961 2063 69
1962 1959 18
1962 2032 47
1963 1877 52
1964 1938 18
1964 1912 48
1964 1974 56
1965 1687 207
1965 1923 53
1965 2005 20
1966 1904 39
1966 1961 44
1966 1967 21
1967 1966 21
1967 1972 6
1967 2064 92
1968 1743 149
1968 1983 50
1968 2003 13
1969 1922 36
1969 1970 23
1969 2177 189
1970 1969 23
1971 1935 23
1971 1973 1
1971 1997 20
1972 1825 96
1972 1967 6
1972 1996 66
1973 1971 1
1973 1989 31
1973 2051 48
1974 1947 24
1974 1964 56
1974 2012 25
1975 1976 37
1975 1977 2
1975 1959 31
1976 1975 37
1977 1975 2
1977 1987 24
1977 2092 79
1978 1932 154
1978 1834 110
1978 1850 340
1978 2364 307
1979 1910 70
1979 1989 49
1979 2036 41
1980 1937 29
1980 2054 59
1980 2260 270
1981 1952 17
1981 1982 26
1981 2010 27
1981 2198 177
1982 1981 26
1983 1968 50
1983 1984 65
1983 2056 49
1984 1983 65
1985 1954 25
1985 2013 31
1985 2195 167
1986 1883 58
1986 1992 81
1986 2126 125
1987 1977 24
1987 1914 40
1987 2043 40
1988 1924 47
1988 2026 43
1988 2028 33
1989 1973 31
1989 1979 49
1990 1899 53
1990 1991 57
1990 2027 43
1991 1990 57
1991 2027 79
1991 2123 151
1992 1993 103
1992 1995 31
1992 1986 81
1993 1992 103
1994 1940 37
1995 1992 31
1996 1824 109
1996 1972 66
1996 2001 11
1996 2085 68
1997 1971 20
1998 1999 55
1998 1901 58
1998 2016 17
1999 1998 55
2000 1946 30
2000 1943 43
2000 2150 146
2001 1674 221
2001 1996 11
2001 2007 12
2001 2276 236
2002 1744 166
2002 2003 48
2002 2024 20
2003 1968 13
2003 2002 48
2003 2413 301
2004 1777 175
2004 1946 41
2005 1965 20
2005 1924 88
2005 2044 52
2005 2086 78
2006 1944 39
2006 1895 84
2006 2014 13
2006 2022 27
2007 2001 12
2007 2015 54
2007 2105 74
2008 1945 59
2008 2031 29
2008 2075 63
2009 1712 197
2009 1960 55
2009 2034 55
2009 2370 270
2010 1981 27
2010 2030 28
2010 2214 170
2011 1874 90
2011 1854 181
2011 2065 87
2012 1974 25
2012 2033 49
2012 2061 46
2013 1985 31
2013 1958 37
2013 2035 26
2013 2241 195
2014 2006 13
2014 2019 9
2015 2007 54
2015 2025 43
2015 2045 21
2016 2017 78
2016 1998 17
2016 2047 22
2017 2016 78
2018 1854 110
2018 1932 380
2018 2091 58
2019 2014 9
2020 1902 72
2020 2083 189
2020 2170 109
2021 1754 228
2021 2023 17
2022 2006 27
2023 2024 3
2023 2021 17
2024 2023 3
2024 2002 20
2025 1884 89
2025 2015 43
2025 2053 65
2026 1988 43
2027 1990 43
2027 1991 79
2027 2110 85
2028 1988 33
2028 2086 71
2028 2327 264
2029 1865 364
2029 2046 11
2029 2106 107
2030 2010 28
2030 2055 42
2030 2226 167
2031 2008 29
2031 2040 16
2031 2098 58
2032 1962 47
2033 2012 49
2033 2052 13
2033 2102 55
2034 1741 200
2034 2009 55
2034 2060 28
2034 2303 193
2035 2013 26
2035 2061 30
2035 2125 81
2036 1979 41
2036 2037 0
2036 2039 4
2037 2036 0
2037 2038 11
2038 2037 11
2039 2036 4
2040 1936 83
2040 2031 16
2040 2089 49
2040 2095 43
2041 2042 17
2041 2051 43
2041 2068 23
2042 2041 17
2043 1987 40
2043 2103 42
2044 1907 99
2044 2005 52
2044 2049 3
2045 2015 21
2045 2050 16
2045 2111 53
2046 2029 11
2046 1953 201
2046 2097 79
2046 2258 171
2047 2048 30
2047 2016 22
2047 2062 30
2047 2076 26
2048 2047 30
2049 2044 3
2049 2066 29
2049 2082 31
2050 2045 16
2051 1973 48
2051 2041 43
2051 2078 23
2052 2033 13
2052 1936 94
2052 2109 78
2053 2025 65
2053 2059 16
2053 2119 53
2054 1980 59
2054 2074 19
2054 2315 258
2055 2030 42
2055 2084 45
2055 2248 189
2056 1983 49
2056 2126 193
2056 2266 154
2057 2058 175
2057 1928 603
2057 2254 168
2058 2057 175
2058 2099 59
2058 2151 71
2059 1884 166
2059 2053 16
2059 2090 48
2060 1752 213
2060 2034 28
2060 2081 23
2060 2393 247
2061 2035 30
2061 2012 46
2061 2067 8
2062 2047 30
2063 1961 69
2063 2064 13
2063 2087 16
2064 1967 92
2064 2063 13
2064 2233 122
2065 1859 144
2065 2011 87
2065 2161 141
2066 1707 293
2066 2049 29
2066 2088 21
2067 2061 8
2067 2102 45
2067 2129 48
2068 2041 23
2068 2069 33
2068 2116 37
2069 2068 33
2070 2071 11
2070 2072 8
2070 2100 27
2071 2070 11
2072 2073 45
2072 2070 8
2072 2085 55
2073 2072 45
2074 2054 19
2074 2133 54
2074 2330 254
2075 2008 63
2076 2077 69
2076 2047 26
2076 2164 75
2077 2076 69
2078 2051 23
2078 2079 17
2078 2113 31
2079 2078 17
2080 2081 0
2081 2080 0
2081 2060 23
2081 2101 32
2081 2400 239
2082 2049 31
2083 1821 171
2083 2020 189
2083 2200 135
2083 2217 102
2084 2055 45
2084 2305 183
2085 1996 68
2085 2072 55
2085 2257 155
2086 2005 78
2086 2028 71
2086 2096 9
2087 2063 16
2088 2066 21
2088 2104 12
2088 2107 17
2089 2040 49
2089 2109 22
2089 2138 59
2090 2059 48
2090 2123 49
2090 2127 34
2091 2018 58
2091 2094 58
2091 2368 202
2092 2093 21
2092 1977 79
2092 2103 26
2093 2092 21
2094 2091 58
2094 2135 181
2094 2259 150
2095 2040 43
2096 2086 9
2096 2124 46
2096 2386 292
2097 2046 79
2097 2117 21
2097 2181 103
2098 2031 58
2099 2058 59
2099 2238 153
2099 2284 139
2100 2070 27
2101 1822 193
2101 2081 32
2101 2118 37
2102 2067 45
2102 2033 55
2102 2160 87
2103 2092 26
2103 2043 42
2103 2144 43
2104 1913 144
2104 2088 12
2104 2115 25
2105 2007 74
2105 2111 69
2105 2163 51
2106 1682 290
2106 2029 107
2106 2173 87
2107 2088 17
2107 2108 28
2107 2159 47
2108 2107 28
2109 2052 78
2109 2089 22
2109 2160 44
2110 2027 85
2110 2112 7
2110 2308 140
2111 2045 53
2111 2105 69
2111 2206 69
2112 1951 119
2112 2110 7
2112 2136 65
2113 2078 31
2113 2121 7
2113 2134 68
2114 2115 18
2115 2114 18
2115 2104 25
2115 2132 21
2116 2068 37
2116 2120 6
2116 2122 35
2117 2097 21
2117 2157 46
2117 2258 125
2118 1785 228
2118 2101 37
2118 2141 42
2118 2420 225
2119 2053 53
2120 2116 6
2120 2146 60
2120 2153 27
2121 2113 7
2121 2139 18
2121 2186 73
2122 2116 35
2123 1991 151
2123 2090 49
2123 2156 34
2124 2096 46
2124 2159 49
2124 2446 277
2125 2035 81
2126 2056 193
2126 1986 125
2126 2158 21
2127 2090 34
2127 2128 30
2127 2165 27
2128 2127 30
2129 2067 48
2129 2196 45
2129 2197 50
2129 2250 121
2130 2131 105
2131 2130 105
2131 2164 90
2131 2237 72
2132 2115 21
2132 2150 18
2132 2224 76
2133 2074 54
2133 2221 75
2133 2401 243
2134 2113 68
2135 2094 181
2135 2234 110
2135 2259 116
2136 2137 51
2136 2112 65
2136 2142 12
2137 2136 51
2138 2089 59
2139 2121 18
2139 2140 19
2139 2187 28
2140 2139 19
2141 1841 219
2141 2118 42
2141 2167 42
2141 2178 24
2142 2143 107
2142 2136 12
2142 2304 110
2143 2142 107
2143 2152 14
2143 2208 51
2144 2145 55
2144 2103 43
2144 2282 95
2145 2144 55
2146 2120 60
2146 2147 13
2146 2148 1
2147 2146 13
2148 2146 1
2148 2149 13
2148 2172 18
2149 2148 13
2150 2000 146
2150 2132 18
2150 2155 8
2151 2058 71
2151 2286 94
2151 2288 127
2152 2143 14
2152 2193 72
2152 2213 48
2153 2154 11
2153 2120 27
2153 2182 20
2154 2153 11
2155 2150 8
2155 2174 21
2155 2253 80
2156 2123 34
2156 2199 51
2156 2279 90
2157 2117 46
2157 2181 39
2157 3109 843
2158 2126 21
2158 2170 109
2158 2272 84
2159 2107 47
2159 2124 49
2159 2220 63
2159 2483 275
2160 2102 87
2160 2109 44
2161 1853 221
2161 2065 141
2161 2171 9
2162 1861 221
2162 2167 2
2162 2177 23
2163 2105 51
2163 2201 66
2163 2281 114
2164 2131 90
2164 2076 75
2164 2225 50
2165 2127 27
2165 2166 27
2165 2194 12
2166 2165 27
2167 2162 2
2167 2141 42
2167 2205 29
2168 1911 1136
2168 2169 1009
2168 2465 1108
2168 3762 1188
2169 2168 1009
2170 2158 109
2170 2020 109
2170 2255 58
2171 2161 9
2171 2200 41
2171 2292 94
2172 2148 18
2172 2183 18
2172 2219 36
2173 1850 396
2173 2106 87
2173 2245 82
2174 2155 21
2174 2222 51
2174 2265 82
2175 2176 6
2175 2182 16
2175 2203 22
2176 2175 6
2177 1969 189
2177 2162 23
2177 2198 55
2178 2141 24
2178 2205 46
2178 2438 200
2179 2180 148
2180 2179 148
2181 2097 103
2181 2157 39
2181 2215 50
2182 2153 20
2182 2175 16
2182 2187 36
2183 2172 18
2183 2191 10
2184 2185 14
2184 2190 16
2184 2211 25
2185 2184 14
2186 2121 73
2187 2139 28
2187 2182 36
2187 2207 18
2188 2189 16
2188 2194 8
2189 2188 16
2190 2184 16
2191 2192 10
2191 2183 10
2192 2191 10
2193 2152 72
2193 1927 192
2193 2218 39
2194 2165 12
2194 2188 8
2194 2236 35
2195 1985 167
2196 2129 45
2196 2374 134
2197 2129 50
2197 15176 130
2198 1981 177
2198 2177 55
2198 2214 21
2198 2325 100
2199 2156 51
2199 2270 69
2199 2316 89
2200 2083 135
2200 2171 41
2200 2210 8
2201 2163 66
2201 2206 7
2201 2273 45
2202 1937 245
2203 2175 22
2203 2204 9
2203 2216 9
2204 2203 9
2205 2167 29
2205 2178 46
2205 2445 187
2206 2111 69
2206 2201 7
2206 2211 83
2207 2187 18
2207 2233 112
2207 2280 73
2208 2143 51
2208 2213 20
2208 2304 90
2209 1264 1027
2209 2229 27
2209 2306 97
2210 2200 8
2210 2217 92
2210 2289 63
2211 2184 25
2211 2212 13
2211 2206 83
2212 2211 13
2213 2152 48
2213 2208 20
2213 2218 72
2213 2252 21
2214 2010 170
2214 2198 21
2214 2226 18
2215 2181 50
2215 2256 45
2215 2302 63
2216 2203 9
2216 2227 26
2216 2235 11
2217 2083 102
2217 2210 92
2217 2246 62
2218 2193 39
2218 2213 72
2218 2351 108
2219 2172 36
2219 2223 27
2219 2239 9
2220 2159 63
2220 2224 2
2220 2381 138
2221 2133 75
2221 2356 106
2221 2449 233
2222 1840 343
2222 2174 51
2222 2242 17
2223 2219 27
2223 2227 5
2224 2132 76
2224 2220 2
2224 2253 19
2225 2164 50
2225 2237 56
2225 2277 36
2226 2030 167
2226 2214 18
2226 2248 25
2227 2216 26
2227 2223 5
2227 2228 1
2228 2227 1
2228 2235 21
2229 1871 984
2229 2209 27
2229 2243 16
2230 2231 21
2230 2232 21
2231 2230 21
2232 2230 21
2232 2236 24
2233 2064 122
2233 2207 112
2233 2257 23
2234 2135 110
2234 2292 101
2234 2359 99
2235 2216 11
2235 2228 21
2235 2280 30
2236 2194 35
2236 2232 24
2236 2249 6
2237 2131 72
2237 2225 56
2237 2244 35
2238 2099 153
2238 2251 30
2238 2323 129
2239 2219 9
2239 2240 13
2239 2294 39
2240 2239 13
2241 2013 195
2242 2222 17
2242 2274 30
2242 2328 86
2243 2229 16
2243 3111 904
2244 1851 263
2244 2237 35
2244 2290 32
2245 2173 82
2245 2256 10
2245 2263 25
2246 2247 9
2246 2217 62
2246 2365 91
2247 2246 9
2247 2255 127
2247 2367 99
2248 2055 189
2248 2226 25
2248 2267 29
2248 2513 228
2249 2236 6
2249 2298 68
2249 2318 51
2250 2129 121
2251 2238 30
2251 2271 19
2251 2291 193
2252 2213 21
2253 2155 80
2253 2224 19
2253 2264 16
2254 2057 168
2255 2170 58
2255 2247 127
2255 2348 69
2256 2245 10
2256 2215 45
2256 2278 24
2256 2302 33
2257 2085 155
2257 2233 23
2257 2375 193
2258 2117 125
2258 2046 171
2258 2509 190
2259 2135 116
2259 2094 150
2259 2380 118
2260 1980 270
2260 2261 55
2260 2315 54
2261 2260 55
2261 2262 53
2262 2261 53
2263 2245 25
2263 2278 11
2263 2790 677
2264 2253 16
2264 2265 3
2264 2293 20
2264 2496 192
2265 2174 82
2265 2264 3
2265 2321 52
2266 2056 154
2266 2272 173
2266 2409 136
2267 2248 29
2267 2305 34
2267 2536 221
2268 2269 12
2268 2295 16
2269 2268 12
2270 2199 69
2270 2307 25
2270 2308 36
2271 2251 19
2271 2320 35
2271 2383 170
2272 2158 84
2272 2266 173
2272 2362 92
2273 2201 45
2273 2275 41
2273 2333 52
2274 2242 30
2274 2310 37
2274 2360 88
2275 2273 41
2276 2001 236
2276 2322 74
2277 2225 36
2277 2283 7
2277 2309 56
2278 2263 11
2278 2256 24
2278 2556 354
2278 3105 518
2279 2156 90
2279 2296 12
2279 2297 19
2280 2207 73
2280 2235 30
2280 2295 39
2281 2163 114
2281 2314 23
2282 2144 95
2282 2294 36
2282 2411 94
2283 2277 7
2283 2290 70
2283 2379 104
2284 2099 139
2284 2285 23
2284 2323 29
2285 2284 23
2285 2286 5
2285 2489 145
2286 2285 5
2286 2151 94
2286 2287 39
2287 2286 39
2287 2288 23
2287 2495 148
2288 2287 23
2288 2151 127
2288 2421 101
2289 2210 63
2289 2365 123
2289 2626 241
2290 2244 32
2290 2283 70
2290 2311 51
2291 2251 193
2291 2357 84
2291 2387 110
2292 2171 94
2292 2234 101
2292 2437 120
2293 2264 20
2294 2239 39
2294 2282 36
2294 2295 13
2295 2280 39
2295 2268 16
2295 2294 13
2296 2279 12
2296 2297 12
2296 2319 32
2297 2296 12
2297 2279 19
2297 2298 14
2298 2297 14
2298 2249 68
2298 2443 116
2299 2300 6
2299 2301 8
2299 2317 14
2300 2299 6
2301 2299 8
2302 2256 33
2302 2215 63
2302 3109 496
2303 2034 193
2304 2208 90
2304 2142 110
2304 2373 61
2305 2084 183
2305 2267 34
2305 2324 26
2306 2209 97
2307 2270 25
2307 2316 78
2307 2403 74
2308 2110 140
2308 2270 36
2308 2313 6
2309 2277 56
2310 2274 37
2310 2337 38
2310 2402 89
2311 2312 225
2311 2290 51
2311 2326 63
2312 2311 225
2313 2308 6
2313 2372 92
2313 2385 68
2314 2281 23
2314 2332 26
2314 2333 121
2315 2054 258
2315 2260 54
2315 2330 27
2315 2366 56
2316 2307 78
2316 2199 89
2317 2299 14
2317 2345 30
2318 2249 51
2318 2341 35
2318 2363 37
2319 2296 32
2320 2271 35
2320 2350 27
2320 2423 177
2321 2265 52
2321 2328 17
2321 2517 175
2322 2276 74
2322 2349 20
2322 2378 106
2323 2238 129
2323 2284 29
2323 2383 46
2324 2305 26
2324 2327 10
2324 2565 193
2325 2198 100
2325 2338 26
2325 2488 124
2326 2311 63
2326 2331 29
2326 2478 112
2327 2028 264
2327 2324 10
2327 2361 34
2328 2242 86
2328 2321 17
2328 2360 26
2329 1199 1123
2329 2399 46
2329 3089 1697
2330 2074 254
2330 2315 27
2330 2398 57
2330 2401 65
2331 1926 291
2331 2326 29
2331 2339 28
2332 2314 26
2332 2349 64
2332 2453 87
2333 2273 52
2333 2314 121
2333 2346 53
2333 2459 87
2334 2335 329
2334 1949 285
2334 2849 322
2335 2334 329
2336 1953 273
2337 2310 38
2337 2366 24
2337 2439 91
2338 2325 26
2339 2340 108
2339 2331 28
2339 2344 11
2340 2339 108
2341 2318 35
2341 2342 17
2341 2363 28
2342 2341 17
2342 2343 30
2342 2345 50
2343 2342 30
2344 2339 11
2344 2352 19
2344 2561 141
2345 2317 30
2345 2342 50
2345 2346 16
2346 2345 16
2346 2347 41
2346 2333 53
2347 2346 41
2348 2255 69
2348 2355 6
2348 2362 42
2349 2332 64
2349 2322 20
2349 2430 61
2350 2320 27
2350 2388 30
2350 2457 184
2351 2218 108
2351 2371 104
2351 2484 100
2352 2353 161
2352 2344 19
2352 2354 9
2353 2352 161
2354 1960 284
2354 2352 9
2354 2370 53
2355 2348 6
2355 2367 101
2355 2419 49
2356 2221 106
2356 2390 38
2357 2358 63
2357 2291 84
2357 2428 58
2357 2628 305
2358 2357 63
2358 2374 122
2358 15176 122
2358 2395 34
2359 2234 99
2359 2380 96
2359 2444 69
2360 2274 88
2360 2328 26
2360 2369 9
2361 2327 34
2361 2386 33
2361 2477 99
2362 2272 92
2362 2348 42
2362 2376 41
2363 2318 37
2363 2341 28
2363 2410 39
2364 1978 307
2364 2382 369
2364 2450 291
2364 2888 366
2365 2246 91
2365 2289 123
2365 2367 34
2366 2315 56
2366 2337 24
2366 2398 28
2367 2355 101
2367 2247 99
2367 2365 34
2368 2091 202
2368 2382 12
2368 2441 180
2369 2360 9
2369 2402 29
2369 2553 149
2370 2009 270
2370 2354 53
2370 2377 26
2371 1928 339
2371 2351 104
2371 2597 149
2372 2313 92
2372 2373 1
2372 2415 28
2373 2304 61
2373 2372 1
2373 2396 29
2374 2358 122
2374 15176 122
2374 2407 54
2374 2196 134
2375 2257 193
2375 2378 14
2375 2435 109
2376 2362 41
2376 2384 18
2376 2422 37
2377 2370 26
2377 2393 47
2377 2587 134
2378 2322 106
2378 2375 14
2378 2430 117
2379 2283 104
2379 2397 11
2379 2417 32
2380 2359 96
2380 2259 118
2380 2441 41
2381 2220 138
2382 2368 12
2382 2364 369
2382 2524 94
2383 2271 170
2383 2323 46
2383 2423 30
2384 2376 18
2384 2389 129
2384 2408 44
2385 2313 68
2386 2096 292
2386 2361 33
2386 2391 3
2387 2291 110
2387 2394 3
2387 2440 48
2388 2350 30
2388 2486 180
2388 2646 185
2389 2384 129
2389 2409 59
2389 2429 31
2390 2356 38
2390 2470 85
2390 2502 108
2391 2386 3
2391 2414 21
2391 2505 97
2392 1950 372
2393 2060 247
2393 2377 47
2393 2400 16
2394 2387 3
2395 2358 34
2395 2428 45
2395 2447 40
2396 2373 29
2396 2472 55
2396 2484 125
2397 2379 11
2397 2473 77
2398 2330 57
2398 2366 28
2398 2456 65
2399 1949 1169
2399 2329 46
2399 3199 1693
2400 2081 239
2400 2393 16
2400 2420 62
2401 2133 243
2401 2330 65
2401 2449 47
2401 2456 57
2402 2310 89
2402 2369 29
2402 2404 2
2403 2307 74
2403 2412 13
2403 2434 32
2404 2402 2
2404 2426 27
2404 2680 209
2405 2406 254
2406 2405 254
2406 2468 313
2406 2709 192
2407 2374 54
2407 2506 132
2407 2644 147
2408 2384 44
2408 2427 64
2408 2436 22
2409 2266 136
2409 2389 59
2409 2424 41
2410 2363 39
2410 2443 63
2410 2599 275
2411 2282 94
2411 2413 161
2411 2435 20
2412 2403 13
2412 2416 10
2413 2003 301
2413 2411 161
2413 2424 12
2414 2391 21
2414 2432 27
2414 2527 93
2415 2372 28
2416 2412 10
2416 2425 10
2416 2485 59
2417 2379 32
2417 2418 83
2417 2480 44
2418 2417 83
2419 2355 49
2419 2422 71
2419 2528 73
2420 2118 225
2420 2400 62
2420 2431 25
2421 2288 101
2422 2376 37
2422 2419 71
2422 2436 65
2423 2320 177
2423 2383 30
2423 2457 23
2424 2413 12
2424 2409 41
2424 2463 26
2425 2416 10
2426 2404 27
2426 2439 9
2426 2547 96
2427 2408 64
2427 2429 13
2427 2455 19
2428 2395 45
2428 2357 58
2428 2479 88
2428 2500 50
2429 2389 31
2429 2427 13
2429 2458 85
2430 2349 61
2430 2378 117
2430 2454 15
2431 2420 25
2431 2438 6
2431 2491 37
2432 2414 27
2432 2446 18
2432 2560 92
2433 2434 16
2433 2448 12
2434 2433 16
2434 2403 32
2434 2503 45
2435 2375 109
2435 2411 20
2435 2463 162
2435 2748 183
2436 2408 22
2436 2422 65
2436 2464 65
2437 2292 120
2437 2444 76
2437 2487 32
2438 2178 200
2438 2431 6
2438 2445 32
2439 2337 91
2439 2426 9
2439 2442 2
2440 2387 48
2441 2380 41
2441 2368 180
2441 2499 115
2442 2439 2
2442 2452 12
2443 2298 116
2443 2410 63
2443 2494 36
2444 2437 76
2444 2359 69
2444 2499 36
2445 2205 187
2445 2438 32
2445 2451 8
2446 2124 277
2446 2432 18
2446 2482 42
2447 2395 40
2448 2433 12
2448 2476 75
2449 2221 233
2449 2401 47
2449 2525 67
2449 2573 95
2450 2364 291
2451 2445 8
2451 2461 22
2451 2583 81
2452 2442 12
2452 2469 18
2452 2731 198
2453 2332 87
2453 2466 42
2453 2490 22
2454 2430 15
2454 2490 70
2454 2641 112
2455 2427 19
2455 2464 8
2455 2501 103
2456 2401 57
2456 2398 65
2456 2471 13
2457 2350 184
2457 2423 23
2457 2486 14
2458 2429 85
2458 2462 15
2458 2501 26
2459 2333 87
2459 2460 48
2459 2559 60
2460 2459 48
2460 2466 49
2461 2451 22
2461 2488 35
2461 2574 68
2462 2458 15
2462 2463 8
2462 2751 165
2463 2424 26
2463 2462 8
2463 2435 162
2464 2455 8
2464 2436 65
2464 2535 56
2465 2168 1108
2465 1697 643
2465 2510 58
2465 3899 972
2466 2460 49
2466 2453 42
2466 2544 67
2467 2468 121
2468 2467 121
2468 2406 313
2468 2495 110
2468 2798 198
2469 2452 18
2469 2511 35
2469 2521 139
2470 2390 85
2470 2502 26
2470 2573 88
2471 2456 13
2471 2525 43
2471 2558 73
2472 2396 55
2472 2474 27
2472 2601 95
2473 2397 77
2473 2478 2
2473 2530 41
2474 2472 27
2474 2475 27
2474 2563 53
2475 2474 27
2475 2476 3
2475 2518 23
2476 2475 3
2476 2448 75
2477 2361 99
2478 2326 112
2478 2473 2
2478 2557 75
2479 2428 88
2480 2417 44
2480 2481 87
2480 2531 37
2481 2480 87
2482 2446 42
2482 2483 1
2482 2608 90
2483 2159 275
2483 2482 1
2483 2515 35
2484 2351 100
2484 2396 125
2484 2576 86
2485 2416 59
2485 2492 21
2485 2533 36
2486 2388 180
2486 2457 14
2486 2489 24
2487 2437 32
2487 2514 88
2487 2632 105
2488 2325 124
2488 2461 35
2488 2497 20
2488 2636 99
2489 2486 24
2489 2285 145
2489 2495 44
2490 2453 22
2490 2454 70
2490 2551 38
2491 2431 37
2492 2485 21
2492 2493 5
2492 2522 18
2493 2492 5
2494 2443 36
2494 2507 119
2494 2533 32
2495 2489 44
2495 2287 148
2495 2468 110
2496 2264 192
2496 2577 55
2497 2498 47
2497 2488 20
2497 2513 21
2498 2497 47
2499 2444 36
2499 2441 115
2499 2514 9
2500 2428 50
2501 2458 26
2501 2455 103
2501 3065 318
2502 2390 108
2502 2470 26
2502 2508 3
2503 2434 45
2503 2504 20
2503 2570 38
2504 2503 20
2504 2512 25
2504 2526 16
2505 2391 97
2505 2527 29
2505 2614 79
2506 2407 132
2506 2534 21
2506 2590 98
2507 2494 119
2508 2502 3
2508 2543 30
2508 2607 86
2509 2258 190
2509 2537 45
2509 2760 141
2510 2465 58
2510 1732 642
2510 4048 1026
2511 2469 35
2511 2521 6
2511 2578 51
2512 2504 25
2512 2516 31
2512 2615 62
2513 2248 228
2513 2497 21
2513 2520 9
2514 2499 9
2514 2487 88
2514 2602 56
2515 2483 35
2515 2529 23
2515 2629 77
2516 2512 31
2516 2518 15
2516 2566 32
2517 2321 175
2517 2603 63
2518 2475 23
2518 2516 15
2518 2519 15
2519 2518 15
2520 2513 9
2520 2536 24
2520 2580 37
2521 2469 139
2521 2511 6
2521 2548 28
2522 2492 18
2523 1886 551
2524 2382 94
2524 2602 294
2524 2605 53
2525 2449 67
2525 2471 43
2525 2552 24
2526 2504 16
2527 2414 93
2527 2505 29
2527 2560 28
2527 2642 73
2528 2419 73
2528 2535 162
2528 2639 63
2529 2515 23
2529 2542 11
2529 2652 75
2530 2473 41
2531 2480 37
2531 2532 75
2531 2653 83
2532 2531 75
2533 2485 36
2533 2494 32
2533 2545 6
2534 2506 21
2534 2590 74
2534 2606 42
2535 2464 56
2535 2528 162
2535 2711 99
2536 2267 221
2536 2520 24
2536 2565 58
2537 2509 45
2537 2538 93
2537 2598 206
2538 2537 93
2539 2540 36
2539 2544 29
2539 2554 25
2540 2539 36
2541 2542 36
2542 2541 36
2542 2529 11
2542 2562 22
2543 2508 30
2543 2550 4
2543 2634 81
2544 2466 67
2544 2539 29
2544 2555 21
2545 2546 39
2545 2533 6
2545 2599 29
2546 2545 39
2547 2426 96
2548 2521 28
2548 2558 6
2548 2786 175
2549 2550 57
2550 2549 57
2550 2543 4
2550 2604 44
2551 2490 38
2551 2649 58
2552 2525 24
2552 2633 70
2553 2369 149
2554 2539 25
2555 2544 21
2555 2559 17
2555 2667 63
2556 2278 354
2556 2732 228
2556 4423 1216
2557 2478 75
2557 2561 52
2557 2672 85
2558 2471 73
2558 2548 6
2558 2609 44
2559 2459 60
2559 2555 17
2559 2673 80
2560 2432 92
2560 2527 28
2560 2588 28
2560 2663 65
2561 2344 141
2561 2557 52
2561 2564 18
2562 2542 22
2562 2577 14
2562 2669 66
2563 2474 53
2564 2561 18
2564 2567 6
2564 2870 202
2565 2324 193
2565 2536 58
2565 2575 4
2565 2614 68
2566 2516 32
2567 2568 54
2567 2564 6
2567 2569 5
2568 2567 54
2569 2567 5
2569 2571 6
2569 2697 77
2570 2503 38
2570 2584 19
2571 2572 25
2571 2569 6
2571 2579 14
2571 2916 218
2572 2571 25
2573 2470 88
2573 2449 95
2573 2594 17
2573 2728 129
2574 2461 68
2575 2565 4
2576 2484 86
2576 2597 20
2576 2674 59
2577 2496 55
2577 2562 14
2577 2591 16
2578 2511 51
2579 2571 14
2579 2581 11
2579 2655 44
2580 2520 37
2581 2582 47
2581 2579 11
2581 2586 16
2582 2581 47
2583 2451 81
2584 2570 19
2584 2585 24
2584 2650 48
2585 2584 24
2586 2581 16
2586 2587 4
2586 2887 186
2587 2377 134
2587 2586 4
2587 2595 26
2588 2589 22
2588 2560 28
2588 2608 33
2589 2588 22
2590 2534 74
2590 2506 98
2590 2668 46
2591 2577 16
2591 2603 17
2591 2723 85
2592 2593 119
2592 2714 76
2593 2592 119
2593 2616 19
2594 2573 17
2594 2607 14
2594 2752 128
2595 2596 21
2595 2587 26
2595 2627 103
2596 2595 21
2597 2371 149
2597 2576 20
2597 2610 29
2598 2537 206
2598 2736 491
2598 2845 162
2599 2545 29
2599 2410 275
2599 2721 72
2600 1472 2355
2601 2472 95
2601 2619 41
2601 2696 53
2602 2514 56
2602 2524 294
2602 2632 144
2602 2666 33
2603 2517 63
2603 2591 17
2603 2631 33
2604 2550 44
2604 2687 64
2604 2705 84
2605 2524 53
2605 2611 44
2605 2903 182
2606 2534 42
2606 2682 45
2607 2508 86
2607 2594 14
2607 2634 26
2607 2766 128
2608 2482 90
2608 2588 33
2608 2698 59
2609 2558 44
2609 2633 23
2609 2645 27
2610 2597 29
2610 2612 3
2610 2804 114
2611 2605 44
2611 2618 58
2611 2734 121
2612 2613 263
2612 2610 3
2612 2689 169
2613 2612 263
2614 2505 79
2614 2565 68
2614 2642 38
2615 2512 62
2616 2593 19
2616 2617 43
2616 2710 52
2617 2616 43
2617 2623 45
2617 2703 56
2618 2611 58
2618 2635 91
2618 2727 61
2619 2601 41
2619 2660 65
2619 2677 30
2620 2621 83
2620 2632 35
2620 2643 13
2621 2620 83
2622 2623 2
2623 2622 2
2623 2617 45
2623 2695 42
2624 2625 46
2624 2644 30
2624 3175 306
2625 2624 46
2626 2289 241
2626 2640 54
2626 2643 61
2627 2595 103
2627 2636 100
2628 2357 305
2628 2739 73
2628 2813 124
2629 2515 77
2630 2631 40
2631 2630 40
2631 2603 33
2631 2659 27
2632 2620 35
2632 2487 105
2632 2602 144
2633 2552 70
2633 2609 23
2633 2678 29
2634 2543 81
2634 2607 26
2634 2705 47
2635 2618 91
2635 2666 106
2635 2920 163
2636 2488 99
2636 2627 100
2636 2648 29
2637 2638 21
2637 2641 4
2638 2637 21
2638 2649 28
2638 2671 17
2639 2528 63
2639 2657 142
2639 2808 102
2640 2626 54
2640 2657 48
2640 3095 268
2641 2637 4
2641 2454 112
2641 2647 3
2642 2527 73
2642 2614 38
2642 2663 30
2643 2626 61
2643 2620 13
2643 2665 56
2644 2407 147
2644 2624 30
2644 2668 38
2645 2609 27
2646 2388 185
2647 2641 3
2647 2741 55
2647 2744 61
2648 2636 29
2648 2656 29
2648 2742 54
2649 2551 58
2649 2638 28
2649 2654 4
2650 2584 48
2650 2651 46
2650 2699 31
2651 2650 46
2652 2529 75
2653 2531 83
2653 2664 31
2653 2749 87
2654 2649 4
2654 2661 15
2654 2681 36
2655 2579 44
2656 2648 29
2656 2670 47
2656 2746 52
2657 2639 142
2657 2640 48
2657 2987 322
2658 2659 34
2659 2658 34
2659 2631 27
2659 2680 28
2659 2852 128
2660 2619 65
2660 2674 22
2660 2704 26
2661 2654 15
2661 2662 58
2661 2726 40
2662 2661 58
2662 2667 47
2662 2726 93
2663 2560 65
2663 2642 30
2663 2698 59
2664 2653 31
2665 2643 56
2665 2676 59
2665 2938 166
2666 2602 33
2666 2635 106
2666 2676 70
2666 2932 157
2667 2555 63
2667 2662 47
2667 2673 55
2668 2590 46
2668 2644 38
2668 2682 98
2669 2562 66
2670 2656 47
2670 2675 25
2670 2745 45
2671 2638 17
2672 2557 85
2672 2690 19
2672 2725 58
2673 2559 80
2673 2667 55
2673 2683 60
2673 2719 29
2674 2576 59
2674 2660 22
2674 2730 38
2675 2670 25
2675 2780 190
2676 2665 59
2676 2666 70
2676 2936 153
2677 2619 30
2677 2704 60
2677 2696 49
2678 2679 66
2678 2633 29
2678 2728 42
2679 2678 66
2680 2404 209
2680 2659 28
2680 2684 9
2681 2654 36
2682 2606 45
2682 2668 98
2682 2998 182
2683 2673 60
2683 2685 13
2683 2812 128
2684 2680 9
2684 2707 16
2684 2876 130
2685 2686 96
2685 2683 13
2685 2688 52
2686 2685 96
2687 2604 64
2687 2712 17
2687 2977 246
2688 2685 52
2688 2693 41
2688 2770 47
2689 2612 169
2689 2691 9
2689 2777 51
2690 2672 19
2690 2713 14
2690 2765 62
2691 2692 314
2691 2689 9
2691 2702 224
2692 2691 314
2693 2694 35
2693 2688 41
2693 2701 12
2694 2693 35
2695 2623 42
2695 2703 24
2696 2601 53
2696 2677 49
2696 2708 5
2697 2569 77
2698 2608 59
2698 2663 59
2698 2780 67
2698 2852 214
2699 2650 31
2699 2700 28
2699 2757 34
2700 2699 28
2700 2706 71
2700 2781 51
2701 2693 12
2701 2720 36
2701 2729 18
2702 2691 224
2702 2709 16
2702 2844 111
2703 2617 56
2703 2695 24
2703 2710 33
2704 2660 26
2704 2677 60
2704 2716 11
2705 2604 84
2705 2634 47
2705 2778 71
2706 2700 71
2706 2708 102
2706 2738 21
2707 2684 16
2707 2731 33
2707 2772 49
2708 2696 5
2708 2706 102
2708 2715 6
2709 2406 192
2709 2702 16
2709 2853 257
2710 2616 52
2710 2703 33
2710 2735 49
2711 2535 99
2711 2827 142
2711 2895 108
2712 2687 17
2712 2750 31
2712 2905 116
2713 2690 14
2713 2749 19
2713 2764 46
2714 2592 76
2714 2755 25
2715 2708 6
2715 2724 63
2715 2753 18
2716 2704 11
2716 2730 21
2716 2771 34
2717 2718 34
2717 2796 94
2717 3087 206
2718 2717 34
2719 2673 29
2719 2812 58
2719 2828 110
2720 2701 36
2720 2721 24
2720 2774 33
2721 2599 72
2721 2720 24
2721 2722 13
2722 2721 13
2722 2743 25
2723 2591 85
2724 2715 63
2725 2672 58
2726 2661 40
2726 2733 8
2726 2662 93
2727 2618 61
2727 2734 34
2727 2912 111
2728 2573 129
2728 2678 42
2728 2752 16
2728 2919 144
2729 2701 18
2730 2674 38
2730 2716 21
2730 2783 35
2731 2452 198
2731 2707 33
2731 2759 23
2732 2556 228
2732 2769 156
2732 2809 94
2733 2726 8
2733 2747 11
2734 2727 34
2734 2611 121
2734 2910 103
2735 2710 49
2736 2598 491
2736 2737 272
2736 2802 117
2737 2736 272
2738 2706 21
2738 2787 74
2738 2838 63
2739 2740 63
2739 2628 73
2739 2813 103
2740 2739 63
2740 3050 200
2741 2647 55
2741 2747 46
2741 2758 10
2742 2648 54
2742 2800 72
2742 2807 45
2743 2722 25
2743 2757 13
2743 2773 25
2744 2647 61
2744 2758 15
2744 2767 12
2745 2670 45
2746 2656 52
2746 2756 30
2746 2817 48
2747 2733 11
2747 2741 46
2747 2805 43
2748 2435 183
2748 2755 53
2748 2799 37
2749 2713 19
2749 2653 87
2749 2870 114
2750 2712 31
2751 2462 165
2751 2794 77
2751 2840 57
2752 2594 128
2752 2728 16
2752 2766 11
2753 2715 18
2753 2754 37
2753 2797 35
2754 2753 37
2755 2714 25
2755 2748 53
2755 2768 21
2756 2746 30
2757 2699 34
2757 2743 13
2757 2761 4
2758 2741 10
2758 2744 15
2758 2767 12
2758 2789 28
2759 2731 23
2759 2786 56
2759 2859 76
2760 2509 141
2760 2845 259
2760 2985 132
2761 2757 4
2761 2781 39
2761 2820 46
2762 2763 560
2763 2762 560
2763 1588 1498
2763 3240 1287
2764 2713 46
2765 2690 62
2766 2607 128
2766 2752 11
2766 2831 60
2767 2758 12
2767 2744 12
2767 2779 31
2768 2755 21
2768 2776 69
2768 2833 46
2769 2732 156
2770 2688 47
2770 2782 17
2770 2823 31
2771 2716 34
2771 2783 20
2771 2797 82
2772 2707 49
2773 2743 25
2774 2720 33
2774 2775 39
2774 2872 59
2775 2774 39
2776 2768 69
2776 2779 30
2776 2793 18
2777 2689 51
2777 2788 11
2777 2844 168
2778 2705 71
2778 2819 32
2778 2867 77
2779 2767 31
2779 2776 30
2779 2832 32
2780 2698 67
2780 2675 190
2780 2785 9
2781 2700 51
2781 2761 39
2781 2787 11
2782 2770 17
2783 2730 35
2783 2771 20
2783 2784 6
2784 2783 6
2784 2804 73
2784 2915 114
2785 2780 9
2785 2801 28
2785 2858 44
2786 2548 175
2786 2759 56
2786 2919 138
2787 2738 74
2787 2781 11
2787 2847 38
2788 2777 11
2788 2848 34
2788 3193 226
2789 2758 28
2789 2795 15
2789 2806 22
2790 2263 677
2790 2888 207
2791 2792 40
2791 2800 31
2791 2881 201
2791 2928 76
2792 2791 40
2793 2776 18
2793 2832 41
2794 2751 77
2794 2814 38
2794 2840 66
2795 2789 15
2796 2717 94
2796 3125 176
2797 2771 82
2797 2753 35
2797 2826 28
2798 2468 198
2798 2816 26
2799 2748 37
2799 2821 38
2799 2856 29
2800 2742 72
2800 2791 31
2800 2807 26
2800 2830 15
2801 2785 28
2801 2846 62
2801 3029 130
2802 2736 117
2802 2803 275
2802 2849 142
2803 2802 275
2804 2610 114
2804 2784 73
2804 3159 220
2805 2747 43
2805 2854 32
2806 2789 22
2807 2742 45
2807 2800 26
2807 2896 48
2808 2639 102
2808 2827 83
2808 2987 96
2809 2732 94
2809 2835 34
2809 3323 349
2810 2811 26
2810 2815 37
2810 2826 14
2811 2810 26
2812 2683 128
2812 2719 58
2812 2824 33
2812 2957 79
2813 2739 103
2813 2628 124
2813 2917 70
2814 2794 38
2814 3060 129
2815 2810 37
2816 2798 26
2816 2853 68
2816 2917 294
2817 2746 48
2817 2825 31
2817 2956 74
2818 2819 88
2819 2818 88
2819 2778 32
2819 2933 91
2820 2761 46
2820 2829 19
2820 2836 10
2821 2822 21
2821 2799 38
2821 2833 19
2822 2821 21
2823 2770 31
2824 2812 33
2824 2828 11
2824 2926 75
2825 2817 31
2826 2797 28
2826 2810 14
2826 2864 33
2827 2711 142
2827 2808 83
2827 2895 103
2828 2824 11
2828 2719 110
2828 2837 28
2829 2820 19
2830 2800 15
2831 2766 60
2831 2867 31
2831 3003 126
2832 2779 32
2832 2793 41
2832 2855 91
2832 2857 15
2833 2768 46
2833 2821 19
2833 2834 6
2834 2833 6
2834 2839 13
2834 2868 33
2835 2809 34
2835 2908 195
2835 3314 319
2836 2820 10
2836 2841 32
2836 2871 21
2837 2828 28
2837 2850 33
2837 2927 51
2838 2738 63
2838 2847 30
2838 2864 75
2839 2834 13
2840 2794 66
2840 2751 57
2840 3070 121
2841 2836 32
2842 2843 49
2842 2970 78
2843 2842 49
2843 2858 29
2843 3001 92
2844 2702 111
2844 2777 168
2844 3193 216
2845 2760 259
2845 2598 162
2845 2889 478
2845 3044 107
2846 2801 62
2846 2900 75
2846 2935 52
2847 2838 30
2847 2787 38
2847 2851 1
2848 2788 34
2848 3159 172
2848 3204 194
2849 2802 142
2849 2334 322
2849 3861 708
2850 2837 33
2851 2847 1
2851 2861 31
2851 2901 35
2852 2659 128
2852 2698 214
2852 2876 29
2852 2937 53
2853 2816 68
2853 2709 257
2853 2899 27
2854 2805 32
2854 2855 2
2854 2964 110
2855 2854 2
2855 2832 91
2855 2948 56
2856 2799 29
2856 2865 49
2856 2884 18
2857 2832 15
2857 2862 27
2857 2875 14
2858 2785 44
2858 2843 29
2858 3006 90
2859 2759 76
2859 2860 25
2859 2904 53
2859 3017 94
2860 2859 25
2861 2851 31
2862 2857 27
2863 1622 901
2863 3215 186
2863 3418 432
2864 2826 33
2864 2838 75
2864 2866 3
2865 2856 49
2866 2864 3
2866 2921 39
2866 2963 51
2867 2778 77
2867 2831 31
2867 2891 15
2868 2869 21
2868 2834 33
2868 2947 38
2869 2868 21
2869 2875 75
2870 2564 202
2870 2749 114
2870 2911 31
2871 2836 21
2871 2873 22
2871 2882 11
2872 2774 59
2872 2877 19
2872 2897 11
2873 2871 22
2873 2874 17
2873 2923 27
2874 2873 17
2875 2857 14
2875 2869 75
2875 2892 9
2876 2684 130
2876 2852 29
2876 2960 47
2877 2878 8
2877 2872 19
2877 2879 7
2878 2877 8
2879 2880 8
2879 2877 7
2880 2879 8
2881 2791 201
2881 2997 64
2882 2883 28
2882 2871 11
2882 2886 2
2883 2882 28
2884 2856 18
2884 2885 16
2884 3043 83
2885 2884 16
2886 2882 2
2886 2890 19
2886 2929 29
2887 2586 186
2887 2966 39
2888 2364 366
2888 2790 207
2888 2908 14
2889 2845 478
2890 2886 19
2891 2867 15
2891 2933 29
2892 2875 9
2892 2906 38
2892 3015 67
2893 2894 13
2893 2909 24
2893 2959 34
2894 2893 13
2895 2711 108
2895 2827 103
2895 3034 96
2896 2807 48
2897 2872 11
2897 2898 14
2897 2913 13
2898 2897 14
2898 2902 75
2898 2973 38
2899 2853 27
2899 2917 385
2899 3270 198
2900 2846 75
2900 2937 51
2900 2988 49
2901 2851 35
2901 2907 22
2901 2914 13
2902 2898 75
2902 2939 21
2902 3000 97
2903 2605 182
2903 2910 126
2903 3066 92
2904 2859 53
2904 3022 72
2904 3052 141
2905 2712 116
2905 3146 173
2906 2892 38
2906 2940 38
2907 2901 22
2908 2888 14
2908 2835 195
2908 3066 94
2909 2893 24
2910 2734 103
2910 2903 126
2910 2912 37
2910 3192 145
2911 2870 31
2911 2916 4
2911 3005 51
2912 2727 111
2912 2910 37
2912 2918 19
2913 2897 13
2913 2952 16
2913 2965 35
2914 2901 13
2914 2922 3
2914 2931 25
2915 2784 114
2915 3212 178
2916 2571 218
2916 2911 4
2916 2953 33
2917 2813 70
2917 2816 294
2917 2899 385
2917 3050 191
2918 2912 19
2918 2920 51
2918 3194 142
2919 2728 144
2919 2786 138
2919 2934 9
2920 2635 163
2920 2918 51
2920 2932 110
2920 3197 142
2921 2866 39
2922 2914 3
2922 2950 28
2922 2993 59
2923 2873 27
2924 2925 11
2924 2928 20
2925 2924 11
2925 3012 134
2925 3058 69
2926 2824 75
2927 2837 51
2927 2968 61
2928 2791 76
2928 2924 20
2928 2956 92
2929 2886 29
2929 2930 31
2929 2945 8
2930 2929 31
2931 2914 25
2932 2666 157
2932 2920 110
2932 2936 67
2932 3200 138
2933 2819 91
2933 2891 29
2933 2977 26
2934 2919 9
2934 3003 52
2934 3052 71
2935 2846 52
2936 2676 153
2936 2932 67
2936 2938 32
2937 2852 53
2937 2900 51
2937 2960 23
2938 2665 166
2938 2936 32
2938 3206 137
2939 2902 21
2940 2941 35
2940 2906 38
2940 2948 15
2941 2940 35
2942 2943 105
2942 2944 20
2942 2949 20
2943 2942 105
2944 2942 20
2944 2956 49
2944 3063 64
2945 2929 8
2945 2946 21
2945 2971 11
2946 2945 21
2947 2868 38
2947 2959 16
2948 2855 56
2948 2940 15
2948 2978 16
2949 2942 20
2949 2951 11
2949 3035 49
2950 2922 28
2951 2949 11
2951 2954 11
2952 2913 16
2953 2916 33
2953 2966 13
2953 3016 38
2954 2955 115
2954 2951 11
2954 2967 32
2955 2954 115
2956 2944 49
2956 2817 74
2956 2928 92
2956 3108 82
2957 2958 42
2957 2812 79
2957 2994 40
2958 2957 42
2959 2893 34
2959 2947 16
2959 3010 32
2960 2876 47
2960 2937 23
2960 2981 25
2961 2962 34
2961 2963 14
2961 3002 36
2962 2961 34
2963 2961 14
2963 2866 51
2963 2993 21
2964 2854 110
2964 2968 21
2964 3026 39
2965 2913 35
2965 2976 16
2965 2990 35
2966 2887 39
2966 2953 13
2966 2982 40
2967 2954 32
2967 2970 17
2967 3048 45
2968 2927 61
2968 2969 36
2968 2964 21
2969 2968 36
2970 2842 78
2970 2967 17
2970 2979 19
2971 2945 11
2971 2972 26
2971 3004 24
2972 2971 26
2973 2898 38
2973 2974 27
2973 2975 2
2974 2973 27
2975 2973 2
2975 2996 18
2976 2965 16
2976 2983 15
2976 2999 17
2977 2687 246
2977 2933 26
2977 3151 127
2978 2948 16
2978 2984 25
2978 2986 8
2979 2980 35
2979 2970 19
2979 2989 9
2980 2979 35
2981 2960 25
2981 3017 54
2981 3141 83
2982 2966 40
2982 2997 50
2982 3055 37
2983 2976 15
2983 3004 48
2984 2978 25
2984 2986 23
2984 2992 16
2985 2760 132
2985 3044 196
2985 3143 101
2986 2978 8
2986 2984 23
2986 3057 33
2987 2808 96
2987 2657 322
2987 3025 22
2988 2900 49
2988 3085 53
2989 2979 9
2989 3001 27
2989 3195 107
2990 2965 35
2990 2991 9
2991 2990 9
2991 2996 14
2992 2984 16
2993 2963 21
2993 2922 59
2993 3018 45
2993 3038 24
2994 2957 40
2994 2995 11
2994 3011 56
2995 2994 11
2995 3000 10
2995 3081 41
2996 2991 14
2996 2975 18
2996 3096 51
2997 2881 64
2997 2982 50
2997 3012 37
2998 2682 182
2998 3296 168
2998 3335 196
2999 2976 17
3000 2902 97
3000 2995 10
3000 3007 31
3001 2843 92
3001 2989 27
3001 3006 23
3001 3210 109
3002 2961 36
3003 2831 126
3003 2934 52
3003 3075 57
3003 3203 139
3004 2971 24
3004 2983 48
3004 3049 18
3005 2911 51
3005 3016 29
3005 3031 16
3006 2858 90
3006 3001 23
3006 3029 36
3007 3000 31
3007 3056 45
3007 3061 23
3008 3009 10
3008 3010 25
3008 3122 68
3009 3008 10
3009 3013 17
3010 3008 25
3010 2959 32
3010 3021 34
3010 3082 40
3011 2994 56
3011 3014 5
3012 2925 134
3012 2997 37
3012 3058 77
3012 3367 205
3013 3009 17
3013 3015 5
3013 3083 34
3014 3011 5
3014 3028 45
3014 3086 39
3015 2892 67
3015 3013 5
3015 3033 44
3016 2953 38
3016 3005 29
3016 3332 179
3017 2859 94
3017 2981 54
3017 3023 4
3018 2993 45
3018 3019 23
3018 3020 2
3019 3018 23
3020 3018 2
3020 3024 10
3020 3059 17
3021 3010 34
3021 3030 22
3021 3076 25
3022 2904 72
3023 3017 4
3023 3107 102
3023 3300 150
3024 3020 10
3024 3042 21
3024 3071 30
3025 2987 22
3025 3045 170
3025 3154 59
3026 3027 12
3026 2964 39
3026 3041 54
3027 3026 12
3027 3028 57
3027 3116 45
3028 3014 45
3028 3027 57
3028 3133 48
3029 2801 130
3029 3006 36
3029 3238 110
3030 3021 22
3030 3032 17
3030 3170 71
3031 3005 16
3031 3080 68
3031 3329 167
3032 3030 17
3032 3043 14
3033 3015 44
3033 3040 8
3033 3137 54
3034 2895 96
3034 3045 43
3034 3065 68
3035 2949 49
3036 3037 20
3036 3042 25
3036 3049 24
3037 3036 20
3038 3039 23
3038 2993 24
3038 3073 17
3039 3038 23
3040 3033 8
3040 3054 27
3040 3145 49
3041 3026 54
3041 3057 26
3041 3084 23
3042 3024 21
3042 3036 25
3042 3102 34
3043 3032 14
3043 2884 83
3043 3060 74
3043 3152 52
3044 2985 196
3044 2845 107
3044 3064 96
3044 3182 75
3045 3034 43
3045 3025 170
3045 3435 234
3046 3047 4
3046 3268 146
3046 3280 128
3047 3046 4
3048 2967 45
3049 3036 24
3049 3004 18
3049 3051 1
3050 2740 200
3050 2917 191
3050 3062 32
3051 3049 1
3051 3078 51
3051 3236 114
3052 2934 71
3052 2904 141
3052 3053 0
3052 3161 73
3053 3052 0
3054 3040 27
3054 3057 24
3054 3147 46
3055 2982 37
3055 3072 30
3055 3337 169
3056 3007 45
3056 3096 46
3056 3113 37
3057 3041 26
3057 2986 33
3057 3054 24
3057 3202 84
3058 2925 69
3058 3012 77
3058 3093 92
3059 3020 17
3060 3043 74
3060 2814 129
3060 3069 30
3061 3007 23
3061 3112 52
3062 3050 32
3062 3067 12
3062 3163 56
3063 2944 64
3064 3044 96
3065 2501 318
3065 3034 68
3065 3070 13
3065 3121 29
3066 2903 92
3066 2908 94
3066 3187 75
3066 3314 146
3067 3068 78
3067 3062 12
3067 3087 53
3068 3067 78
3069 3060 30
3069 3070 59
3069 3181 60
3070 2840 121
3070 3065 13
3070 3069 59
3070 3134 31
3071 3024 30
3072 3055 30
3072 3343 163
3073 3038 17
3073 3079 22
3073 3088 10
3074 3075 115
3075 3074 115
3075 3003 57
3075 3103 27
3076 3021 25
3076 3077 18
3076 3149 33
3077 3076 18
3078 3051 51
3078 3101 64
3078 3106 18
3079 3073 22
3080 3031 68
3080 3234 122
3080 3320 136
3081 2995 41
3082 3010 40
3082 3110 21
3082 3132 24
3083 3013 34
3084 3041 23
3084 3090 27
3084 3126 24
3085 2988 53
3085 3141 105
3085 3252 89
3086 3014 39
3086 3091 33
3086 3135 20
3087 2717 206
3087 3067 53
3087 3125 65
3087 3326 134
3088 3073 10
3088 3092 28
3088 3117 14
3089 2329 1697
3089 1440 1088
3089 3199 56
3089 3261 609
3090 3084 27
3091 3086 33
3092 3088 28
3093 3094 42
3093 3058 92
3093 3104 23
3094 3093 42
3095 2640 268
3095 3154 280
3095 3245 78
3096 2996 51
3096 3056 46
3096 3101 5
3097 3098 34
3098 3097 34
3098 3122 12
3099 3100 10
3099 3102 22
3099 3124 18
3100 3099 10
3101 3078 64
3101 3096 5
3101 3114 9
3102 3099 22
3102 3042 34
3102 3207 53
3103 3075 27
3103 3153 25
3103 3209 64
3104 3093 23
3104 3108 6
3104 3205 51
3105 2278 518
3105 3109 11
3105 3120 6
3106 3078 18
3107 3023 102
3107 3161 77
3108 2956 82
3108 3104 6
3108 3150 58
3109 3105 11
3109 2302 496
3109 3128 6
3109 2157 843
3110 3082 21
3110 3131 40
3110 3132 20
3111 2243 904
3111 3168 29
3112 3061 52
3113 3056 37
3113 3136 16
3113 3148 16
3114 3101 9
3114 3176 40
3114 3190 53
3115 3116 18
3115 3282 87
3116 3115 18
3116 3027 45
3116 3123 1
3117 3088 14
3117 3130 33
3117 3179 32
3118 3119 21
3118 3231 63
3118 3273 132
3119 3118 21
3119 3178 95
3119 3226 77
3120 3105 6
3120 3128 11
3120 4148 554
3121 3065 29
3121 3134 12
3121 3435 217
3122 3098 12
3122 3008 68
3122 3131 1
3123 3116 1
3123 3127 20
3123 3285 88
3124 3099 18
3125 2796 176
3125 3087 65
3125 3158 54
3126 3084 24
3126 3129 7
3126 3157 14
3127 3123 20
3127 3220 50
3128 3120 11
3128 3109 6
3128 3143 164
3128 4160 559
3129 3126 7
3129 3142 5
3130 3117 33
3131 3122 1
3131 3110 40
3131 3162 20
3132 3082 24
3132 3110 20
3132 3144 5
3133 3028 48
3133 3177 53
3133 3216 67
3134 3070 31
3134 3121 12
3134 3181 70
3134 3334 135
3135 3086 20
3135 3140 26
3135 3138 42
3136 3113 16
3137 3033 54
3138 3139 19
3138 3135 42
3138 3201 37
3139 3138 19
3140 3135 26
3141 2981 83
3141 3085 105
3141 3276 78
3142 3129 5
3142 3155 7
3142 3160 23
3143 2985 101
3143 3128 164
3143 3174 39
3144 3132 5
3144 3149 31
3144 3183 35
3145 3040 49
3146 2905 173
3146 3151 4
3146 3242 79
3147 3054 46
3148 3113 16
3148 3156 13
3148 3171 17
3149 3076 33
3149 3144 31
3149 3165 15
3150 3108 58
3150 3195 114
3150 3198 30
3151 3146 4
3151 2977 127
3151 3247 82
3152 3043 52
3152 3164 36
3152 3213 37
3153 3103 25
3153 3169 18
3153 3286 93
3154 3025 59
3154 3095 280
3154 3649 297
3155 3142 7
3156 3148 13
3156 3180 42
3156 3186 22
3157 3126 14
3158 3125 54
3158 3175 127
3158 3311 100
3159 2848 172
3159 2804 220
3159 3204 69
3159 3363 135
3160 3142 23
3161 3052 73
3161 3107 77
3161 3203 32
3162 3131 20
3162 3172 21
3162 3183 49
3163 3062 56
3164 3152 36
3165 3149 15
3166 3167 161
3166 3168 45
3166 3346 192
3167 3166 161
3168 3166 45
3168 3111 29
3169 3153 18
3170 3030 71
3171 3148 17
3172 3173 20
3172 3162 21
3172 3208 33
3173 3172 20
3174 3143 39
3174 3384 395
3174 3552 248
3175 2624 306
3175 3158 127
3175 3196 23
3176 3114 40
3176 3218 30
3176 3262 47
3177 3133 53
3178 3119 95
3178 3226 56
3178 3445 194
3179 3117 32
3179 3191 42
3179 3212 19
3180 3156 42
3181 3069 60
3181 3134 70
3181 3213 91
3182 3044 75
3183 3162 49
3183 3144 35
3183 3248 97
3184 3185 242
3184 3241 39
3184 3423 459
3185 3184 242
3186 3156 22
3186 3214 16
3186 3232 24
3187 3066 75
3187 3192 121
3187 3515 231
3188 3189 241
3189 3188 241
3190 3114 53
3191 3179 42
3191 3207 33
3191 3284 51
3192 2910 145
3192 3187 121
3192 3194 56
3192 3429 154
3193 2844 216
3193 2788 226
3193 3221 15
3194 2918 142
3194 3192 56
3194 3197 50
3195 2989 107
3195 3150 114
3195 3210 29
3196 3175 23
3196 3244 96
3196 3400 146
3197 2920 142
3197 3194 50
3197 3200 108
3197 3414 142
3198 3150 30
3199 2399 1693
3199 3089 56
3199 3347 619
3200 2932 138
3200 3197 108
3200 3206 83
3200 3366 109
3201 3138 37
3201 3216 62
3201 3259 32
3202 3057 84
3202 3211 34
3202 3224 44
3203 3003 139
3203 3161 32
3203 3292 89
3204 2848 194
3204 3159 69
3204 3221 43
3205 3104 51
3205 3256 33
3205 3305 207
3206 2938 137
3206 3200 83
3206 3245 172
3206 3368 109
3207 3191 33
3207 3102 53
3207 3217 17
3208 3172 33
3208 3211 34
3208 3264 31
3209 3103 64
3210 3001 109
3210 3195 29
3210 3233 46
3210 3305 57
3211 3202 34
3211 3208 34
3211 3260 26
3212 2915 178
3212 3179 19
3212 3482 171
3213 3152 37
3213 3181 91
3213 3248 44
3213 3592 262
3214 3186 16
3214 3230 37
3214 3266 34
3215 2863 186
3215 3530 304
3215 3785 325
3216 3201 62
3216 3133 67
3216 3222 14
3217 3207 17
3217 3239 47
3217 3281 38
3218 3219 29
3218 3176 30
3218 3223 8
3219 3218 29
3220 3127 50
3220 3224 24
3220 3249 18
3221 3193 15
3221 3204 43
3221 3237 151
3221 3275 31
3222 3216 14
3222 3225 33
3222 3229 23
3223 3218 8
3223 3236 34
3223 3272 30
3224 3220 24
3224 3202 44
3224 3290 48
3225 3222 33
3225 3282 50
3226 3119 77
3226 3178 56
3226 3231 2
3227 3228 45
3227 3246 53
3227 3301 45
3228 3227 45
3229 3222 23
3229 3259 50
3229 3405 121
3230 3214 37
3231 3118 63
3231 3226 2
3231 3273 54
3231 3462 161
3232 3186 24
3233 3210 46
3233 3238 6
3233 3654 255
3234 3080 122
3234 3235 25
3234 3317 51
3235 3234 25
3236 3051 114
3236 3223 34
3236 3239 16
3237 3221 151
3237 3279 162
3237 3313 50
3238 3029 110
3238 3233 6
3238 3251 28
3239 3217 47
3239 3236 16
3239 3274 20
3240 2763 1287
3240 1602 1115
3240 3297 42
3241 3184 39
3241 3297 1494
3241 3374 97
3242 3243 51
3242 3146 79
3242 3306 52
3243 3242 51
3244 3196 96
3244 3296 62
3244 3455 213
3245 3095 78
3245 3206 172
3245 3553 195
3245 3771 364
3246 3227 53
3246 3253 35
3246 3308 37
3247 3151 82
3247 3286 30
3247 3391 132
3248 3213 44
3248 3183 97
3249 3220 18
3250 3251 119
3251 3250 119
3251 3238 28
3251 3263 27
3251 3660 245
3252 3085 89
3252 3254 32
3252 3298 29
3253 3246 35
3253 3256 20
3253 3304 33
3254 3252 32
3254 3255 12
3254 3434 124
3255 3254 12
3255 3258 3
3255 3444 135
3256 3205 33
3256 3253 20
3256 3267 6
3257 3258 34
3258 3257 34
3258 3255 3
3258 3276 64
3259 3201 32
3259 3229 50
3259 3277 21
3260 3211 26
3260 3264 34
3260 3302 27
3261 3089 609
3261 1911 854
3261 3347 66
3261 3762 1670
3261 15178 1670
3262 3176 47
3262 3269 25
3262 3272 14
3263 3251 27
3263 3268 9
3263 3662 238
3264 3260 34
3264 3208 31
3264 3278 8
3265 3266 4
3266 3265 4
3266 3214 34
3266 3277 73
3267 3256 6
3267 3324 40
3267 3338 205
3268 3046 146
3268 3263 9
3268 3271 8
3269 3262 25
3270 2899 198
3270 3279 106
3270 3410 103
3271 3268 8
3271 3280 14
3271 3663 234
3272 3223 30
3272 3262 14
3272 3321 40
3273 3118 132
3273 3231 54
3273 3291 47
3274 3239 20
3274 3372 81
3274 3373 101
3275 3221 31
3275 3364 90
3275 3895 359
3276 3141 78
3276 3258 64
3276 3300 50
3277 3259 21
3277 3266 73
3277 3316 103
3278 3264 8
3278 3283 32
3278 3431 108
3279 3270 106
3279 3237 162
3279 3381 94
3280 3046 128
3280 3271 14
3280 3288 23
3281 3217 38
3281 3284 53
3282 3225 50
3282 3115 87
3282 3285 22
3283 3278 32
3283 3327 40
3283 3336 68
3284 3191 51
3284 3281 53
3284 3339 46
3285 3282 22
3285 3123 88
3285 3289 4
3286 3247 30
3286 3153 93
3286 3376 94
3287 3288 204
3288 3287 204
3288 3280 23
3288 3294 16
3288 3518 158
3289 3285 4
3289 3290 9
3289 3433 103
3290 3289 9
3290 3224 48
3290 3299 10
3291 3273 47
3291 3293 10
3291 3293 29
3292 3203 89
3292 3376 110
3293 3291 10
3293 3295 13
3293 3291 29
3294 3288 16
3294 3298 17
3294 3479 129
3295 3293 13
3295 3326 84
3295 3488 133
3296 2998 168
3296 3244 62
3296 3303 10
3297 3240 42
3297 3241 1494
3297 4462 1045
3298 3252 29
3298 3294 17
3298 3510 145
3299 3290 10
3299 3348 90
3299 3356 46
3300 3023 150
3300 3276 50
3300 3325 63
3301 3227 45
3301 3309 19
3301 3382 63
3302 3260 27
3302 3307 27
3302 3348 56
3303 3296 10
3303 3330 47
3303 3500 171
3304 3253 33
3305 3210 57
3305 3205 207
3305 3338 32
3306 3242 52
3306 3391 95
3306 3409 105
3307 3302 27
3308 3246 37
3308 3315 8
3308 3324 54
3309 3310 18
3309 3301 19
3309 3315 33
3310 3309 18
3311 3158 100
3311 3312 123
3311 3361 37
3312 3311 123
3313 3237 50
3313 3345 134
3313 3894 360
3314 3066 146
3314 2835 319
3314 3331 14
3315 3308 8
3315 3309 33
3315 3397 59
3316 3277 103
3316 3322 72
3316 3342 39
3317 3234 51
3317 3318 25
3317 3379 47
3318 3319 54
3318 3317 25
3318 3320 36
3319 3318 54
3320 3080 136
3320 3318 36
3320 3329 37
3320 3412 68
3321 3272 40
3321 3322 1
3322 3321 1
3322 3316 72
3322 3342 38
3323 2809 349
3323 3328 489
3323 3333 16
3324 3267 40
3324 3308 54
3324 3350 106
3324 3362 31
3325 3300 63
3325 3353 80
3325 3726 229
3326 3087 134
3326 3295 84
3326 3361 92
3326 3424 73
3327 3283 40
3328 3323 489
3329 3031 167
3329 3320 37
3329 3332 38
3329 3466 94
3330 3303 47
3330 3335 50
3330 3500 117
3331 3314 14
3331 3333 4
3332 3016 179
3332 3329 38
3332 3337 50
3332 3474 95
3333 3331 4
3333 3323 16
3333 3439 69
3334 3134 135
3334 3437 121
3334 3528 140
3335 2998 196
3335 3330 50
3335 3398 48
3336 3283 68
3336 3340 28
3336 3357 12
3337 3055 169
3337 3332 50
3337 3343 28
3337 3538 127
3338 3305 32
3338 3267 205
3338 3390 36
3339 3284 46
3339 3351 42
3340 3341 19
3340 3336 28
3340 3344 2
3341 3340 19
3342 3322 38
3342 3316 39
3342 3371 48
3342 3373 72
3343 3072 163
3343 3337 28
3343 3354 28
3343 3579 145
3344 3340 2
3345 3313 134
3345 3516 159
3346 1871 1121
3346 3166 192
3346 3349 2
3346 3388 50
3347 3199 619
3347 3261 66
3347 3875 1656
3347 15177 1656
3348 3299 90
3348 3302 56
3348 3380 48
3348 3467 83
3349 3346 2
3350 3324 106
3350 3390 101
3350 3401 33
3351 3339 42
3351 3352 17
3351 3370 12
3352 3351 17
3353 3325 80
3353 3359 7
3353 3526 108
3354 3355 164
3354 3343 28
3354 3367 38
3354 3617 154
3355 3354 164
3356 3299 46
3357 3336 12
3357 3360 21
3357 3402 31
3358 3359 102
3359 3358 102
3359 3353 7
3359 3378 42
3360 3357 21
3361 3311 37
3361 3326 92
3361 3400 131
3362 3324 31
3362 3401 106
3362 3411 36
3363 3159 135
3363 3369 3
3364 3275 90
3364 3365 23
3364 3456 59
3365 3364 23
3366 3200 109
3366 3368 80
3366 3407 26
3367 3012 205
3367 3354 38
3367 3382 49
3367 3593 136
3368 3206 109
3368 3366 80
3368 3506 85
3369 3363 3
3369 3375 56
3369 3395 17
3370 3351 12
3371 3342 48
3371 3383 24
3371 3389 14
3372 3274 81
3372 3406 22
3373 3274 101
3373 3342 72
3373 3428 40
3374 3241 97
3374 4754 1467
3375 3369 56
3375 3457 72
3376 3286 94
3376 3292 110
3376 3459 58
3376 3520 147
3377 3378 64
3378 3377 64
3378 3359 42
3378 3545 104
3379 3317 47
3380 3348 48
3381 3279 94
3381 3410 88
3381 3516 81
3382 3301 63
3382 3367 49
3382 3399 46
3382 3636 140
3383 3371 24
3383 3386 48
3383 3481 59
3384 3174 395
3384 3385 85
3384 3890 258
3385 3384 85
3386 3383 48
3386 3387 28
3386 3396 31
3387 3386 28
3388 3346 50
3388 3392 4
3388 4132 546
3389 3371 14
3389 3415 28
3390 3338 36
3390 3350 101
3390 3447 34
3391 3306 95
3391 3247 132
3391 3470 54
3391 3591 142
3392 3388 4
3392 3419 27
3393 3394 17
3393 3395 17
3393 3421 18
3394 3393 17
3395 3393 17
3395 3369 17
3395 3451 34
3396 3386 31
3396 3405 29
3396 3514 72
3397 3315 59
3397 3399 11
3397 3404 19
3398 3335 48
3398 3494 135
3398 3616 130
3399 3397 11
3399 3382 46
3399 3676 145
3400 3196 146
3400 3361 131
3400 3408 12
3401 3350 33
3401 3362 106
3401 3447 103
3401 3454 33
3402 3403 37
3402 3357 31
3402 3425 16
3403 3402 37
3403 3431 54
3404 3397 19
3404 3411 29
3404 3687 148
3405 3396 29
3405 3229 121
3405 3416 38
3406 3372 22
3406 3413 6
3406 3452 64
3407 3366 26
3407 3414 107
3407 3463 45
3407 3585 103
3408 3400 12
3408 3455 58
3408 3547 90
3409 3306 105
3410 3270 103
3410 3381 88
3410 3436 325
3410 3607 118
3411 3362 36
3411 3404 29
3411 3417 21
3412 3320 68
3412 3523 67
3413 3406 6
3413 3446 22
3414 3407 107
3414 3197 142
3414 3432 10
3415 3389 28
3416 3405 38
3416 3427 35
3416 3529 65
3417 3411 21
3417 3441 52
3417 3706 145
3418 2863 432
3418 3419 5
3418 3530 86
3419 3418 5
3419 3392 27
3420 3421 26
3421 3420 26
3421 3393 18
3421 3422 6
3422 3421 6
3422 3448 14
3423 3184 459
3423 3497 216
3423 4151 365
3424 3326 73
3424 3443 21
3424 3550 72
3425 3426 26
3425 3402 16
3425 3496 46
3426 3425 26
3427 3416 35
3427 3430 25
3427 3532 63
3428 3373 40
3428 3438 26
3428 3492 39
3429 3192 154
3429 3432 109
3429 3515 48
3430 3427 25
3430 3433 6
3430 3615 102
3431 3278 108
3431 3403 54
3431 3442 5
3432 3414 10
3432 3429 109
3432 3603 94
3433 3430 6
3433 3289 103
3433 3480 67
3434 3254 124
3434 3444 17
3434 3517 51
3435 3121 217
3435 3045 234
3435 3557 81
3436 3410 325
3436 3445 10
3436 3570 148
3437 3334 121
3437 3461 15
3437 3471 65
3438 3428 26
3438 3446 13
3439 3333 69
3439 3440 125
3439 3531 197
3439 3955 261
3440 3439 125
3440 3620 393
3440 3944 263
3441 3417 52
3441 3453 29
3441 3718 140
3442 3431 5
3443 3424 21
3444 3255 135
3444 3434 17
3444 3450 12
3445 3178 194
3445 3436 10
3445 3462 47
3446 3413 22
3446 3438 13
3446 3509 38
3447 3390 34
3447 3401 103
3447 3504 33
3448 3449 38
3448 3422 14
3448 3451 8
3449 3448 38
3450 3444 12
3450 3478 47
3450 3661 109
3451 3448 8
3451 3395 34
3451 3645 100
3452 3406 64
3452 3472 14
3452 3485 63
3453 3441 29
3453 3454 6
3453 3684 117
3454 3401 33
3454 3453 6
3454 3487 68
3455 3244 213
3455 3408 58
3455 3554 110
3456 3364 59
3456 3457 28
3456 3588 76
3457 3456 28
3457 3458 21
3457 3375 72
3458 3457 21
3459 3376 58
3459 3460 54
3459 3521 37
3460 3459 54
3461 3437 15
3462 3231 161
3462 3445 47
3462 3469 5
3463 3407 45
3463 3506 48
3464 3465 20
3464 3481 26
3465 3464 20
3466 3329 94
3467 3348 83
3467 3468 50
3467 3508 24
3468 3467 50
3469 3462 5
3469 3493 13
3470 3391 54
3470 3520 36
3471 3437 65
3471 3495 26
3471 3618 77
3472 3452 14
3472 3473 9
3472 3546 55
3473 3472 9
3474 3332 95
3475 3476 67
3476 3475 67
3477 3478 34
3478 3477 34
3478 3450 47
3478 3486 13
3478 3578 59
3479 3294 129
3480 3433 67
3480 3508 43
3480 3572 53
3481 3464 26
3481 3383 59
3481 3559 46
3482 3212 171
3482 3483 208
3482 3501 11
3483 3484 22
3483 3482 208
3483 3823 183
3484 3483 22
3485 3452 63
3485 3505 45
3485 3542 72
3486 3478 13
3487 3454 68
3487 3504 35
3487 3643 80
3488 3295 133
3488 3507 86
3488 3511 15
3489 3490 52
3489 3491 16
3489 3496 10
3490 3489 52
3491 3489 16
3492 3428 39
3492 3509 51
3492 3599 63
3493 3469 13
3493 3507 99
3493 3587 55
3494 3398 135
3494 3523 32
3494 3722 126
3495 3471 26
3496 3489 10
3496 3425 46
3496 3544 32
3497 3423 216
3497 3498 202
3497 3830 167
3498 1394 1450
3498 3499 530
3498 3497 202
3498 4161 342
3499 3498 530
3499 3707 221
3500 3330 117
3500 3303 171
3500 3512 9
3501 3482 11
3501 3505 5
3501 3650 86
3502 3503 11
3502 3513 6
3502 3539 38
3503 3502 11
3504 3447 33
3504 3487 35
3504 3641 69
3505 3501 5
3505 3485 45
3505 3711 108
3506 3368 85
3506 3463 48
3506 3553 193
3506 3884 184
3507 3488 86
3507 3493 99
3507 3511 5
3508 3480 43
3508 3467 24
3508 3534 41
3508 3548 24
3509 3446 38
3509 3492 51
3509 3555 26
3510 3298 145
3510 3682 82
3511 3488 15
3511 3507 5
3511 3519 19
3512 3500 9
3512 3524 12
3512 3594 46
3513 3502 6
3514 3396 72
3514 3571 56
3514 3582 50
3515 3429 48
3515 3187 231
3515 3531 14
3516 3381 81
3516 3345 159
3516 3798 135
3517 3434 51
3517 3698 85
3518 3288 158
3519 3511 19
3519 3558 97
3519 3614 47
3520 3470 36
3520 3376 147
3520 3597 58
3521 3459 37
3521 3522 47
3521 3561 26
3522 3521 47
3523 3494 32
3523 3598 70
3523 3752 119
3523 3412 67
3524 3525 41
3524 3512 12
3524 3616 77
3525 3524 41
3526 3353 108
3526 3527 38
3526 3543 46
3526 3790 131
3527 3526 38
3528 3334 140
3528 3533 36
3528 3817 146
3529 3416 65
3529 3582 34
3530 3215 304
3530 3418 86
3530 3785 175
3531 3515 14
3531 3439 197
3531 3605 42
3532 3427 63
3532 3637 49
3533 3528 36
3533 3576 24
3533 3618 180
3534 3508 41
3534 3541 19
3534 3567 18
3535 3536 10
3535 3537 14
3535 3556 18
3536 3535 10
3537 3535 14
3538 3337 127
3539 3502 38
3539 3540 1
3539 3541 20
3540 3539 1
3540 3544 25
3540 3577 20
3541 3539 20
3541 3534 19
3541 3566 15
3542 3485 72
3543 3526 46
3543 3545 5
3543 3604 31
3544 3540 25
3544 3496 32
3544 3592 55
3545 3378 104
3545 3543 5
3545 3564 48
3546 3472 55
3547 3408 90
3547 3644 58
3547 3644 98
3548 3508 24
3548 3549 13
3548 3575 13
3549 3548 13
3549 3551 18
3549 3595 21
3550 3424 72
3550 3558 4
3551 3549 18
3552 3174 248
3552 3890 479
3552 4485 829
3553 3245 195
3553 3506 193
3553 3787 109
3554 3455 110
3554 3594 36
3554 3648 56
3555 3509 26
3555 3556 9
3555 3642 48
3556 3555 9
3556 3535 18
3556 3563 3
3557 3435 81
3557 3688 121
3557 3793 117
3558 3550 4
3558 3519 97
3558 3565 10
3558 3820 121
3559 3560 30
3559 3481 46
3559 3625 26
3560 3559 30
3561 3521 26
3561 3562 54
3561 3653 43
3562 3561 54
3563 3556 3
3564 3545 48
3564 3583 45
3564 4058 235
3565 3558 10
3565 3786 127
3566 3541 15
3566 3568 3
3567 3534 18
3568 3566 3
3568 3569 9
3568 3580 7
3569 3568 9
3570 3436 148
3570 3587 44
3570 3612 96
3571 3514 56
3571 3744 79
3572 3480 53
3572 3573 17
3572 3626 22
3573 3572 17
3573 3574 10
3574 3573 10
3575 3548 13
3576 3533 24
3576 3765 151
3576 3848 130
3577 3540 20
3577 3581 12
3577 3590 9
3578 3478 59
3578 3608 40
3578 3703 49
3579 3343 145
3580 3568 7
3580 3586 9
3580 3589 15
3581 3577 12
3582 3514 50
3582 3529 34
3582 3611 13
3583 3584 123
3583 3564 45
3583 3653 81
3584 3583 123
3585 3407 103
3585 3603 112
3585 3898 145
3586 3580 9
3586 3609 9
3587 3493 55
3587 3570 44
3587 3740 67
3588 3456 76
3588 3622 28
3589 3580 15
3589 3590 1
3590 3589 1
3590 3577 9
3590 3606 7
3591 3391 142
3592 3544 55
3592 3213 262
3592 3618 175
3592 3664 32
3593 3367 136
3593 3601 18
3593 3686 39
3594 3512 46
3594 3554 36
3594 3634 44
3595 3549 21
3595 3596 11
3595 3631 20
3596 3595 11
3597 3520 58
3597 3813 154
3597 4236 406
3598 3523 70
3598 3708 76
3598 3774 93
3599 3492 63
3599 3600 30
3599 3629 11
3600 3599 30
3600 3630 12
3601 3602 11
3601 3593 18
3601 3636 51
3601 3712 45
3602 3601 11
3603 3585 112
3603 3432 94
3603 3605 79
3604 3543 31
3605 3603 79
3605 3531 42
3605 3915 196
3606 3590 7
3606 3613 21
3607 3410 118
3607 3619 22
3607 3692 39
3608 3578 40
3609 3610 8
3609 3586 9
3610 3609 8
3611 3582 13
3611 3637 24
3611 3745 71
3612 3570 96
3613 3606 21
3613 3697 46
3614 3519 47
3615 3430 102
3615 3658 19
3616 3398 130
3616 3524 77
3616 3679 27
3617 3354 154
3618 3471 77
3618 3533 180
3618 3592 175
3619 3607 22
3619 3775 141
3620 3440 393
3620 3621 146
3620 3702 198
3620 4005 185
3621 3620 146
3622 3588 28
3622 3623 58
3622 3645 50
3623 3622 58
3624 3625 27
3624 3628 20
3625 3624 27
3625 3559 26
3625 3646 12
3626 3572 22
3626 3627 15
3626 3668 18
3627 3626 15
3628 3624 20
3628 3632 15
3629 3599 11
3629 3632 2
3630 3600 12
3630 3639 22
3630 3710 34
3631 3595 20
3631 3633 4
3632 3629 2
3632 3628 15
3632 3737 49
3633 3631 4
3633 3635 11
3633 3659 11
3634 3594 44
3634 3679 40
3634 3778 72
3635 3633 11
3636 3382 140
3636 3601 51
3636 3666 29
3636 3719 37
3637 3611 24
3637 3532 49
3637 3638 1
3638 3637 1
3638 3651 16
3638 3678 16
3639 3640 38
3639 3630 22
3639 3642 4
3640 3639 38
3641 3504 69
3641 3654 48
3641 3720 38
3642 3555 48
3642 3639 4
3642 3731 43
3643 3487 80
3643 3705 67
3643 3713 31
3644 3547 58
3644 3547 98
3644 3796 74
3645 3622 50
3645 3451 100
3645 3849 99
3646 3647 22
3646 3625 12
3646 3685 15
3647 3646 22
3648 3554 56
3648 3782 110
3648 3802 74
3649 3154 297
3649 3688 71
3649 3736 41
3650 3501 86
3650 3847 112
3650 3864 124
3651 3638 16
3651 3652 0
3651 3818 84
3652 3651 0
3652 3658 4
3652 3814 83
3653 3561 43
3653 3583 81
3653 3677 10
3654 3233 255
3654 3641 48
3654 3657 4
3655 3656 13
3655 3693 16
3656 3655 13
3657 3654 4
3657 3660 43
3657 3734 38
3658 3652 4
3658 3615 19
3658 3694 24
3659 3633 11
3660 3251 245
3660 3657 43
3660 3662 25
3660 3727 33
3661 3450 109
3662 3263 238
3662 3663 15
3662 3660 25
3662 3912 121
3663 3271 234
3663 3662 15
3663 3682 62
3664 3665 20
3664 3592 32
3664 3742 40
3665 3664 20
3666 3667 49
3666 3636 29
3666 3676 11
3667 3666 49
3668 3626 18
3668 3672 15
3668 3760 42
3669 3670 8
3669 3671 8
3669 3672 0
3670 3669 8
3671 3669 8
3672 3668 15
3672 3669 0
3672 3673 0
3673 3672 0
3673 3683 15
3674 3675 30
3674 3695 8
3674 3714 39
3675 3674 30
3676 3399 145
3676 3666 11
3676 3687 35
3676 3799 62
3677 3653 10
3677 3695 85
3677 4070 207
3678 3638 16
3679 3616 27
3679 3634 40
3679 3779 50
3680 3681 26
3680 3711 26
3681 3680 26
3682 3510 82
3682 3663 62
3682 3698 34
3683 3673 15
3684 3453 117
3684 3705 38
3684 3723 20
3685 3646 15
3685 3699 28
3685 3724 20
3686 3593 39
3686 3733 17
3687 3404 148
3687 3676 35
3687 3706 46
3688 3557 121
3688 3649 71
3688 3739 28
3689 3690 23
3689 3691 2
3689 3716 14
3690 3689 23
3691 3689 2
3691 3700 11
3692 3607 39
3692 3798 158
3692 3919 119
3693 3655 16
3693 3696 12
3694 3658 24
3694 3729 36
3694 3784 48
3695 3674 8
3695 3677 85
3695 4134 223
3696 3693 12
3696 3697 5
3696 3751 29
3697 3696 5
3697 3613 46
3697 3704 32
3698 3517 85
3698 3682 34
3698 3709 36
3699 3685 28
3700 3691 11
3701 1394 1959
3701 3707 165
3701 4543 1002
3702 3620 198
3703 3578 49
3703 3725 15
3703 3726 109
3704 3697 32
3705 3643 67
3705 3684 38
3705 3713 34
3706 3417 145
3706 3687 46
3706 3718 56
3707 3499 221
3707 3701 165
3707 4241 289
3708 3598 76
3708 3750 35
3708 3851 86
3709 3698 36
3709 3725 51
3710 3630 34
3710 3721 28
3710 3731 23
3711 3505 108
3711 3680 26
3711 3804 60
3712 3601 45
3712 3719 55
3713 3643 31
3713 3705 34
3714 3715 30
3714 3674 39
3714 4144 224
3715 3714 30
3716 3717 18
3716 3689 14
3716 3770 28
3717 3716 18
3718 3441 140
3718 3706 56
3718 3723 26
3719 3636 37
3719 3712 55
3719 3767 23
3720 3641 38
3720 3734 54
3720 3872 73
3721 3710 28
3722 3494 126
3722 3752 39
3722 3794 50
3723 3684 20
3723 3718 26
3723 3838 58
3724 3685 20
3724 3728 11
3725 3703 15
3725 3709 51
3725 3805 45
3726 3325 229
3726 3703 109
3726 3783 27
3727 3660 33
3728 3724 11
3728 3730 10
3728 3795 70
3729 3694 36
3729 3766 20
3729 3780 28
3730 3728 10
3730 3743 35
3731 3642 43
3731 3710 23
3731 3735 4
3732 3733 8
3733 3732 8
3733 3686 17
3734 3657 38
3734 3720 54
3734 3892 81
3735 3731 4
3735 3738 1
3736 3649 41
3736 3739 81
3736 3746 53
3736 4066 161
3737 3632 49
3737 3743 2
3737 3764 25
3738 3735 1
3738 3753 70
3738 3773 16
3739 3688 28
3739 3736 81
3739 3793 64
3739 4068 183
3740 3587 67
3740 3741 50
3740 3811 38
3741 3740 50
3742 3664 40
3742 3751 42
3742 3776 17
3743 3737 2
3743 3730 35
3743 3808 36
3744 3571 79
3744 3745 52
3744 3795 28
3745 3611 71
3745 3744 52
3745 3768 11
3746 3736 53
3746 3747 141
3746 3754 13
3747 3746 141
3748 3749 22
3748 3751 13
3749 3748 22
3750 3708 35
3750 3792 39
3750 3934 120
3751 3748 13
3751 3696 29
3751 3742 42
3752 3523 119
3752 3722 39
3752 3836 48
3753 3738 70
3753 3819 51
3754 3746 13
3754 3771 93
3754 4056 163
3755 3756 49
3755 3757 1
3755 3763 39
3756 3755 49
3757 3755 1
3757 3758 1
3757 3812 47
3758 3759 20
3758 3757 1
3758 3760 69
3759 3758 20
3760 3761 3
3760 3668 42
3760 3758 69
3761 3760 3
3762 3261 1670
3762 15178 1670
3762 2168 1188
3762 3875 61
3762 3899 232
3763 3755 39
3763 3770 8
3763 3791 18
3764 3737 25
3764 3821 31
3765 3576 151
3765 3797 263
3765 3916 90
3766 3729 20
3766 3810 31
3766 3826 57
3767 3719 23
3768 3745 11
3768 3769 21
3768 3788 13
3769 3768 21
3770 3763 8
3770 3716 28
3770 3772 13
3771 3754 93
3771 3245 364
3771 3781 24
3772 3770 13
3772 3776 48
3772 3789 12
3773 3738 16
3773 3816 39
3774 3598 93
3774 3851 74
3774 3836 103
3775 3619 141
3775 3811 207
3775 3983 105
3776 3772 48
3776 3742 17
3776 3797 21
3776 3806 18
3777 3778 30
3777 3779 26
3777 3969 95
3778 3777 30
3778 3634 72
3778 3801 73
3779 3679 50
3779 3777 26
3779 3832 75
3780 3729 28
3781 3771 24
3781 3787 32
3781 4055 142
3782 3648 110
3782 3803 63
3782 3815 28
3783 3726 27
3784 3694 48
3785 3215 325
3785 3530 175
3785 4323 481
3786 3565 127
3786 3820 68
3786 3839 78
3787 3781 32
3787 3553 109
3787 3884 185
3788 3768 13
3789 3772 12
3790 3526 131
3791 3763 18
3792 3750 39
3792 3825 28
3792 4037 149
3793 3557 117
3793 3739 64
3793 4075 136
3794 3722 50
3794 3832 28
3794 3836 54
3795 3728 70
3795 3744 28
3795 3800 2
3796 3644 74
3796 3815 92
3796 3839 27
3797 3776 21
3797 3765 263
3797 3897 177
3798 3692 158
3798 3516 135
3798 3920 73
3799 3676 62
3799 3822 14
3799 3838 166
3800 3795 2
3800 3827 14
3801 3778 73
3801 3802 12
3801 4051 125
3802 3801 12
3802 3648 74
3802 3803 8
3803 3802 8
3803 3782 63
3803 3871 86
3804 3711 60
3804 3819 6
3804 3864 90
3805 3725 45
3805 3845 124
3805 3930 212
3806 3807 33
3806 3776 18
3806 3840 14
3807 3806 33
3808 3743 36
3808 3809 62
3808 3854 20
3809 3808 62
3810 3766 31
3811 3740 38
3811 3775 207
3811 3837 125
3812 3757 47
3813 3597 154
3813 3893 50
3813 4117 151
3814 3652 83
3815 3782 28
3815 3796 92
3815 3853 17
3816 3773 39
3816 3821 20
3816 3850 32
3817 3528 146
3817 3848 46
3817 4121 143
3818 3651 84
3818 3939 68
3819 3804 6
3819 3753 51
3819 3928 68
3820 3786 68
3820 3558 121
3820 3844 11
3820 3837 108
3821 3816 20
3821 3764 31
3821 3870 23
3822 3799 14
3822 3948 39
3823 3483 183
3823 3824 37
3823 3833 39
3824 3823 37
3825 3792 28
3825 3947 101
3825 4067 138
3826 3766 57
3826 3841 35
3826 3852 11
3827 3800 14
3827 3831 21
3827 3866 16
3828 3829 10
3828 3835 22
3828 3856 13
3829 3828 10
3830 3497 167
3831 3827 21
3832 3794 28
3832 3779 75
3832 3860 21
3833 3834 34
3833 3823 39
3833 3842 35
3834 3833 34
3835 3828 22
3835 3840 30
3835 3878 19
3836 3752 48
3836 3794 54
3836 3774 103
3836 3906 39
3837 3811 125
3837 3820 108
3837 4114 126
3838 3723 58
3838 3799 166
3838 3872 101
3839 3796 27
3839 3786 78
3839 3965 91
3840 3835 30
3840 3806 14
3840 3924 45
3841 3826 35
3841 3846 52
3841 3950 56
3842 3843 21
3842 3833 35
3842 3849 47
3843 3842 21
3844 3820 11
3844 4256 232
3845 3805 124
3845 3855 28
3845 4007 77
3846 3841 52
3847 3650 112
3847 3867 68
3847 3879 15
3848 3576 130
3848 3817 46
3848 3896 80
3849 3645 99
3849 3842 47
3849 4013 77
3850 3816 32
3850 3862 14
3850 3863 24
3851 3708 86
3851 3774 74
3851 3909 31
3852 3826 11
3852 3886 42
3852 3950 71
3853 3815 17
3853 3871 26
3853 3985 64
3854 3808 20
3854 3858 2
3855 3845 28
3856 3857 7
3856 3828 13
3856 3873 6
3857 3856 7
3858 3854 2
3858 3859 34
3858 3868 17
3858 3905 24
3859 3858 34
3859 3885 20
3860 3832 21
3860 3906 44
3860 3987 143
3861 2849 708
3862 3850 14
3862 3928 66
3863 3850 24
3864 3650 124
3864 3804 90
3864 3865 1
3865 3864 1
3865 3867 17
3865 4081 232
3866 3827 16
3866 3877 31
3866 3931 36
3867 3847 68
3867 3865 17
3867 4208 209
3868 3869 13
3868 3858 17
3868 3876 9
3869 3868 13
3870 3821 23
3870 3876 21
3870 3889 12
3871 3803 86
3871 3853 26
3871 3881 54
3872 3720 73
3872 3838 101
3872 3882 26
3873 3874 7
3873 3856 6
3873 3913 20
3874 3873 7
3875 3347 1656
3875 15177 1656
3875 3762 61
3875 4048 274
3875 7158 3588
3876 3868 9
3876 3870 21
3876 3914 19
3877 3866 31
3877 3880 6
3877 3921 74
3878 3835 19
3879 3847 15
3879 3938 77
3879 4154 147
3880 3877 6
3881 3871 54
3882 3883 66
3882 3872 26
3882 3892 35
3883 3882 66
3884 3787 185
3884 3506 184
3884 3898 87
3885 3859 20
3886 3852 42
3886 3887 2
3886 3954 38
3887 3886 2
3887 3888 16
3887 3903 20
3888 3887 16
3889 3870 12
3889 3891 16
3889 3908 9
3890 3552 479
3890 3384 258
3890 4046 103
3891 3889 16
3892 3734 81
3892 3882 35
3892 3902 45
3893 3813 50
3893 3901 5
3893 4117 170
3894 3313 360
3894 3895 139
3894 3927 26
3895 3894 139
3895 3275 359
3895 4024 61
3896 3848 80
3896 3916 62
3896 4126 103
3897 3797 177
3897 3918 76
3897 4130 151
3898 3884 87
3898 3585 145
3898 3915 57
3898 3989 42
3899 2465 972
3899 3762 232
3900 3901 35
3901 3900 35
3901 3893 5
3901 3945 35
3902 3892 45
3902 3912 27
3902 3994 42
3903 3887 20
3903 3904 13
3903 3907 1
3904 3903 13
3905 3858 24
3905 3911 11
3905 3921 8
3906 3836 39
3906 3860 44
3906 4039 97
3907 3903 1
3907 3922 22
3907 3941 24
3908 3889 9
3908 3914 22
3908 3926 14
3909 3851 31
3909 3910 13
3909 3934 24
3910 3909 13
3911 3905 11
3911 3914 22
3911 3921 17
3912 3662 121
3912 3902 27
3912 3930 50
3913 3873 20
3913 3917 19
3913 3966 27
3914 3908 22
3914 3876 19
3914 3911 22
3914 3952 22
3915 3898 57
3915 3605 196
3915 3989 66
3915 4026 120
3916 3765 90
3916 3896 62
3916 3918 18
3917 3913 19
3918 3897 76
3918 3916 18
3918 4122 94
3919 3692 119
3919 3920 150
3919 4074 76
3920 3798 73
3920 3927 151
3920 3919 150
3921 3911 17
3921 3905 8
3921 3877 74
3921 3960 20
3922 3907 22
3922 3923 41
3922 3929 4
3923 3922 41
3924 3925 23
3924 3840 45
3924 4022 42
3925 3924 23
3926 3908 14
3926 3953 32
3926 3980 20
3927 3894 26
3927 3920 151
3927 4024 163
3928 3819 68
3928 3862 66
3928 3956 13
3929 3922 4
3929 3942 17
3929 3964 17
3930 3805 212
3930 3912 50
3930 3958 108
3931 3866 36
3931 3932 22
3931 3933 3
3932 3931 22
3933 3931 3
3933 3971 13
3933 3973 34
3934 3750 120
3934 3909 24
3934 3984 28
3934 4118 94
3935 3936 11
3935 3956 14
3936 3935 11
3936 3937 7
3937 3936 7
3937 3949 17
3938 3879 77
3938 3957 28
3938 4154 113
3939 3940 34
3939 3818 68
3939 4050 48
3940 3939 34
3941 3907 24
3941 3970 15
3941 3972 11
3942 3929 17
3942 3943 18
3942 3951 3
3943 3942 18
3944 3440 263
3944 3955 110
3944 3961 93
3944 4219 148
3945 3946 52
3945 3901 35
3945 4179 127
3945 4295 266
3946 3945 52
3947 3948 26
3947 3825 101
3947 4062 88
3947 4227 176
3948 3947 26
3948 3822 39
3949 3937 17
3950 3841 56
3950 3852 71
3950 3978 15
3951 3942 3
3951 3966 10
3951 3998 20
3952 3914 22
3952 3960 32
3952 3982 10
3953 3926 32
3953 3959 7
3953 3988 13
3954 3886 38
3954 3972 21
3955 3439 261
3955 3944 110
3955 4026 239
3955 4415 482
3956 3928 13
3956 3935 14
3956 4006 22
3957 3938 28
3957 4013 96
3958 3930 108
3958 4007 150
3959 3953 7
3959 3993 14
3959 4006 44
3960 3952 32
3960 3921 20
3960 4017 25
3961 3944 93
3961 3967 195
3961 4230 155
3962 3963 8
3962 3979 65
3962 4001 17
3963 3962 8
3964 3929 17
3964 3968 10
3964 3986 14
3965 3839 91
3965 3985 32
3965 4215 174
3966 3951 10
3966 3913 27
3966 3981 10
3967 3961 195
3967 4005 69
3967 4279 194
3968 3964 10
3969 3777 95
3969 3987 40
3969 4002 14
3970 3941 15
3970 3990 21
3971 3933 13
3971 3975 43
3971 4106 104
3972 3954 21
3972 3941 11
3972 3990 8
3973 3974 32
3973 3933 34
3973 4028 31
3974 3973 32
3975 3971 43
3976 3977 49
3976 4047 74
3977 3976 49
3978 3950 15
3978 4032 62
3978 4050 75
3979 3962 65
3979 3983 13
3979 4000 11
3980 3926 20
3980 3982 28
3980 3995 7
3981 3966 10
3981 3991 9
3981 4015 27
3982 3980 28
3982 3952 10
3982 4023 20
3983 3979 13
3983 3775 105
3983 4059 39
3984 3934 28
3985 3853 64
3985 3965 32
3985 4051 91
3986 3964 14
3986 3998 15
3986 4010 10
3987 3860 143
3987 3969 40
3987 4027 43
3988 3953 13
3989 3898 42
3989 3915 66
3989 4082 89
3990 3972 8
3990 3970 21
3990 3999 4
3991 3981 9
3991 3992 16
3991 3997 6
3992 3991 16
3993 3959 14
3994 3902 42
3994 4277 16
3995 3980 7
3995 3996 16
3995 4171 95
3996 3995 16
3996 4025 58
3997 3991 6
3997 4003 4
3997 4018 12
3998 3986 15
3998 3951 20
3998 4093 62
3999 3990 4
3999 4011 12
3999 4016 9
4000 3979 11
4000 4001 42
4000 4057 31
4001 3962 17
4001 4000 42
4001 4014 13
4002 3969 14
4002 4021 28
4002 4129 149
4003 3997 4
4003 4004 17
4003 4022 26
4004 4003 17
4005 3967 69
4005 3620 185
4005 4049 49
4005 4292 201
4006 3956 22
4006 3959 44
4006 4025 12
4007 3845 77
4007 3958 150
4007 4058 161
4008 4009 12
4008 4010 4
4008 4020 28
4009 4008 12
4010 4008 4
4010 3986 10
4010 4012 4
4011 3999 12
4012 4010 4
4013 3849 77
4013 3957 96
4013 4065 70
4013 4296 207
4014 4001 13
4015 3981 27
4016 3999 9
4016 4019 12
4016 4030 8
4017 3960 25
4017 4023 28
4017 4033 11
4018 3997 12
4019 4016 12
4020 4008 28
4021 4002 28
4021 4027 40
4021 4138 60
4022 4003 26
4022 3924 42
4022 4116 40
4023 3982 20
4023 4017 28
4023 4041 11
4024 3927 163
4024 3895 61
4024 4065 275
4025 4006 12
4025 3996 58
4025 4072 25
4026 3915 120
4026 3955 239
4026 4163 311
4027 3987 43
4027 4021 40
4027 4034 47
4028 4029 25
4028 3973 31
4028 4035 7
4029 4028 25
4030 4016 8
4030 4031 8
4030 4053 10
4031 4030 8
4032 3978 62
4032 4038 12
4032 4090 26
4033 4017 11
4033 4052 11
4033 4069 36
4034 4027 47
4034 4138 108
4035 4036 29
4035 4028 7
4035 4071 22
4036 4035 29
4037 3792 149
4037 4067 32
4037 4140 77
4038 4032 12
4039 4040 31
4039 3906 97
4039 4063 10
4039 4118 54
4040 4039 31
4041 4023 11
4041 4088 29
4042 4043 87
4042 4057 121
4042 4263 248
4043 4042 87
4044 4045 19
4045 4044 19
4046 3890 103
4046 4145 55
4047 3976 74
4047 4150 60
4047 4161 154
4048 3875 274
4048 2510 1026
4048 4290 592
4049 4005 49
4049 4061 53
4049 4287 164
4050 3939 48
4050 3978 75
4050 4076 14
4051 3801 125
4051 3985 91
4051 4129 51
4051 4178 73
4052 4033 11
4052 4102 21
4053 4030 10
4053 4054 7
4053 4077 13
4054 4053 7
4055 3781 142
4055 4056 138
4055 4082 166
4056 3754 163
4056 4055 138
4056 4066 97
4057 4000 31
4057 4042 121
4057 4059 19
4058 3564 235
4058 4007 161
4058 4060 6
4059 4057 19
4059 3983 39
4059 4074 116
4059 4269 145
4060 4058 6
4060 4105 71
4060 4143 45
4061 4049 53
4061 4113 125
4061 4303 185
4062 3947 88
4062 4092 29
4062 4235 145
4063 4039 10
4063 4064 86
4063 4218 94
4064 4063 86
4065 4013 70
4065 4024 275
4066 3736 161
4066 4056 97
4066 4068 73
4066 4196 73
4067 3825 138
4067 4037 32
4067 4137 104
4067 4139 46
4068 3739 183
4068 4066 73
4068 4075 46
4069 4033 36
4069 4083 7
4069 4086 10
4070 3677 207
4070 4105 13
4070 4115 41
4071 4035 22
4071 4086 9
4071 4087 16
4072 4025 25
4072 4073 20
4072 4176 63
4073 4072 20
4074 4059 116
4074 3919 76
4074 4439 366
4075 3793 136
4075 4068 46
4075 4194 67
4076 4050 14
4076 4085 5
4076 4106 20
4077 4078 45
4077 4053 13
4077 4091 8
4078 4077 45
4079 4080 29
4079 4084 7
4080 4079 29
4081 3865 232
4082 4055 166
4082 3989 89
4082 4172 153
4083 4069 7
4084 4079 7
4084 4090 41
4084 4135 24
4085 4076 5
4085 4094 29
4085 4120 13
4086 4069 10
4086 4071 9
4086 4101 7
4087 4071 16
4087 4107 17
4087 4131 21
4088 4041 29
4088 4089 9
4088 4102 8
4089 4088 9
4090 4084 41
4090 4032 26
4091 4077 8
4091 4097 16
4091 4141 28
4092 4062 29
4092 4217 96
4092 4240 220
4093 3998 62
4093 4095 15
4093 4097 16
4094 4085 29
4095 4093 15
4095 4096 28
4095 4099 9
4096 4095 28
4097 4098 15
4097 4093 16
4097 4091 16
4098 4097 15
4099 4095 9
4099 4100 35
4099 4103 5
4100 4099 35
4101 4086 7
4101 4112 21
4101 4119 13
4102 4088 8
4102 4052 21
4102 4112 8
4103 4099 5
4103 4104 11
4103 4108 13
4104 4103 11
4105 4070 13
4105 4060 71
4105 4280 136
4106 3971 104
4106 4076 20
4106 4158 74
4107 4087 17
4108 4109 28
4108 4103 13
4108 4110 6
4109 4108 28
4110 4108 6
4110 4111 12
4110 4116 27
4111 4110 12
4112 4102 8
4112 4101 21
4112 4162 41
4113 4061 125
4114 3837 126
4114 4259 112
4115 4070 41
4115 4134 43
4115 4226 84
4116 4110 27
4116 4022 40
4116 4175 45
4117 3813 151
4117 3893 170
4117 4252 109
4118 3934 94
4118 4039 54
4118 4140 21
4119 4101 13
4120 4085 13
4120 4124 32
4120 4242 101
4121 3817 143
4121 4126 149
4121 4195 50
4122 3918 94
4122 4123 52
4122 4128 46
4123 4122 52
4123 4126 35
4123 4198 54
4124 4120 32
4124 4125 5
4124 4153 29
4125 4124 5
4125 4127 7
4125 4133 14
4126 4123 35
4126 3896 103
4126 4121 149
4127 4125 7
4128 4122 46
4128 4130 71
4128 4204 55
4129 4002 149
4129 4051 51
4129 4152 35
4130 3897 151
4130 4128 71
4130 4205 80
4131 4087 21
4132 3388 546
4133 4125 14
4134 3695 223
4134 4115 43
4134 4136 7
4135 4084 24
4136 4134 7
4136 4142 29
4136 4267 99
4137 4067 104
4138 4034 108
4138 4021 60
4138 4214 89
4139 4067 46
4139 4192 45
4139 4227 116
4140 4037 77
4140 4118 21
4140 4183 34
4141 4091 28
4142 4136 29
4142 4144 3
4142 4265 91
4143 4060 45
4144 3714 224
4144 4142 3
4144 4155 35
4145 4046 55
4146 4147 51
4146 4149 54
4146 4207 34
4147 4146 51
4147 4206 34
4148 3120 554
4148 4160 12
4148 4409 287
4149 4146 54
4149 4209 33
4150 4047 60
4150 4151 214
4150 4282 199
4151 3423 365
4151 4150 214
4151 4779 697
4152 4129 35
4152 4177 70
4152 4213 50
4153 4124 29
4154 3938 113
4154 3879 147
4154 4190 31
4155 4144 35
4155 4156 2
4155 4264 78
4156 4157 177
4156 4155 2
4156 4180 32
4157 4156 177
4158 4159 34
4158 4106 74
4158 4184 24
4159 4158 34
4160 4148 12
4160 3128 559
4160 4266 351
4160 4408 279
4161 4047 154
4161 3498 342
4161 4282 94
4162 4112 41
4162 4170 29
4162 4193 41
4163 4026 311
4163 4172 82
4163 4468 354
4164 4165 16
4164 4166 15
4164 4167 12
4164 4182 10
4165 4164 16
4166 4164 15
4167 4164 12
4168 4169 18
4168 4193 17
4169 4168 18
4170 4162 29
4170 4171 6
4170 4223 39
4171 3995 95
4171 4170 6
4171 4176 49
4172 4082 153
4172 4163 82
4172 4196 258
4173 4174 77
4173 4175 21
4173 4182 128
4174 4173 77
4175 4173 21
4175 4116 45
4175 4210 22
4176 4072 63
4176 4171 49
4176 4229 44
4177 4178 5
4177 4152 70
4177 4333 186
4178 4177 5
4178 4051 73
4178 4215 185
4179 3945 127
4180 4181 76
4180 4156 32
4180 4236 119
4180 4261 64
4181 4180 76
4182 4164 10
4182 4173 128
4182 4197 91
4183 4140 34
4183 4192 11
4183 4247 54
4184 4185 51
4184 4158 24
4184 4188 1
4185 4184 51
4186 4187 207
4186 4231 41
4187 4186 207
4188 4189 31
4188 4184 1
4188 4191 7
4189 4188 31
4190 4154 31
4190 4208 25
4190 4296 276
4191 4188 7
4191 4211 29
4191 4220 25
4192 4139 45
4192 4183 11
4192 4288 123
4193 4162 41
4193 4168 17
4193 4211 28
4194 4075 67
4194 4195 12
4194 4201 6
4195 4121 50
4195 4194 12
4195 4198 184
4195 4379 213
4196 4066 73
4196 4172 258
4196 4201 117
4196 4388 219
4197 4182 91
4197 4203 11
4197 4212 9
4198 4123 54
4198 4195 184
4198 4204 97
4199 4200 54
4199 4202 16
4199 4285 75
4200 4199 54
4201 4194 6
4201 4196 117
4201 4375 205
4202 4199 16
4203 4197 11
4204 4128 55
4204 4198 97
4204 4205 104
4205 4130 80
4205 4204 104
4205 4206 15
4206 4147 34
4206 4205 15
4206 4207 49
4207 4146 34
4207 4206 49
4207 4209 60
4208 4190 25
4208 3867 209
4208 4233 198
4209 4149 33
4209 4207 60
4209 4210 15
4210 4175 22
4210 4209 15
4210 4216 6
4211 4193 28
4211 4191 29
4211 4220 21
4211 4223 90
4212 4197 9
4213 4152 50
4213 4214 2
4213 4248 37
4214 4138 89
4214 4213 2
4214 4237 40
4215 3965 174
4215 4178 185
4215 4270 53
4216 4210 6
4216 4249 309
4216 4251 309
4216 4257 310
4216 4347 165
4217 4092 96
4218 4063 94
4218 4247 67
4218 4275 138
4219 3944 148
4219 4230 64
4219 4310 96
4220 4211 21
4220 4191 25
4220 4246 34
4221 4222 7
4221 4224 5
4221 4237 63
4222 4221 7
4223 4170 39
4223 4211 90
4223 4225 6
4224 4221 5
4225 4223 6
4225 4228 14
4225 4283 51
4226 4115 84
4227 3947 176
4227 4139 116
4227 4271 62
4227 4288 67
4228 4225 14
4228 4229 37
4229 4176 44
4229 4228 37
4229 4233 60
4229 4286 48
4230 4219 64
4230 3961 155
4230 4258 88
4231 4186 41
4231 4232 203
4231 4289 53
4232 4231 203
4233 4234 81
4233 4229 60
4233 4208 198
4234 4233 81
4235 4062 145
4235 4276 47
4236 3597 406
4236 4180 119
4236 4252 38
4237 4221 63
4237 4214 40
4237 4272 33
4237 4281 48
4238 4239 36
4238 4242 32
4238 4246 19
4239 4238 36
4240 4092 220
4240 4243 7
4240 4400 228
4241 3707 289
4241 4245 229
4241 4491 378
4242 4238 32
4242 4120 101
4242 4250 7
4243 4244 70
4243 4240 7
4243 4253 28
4244 4243 70
4245 4241 229
4246 4220 34
4246 4238 19
4246 4262 13
4247 4183 54
4247 4218 67
4247 4284 39
4248 4213 37
4249 4216 309
4249 4250 1
4250 4242 7
4250 4249 1
4250 4251 4
4250 4262 44
4251 4250 4
4251 4216 309
4251 4257 4
4252 4117 109
4252 4236 38
4252 4260 11
4253 4243 28
4253 4273 41
4253 4298 62
4254 4255 31
4255 4254 31
4255 4256 31
4255 4270 62
4255 4270 62
4256 4255 31
4256 3844 232
4256 4259 102
4257 4251 4
4257 4216 310
4257 4274 14
4258 4230 88
4258 4279 91
4258 4325 85
4259 4256 102
4259 4114 112
4259 4263 34
4260 4252 11
4260 4268 25
4260 4320 97
4261 4180 64
4262 4246 13
4262 4250 44
4262 4283 138
4263 4259 34
4263 4042 248
4263 4269 215
4263 4309 60
4264 4155 78
4265 4142 91
4266 4160 351
4267 4136 99
4268 4260 25
4268 4295 94
4268 4361 142
4269 4263 215
4269 4059 145
4269 4291 33
4270 4215 53
4270 4255 62
4270 4255 62
4270 4349 126
4270 4349 126
4271 4227 62
4271 4276 7
4271 4318 73
4272 4237 33
4273 4253 41
4273 4278 13
4273 4314 64
4274 4257 14
4274 4297 39
4274 4300 40
4275 4218 138
4275 4285 30
4275 4316 57
4276 4235 47
4276 4271 7
4276 4322 104
4277 4278 163
4277 3994 16
4278 4277 163
4278 4273 13
4278 4345 160
4279 4258 91
4279 3967 194
4279 4430 384
4280 4105 136
4280 4294 26
4280 4305 247
4281 4237 48
4281 4285 69
4281 4293 24
4282 4150 199
4282 4161 94
4282 4425 202
4283 4225 51
4283 4262 138
4283 4286 47
4284 4247 39
4284 4308 123
4284 4331 69
4285 4275 30
4285 4199 75
4285 4281 69
4285 4315 44
4286 4229 48
4286 4283 47
4286 4332 501
4286 4344 76
4287 4049 164
4288 4227 67
4288 4192 123
4288 4308 40
4288 4318 58
4289 4231 53
4289 4301 149
4289 4307 31
4290 4048 592
4290 15179 210
4291 4269 33
4291 4324 40
4291 4498 284
4292 4005 201
4293 4281 24
4293 4299 8
4293 4333 105
4294 4280 26
4295 3945 266
4295 4268 94
4295 4304 18
4296 4013 207
4296 4190 276
4296 4332 46
4297 4274 39
4297 4300 33
4297 4302 85
4298 4253 62
4298 4360 118
4299 4293 8
4299 4319 25
4299 4338 93
4300 4274 40
4300 4297 33
4300 4335 218
4301 4289 149
4302 4297 85
4302 4313 11
4302 4317 111
4303 4061 185
4304 4295 18
4304 4326 58
4304 4405 141
4305 4280 247
4305 4312 37
4306 4307 42
4307 4306 42
4307 4289 31
4307 4334 36
4308 4288 40
4308 4284 123
4308 4348 59
4309 4263 60
4309 4324 194
4309 4426 162
4310 4219 96
4310 4311 102
4310 4337 36
4311 4310 102
4312 4305 37
4312 4320 46
4312 4346 42
4313 4302 11
4313 4341 77
4313 4341 43
4314 4273 64
4314 4328 22
4314 4330 35
4315 4285 44
4315 4316 41
4315 4319 47
4316 4275 57
4316 4315 41
4316 4321 112
4317 4302 111
4317 4347 53
4317 4366 75
4318 4271 73
4318 4288 58
4318 4354 112
4319 4315 47
4319 4299 25
4319 4329 14
4320 4260 97
4320 4312 46
4321 4316 112
4322 4276 104
4322 4352 82
4322 4354 67
4323 3785 481
4323 4467 330
4323 4616 492
4324 4309 194
4324 4291 40
4324 4434 164
4325 4258 85
4326 4327 39
4326 4304 58
4326 4342 34
4327 4326 39
4328 4314 22
4328 4372 97
4328 4376 90
4329 4319 14
4329 4365 206
4329 4387 98
4330 4314 35
4330 4336 56
4330 4404 121
4331 4284 69
4331 4348 119
4331 4365 55
4332 4296 46
4332 4286 501
4332 4428 399
4332 4482 205
4333 4293 105
4333 4177 186
4333 4338 14
4333 4355 222
4334 4307 36
4334 4343 99
4334 4380 72
4335 4300 218
4335 4344 11
4335 4399 86
4336 4330 56
4337 4310 36
4337 4339 67
4337 4419 120
4338 4299 93
4338 4333 14
4338 4387 79
4339 4337 67
4339 4340 26
4339 4417 118
4340 4339 26
4341 4313 77
4341 4313 43
4341 4369 104
4342 4326 34
4342 4358 77
4342 4364 46
4343 4334 99
4344 4286 76
4344 4335 11
4344 4500 216
4344 4565 391
4345 4278 160
4345 4356 44
4345 4734 624
4346 4312 42
4346 4351 37
4346 4357 37
4347 4317 53
4347 4216 165
4347 4366 59
4347 4385 570
4348 4308 59
4348 4331 119
4348 4382 47
4349 4350 335
4349 4270 126
4349 4270 126
4349 4355 16
4349 4355 16
4350 4349 335
4351 4346 37
4351 4359 46
4351 4370 31
4352 4353 53
4352 4322 82
4352 4393 90
4353 4352 53
4354 4322 67
4354 4318 112
4354 4371 34
4355 4333 222
4355 4349 16
4355 4349 16
4355 4459 142
4355 4459 142
4356 4345 44
4356 4440 185
4356 4490 240
4357 4346 37
4358 4342 77
4358 4465 152
4359 4351 46
4359 4361 7
4359 4386 28
4360 4298 118
4361 4268 142
4361 4359 7
4361 4367 17
4362 4363 460
4362 4467 140
4363 4362 460
4364 4342 46
4365 4331 55
4365 4329 206
4365 4413 113
4366 4317 75
4366 4347 59
4366 4449 108
4367 4368 19
4367 4361 17
4367 4405 124
4368 4367 19
4369 4341 104
4370 4351 31
4371 4354 34
4371 4416 119
4371 4429 84
4372 4328 97
4372 4376 18
4373 4374 11
4373 4377 40
4373 4383 25
4374 4373 11
4375 4201 205
4375 4385 21
4375 4389 14
4376 4328 90
4376 4372 18
4376 4404 55
4377 4373 40
4377 4378 34
4377 4420 61
4378 4377 34
4379 4195 213
4380 4334 72
4380 4381 51
4380 4428 66
4381 4380 51
4382 4348 47
4382 4396 111
4382 4413 94
4383 4384 73
4383 4373 25
4383 4390 27
4384 4383 73
4385 4347 570
4385 4375 21
4385 4395 17
4386 4359 28
4387 4329 98
4387 4338 79
4387 4441 104
4388 4196 219
4388 4389 120
4388 4468 374
4388 4618 292
4389 4375 14
4389 4388 120
4389 4392 4
4390 4391 15
4390 4383 27
4390 4410 42
4391 4390 15
4392 4389 4
4392 4394 6
4393 4352 90
4393 4400 13
4393 4424 55
4394 4392 6
4394 4395 16
4394 4412 36
4395 4385 17
4395 4394 16
4395 4614 279
4396 4382 111
4396 4466 164
4396 4524 265
4397 4398 87
4397 4401 95
4397 4510 141
4398 4397 87
4398 4512 141
4399 4335 86
4399 4401 80
4399 4501 135
4400 4240 228
4400 4393 13
4400 4411 49
4401 4399 80
4401 4397 95
4401 4503 133
4402 4403 111
4403 4402 111
4403 4444 62
4404 4330 121
4404 4376 55
4404 4431 48
4405 4304 141
4405 4367 124
4405 4463 84
4406 4407 9
4407 4406 9
4408 4160 279
4408 4409 13
4408 4418 10
4409 4148 287
4409 4408 13
4409 4422 10
4409 4423 61
4410 4390 42
4410 4439 94
4410 4493 100
4411 4400 49
4411 4458 67
4412 4394 36
4412 4613 244
4413 4382 94
4413 4365 113
4413 4487 88
4414 4415 43
4415 4414 43
4415 3955 482
4415 4475 71
4416 4371 119
4416 4424 5
4416 4489 106
4417 4339 118
4417 4419 68
4417 4457 50
4418 4408 10
4418 4422 13
4418 4888 512
4419 4337 120
4419 4417 68
4419 4471 69
4420 4377 61
4420 4421 61
4420 4450 43
4421 4420 61
4421 4436 20
4421 4450 54
4422 4409 10
4422 4418 13
4422 4427 30
4422 4435 18
4423 2556 1216
4423 4409 61
4423 4430 258
4424 4393 55
4424 4416 5
4424 4458 66
4425 4282 202
4425 4518 116
4426 4309 162
4426 4434 162
4426 4496 91
4427 4422 30
4427 4435 37
4427 5231 1084
4428 4380 66
4428 4332 399
4428 4436 23
4429 4371 84
4430 4279 384
4430 4423 258
4430 5230 807
4431 4404 48
4431 4502 142
4432 4433 19
4433 4432 19
4434 4426 162
4434 4324 164
4434 4497 82
4435 4427 37
4435 4422 18
4435 4838 442
4436 4421 20
4436 4428 23
4436 4456 49
4436 4461 39
4437 4438 108
4438 4437 108
4439 4074 366
4439 4410 94
4439 4447 11
4440 4356 185
4440 4455 31
4440 4488 72
4441 4387 104
4441 4459 178
4441 4761 336
4442 4443 65
4442 4453 78
4442 4521 94
4443 4442 65
4444 4403 62
4444 4449 90
4444 4512 155
4445 4446 58
4445 4448 38
4445 4448 97
4446 4445 58
4447 4439 11
4447 4448 48
4447 4555 138
4448 4445 38
4448 4447 48
4448 4445 97
4449 4444 90
4449 4366 108
4449 4609 202
4450 4420 43
4450 4421 54
4450 4456 13
4450 4493 110
4451 4452 15
4451 4454 20
4451 4535 103
4452 4451 15
4453 4442 78
4453 4461 85
4453 4527 90
4454 4451 20
4454 4464 51
4454 4532 98
4455 4440 31
4455 4523 111
4455 4536 123
4456 4450 13
4456 4436 49
4456 4492 81
4457 4417 50
4457 4460 46
4457 4471 90
4458 4411 67
4458 4424 66
4458 4502 59
4459 4441 178
4459 4355 142
4459 4355 142
4459 4496 326
4459 4793 371
4459 4793 371
4460 4457 46
4461 4436 39
4461 4453 85
4461 4494 40
4462 3297 1045
4462 4767 2125
4462 4754 1057
4463 4405 84
4463 4469 46
4463 4537 83
4464 4454 51
4464 4465 10
4464 4532 105
4465 4358 152
4465 4464 10
4465 4484 74
4466 4396 164
4466 4470 4
4466 4489 98
4467 4362 140
4467 4323 330
4467 4573 195
4468 4388 374
4468 4163 354
4468 4472 3
4468 4479 149
4469 4463 46
4469 4480 133
4469 4538 82
4470 4466 4
4470 4481 32
4470 4524 55
4471 4419 69
4471 4457 90
4471 4529 67
4472 4468 3
4472 4549 92
4473 4474 61
4473 4483 151
4473 4546 182
4474 4473 61
4474 4475 48
4474 4594 161
4475 4415 71
4475 4474 48
4475 4531 69
4476 4477 122
4476 4478 58
4476 4755 352
4477 4476 122
4478 4476 58
4479 4468 149
4479 4483 240
4479 4551 90
4480 4469 133
4481 4470 32
4481 4489 66
4481 4525 50
4482 4332 205
4482 4495 73
4482 4601 145
4483 4473 151
4483 4479 240
4483 4546 78
4484 4465 74
4484 4572 101
4485 3552 829
4486 4487 55
4487 4486 55
4487 4413 88
4487 4569 102
4488 4440 72
4488 4550 101
4488 4554 123
4489 4416 106
4489 4466 98
4489 4481 66
4489 4585 119
4490 4356 240
4491 4241 378
4491 4821 351
4492 4456 81
4492 4509 26
4492 4558 120
4493 4410 100
4493 4450 110
4493 4509 18
4494 4461 40
4494 4530 77
4494 4539 48
4495 4482 73
4495 4514 64
4495 4541 59
4496 4459 326
4496 4426 91
4496 4513 141
4497 4434 82
4497 4498 10
4497 4517 23
4498 4497 10
4498 4291 284
4498 4499 1
4498 4507 9
4499 4498 1
4500 4344 216
4500 4501 9
4500 4604 129
4501 4500 9
4501 4399 135
4501 4503 67
4501 4605 128
4502 4431 142
4502 4458 59
4502 4522 29
4502 4523 33
4503 4501 67
4503 4401 133
4503 4504 44
4504 4503 44
4504 4510 50
4504 4559 68
4505 4506 60
4506 4505 60
4507 4508 2
4507 4498 9
4507 4516 10
4507 4519 118
4508 4507 2
4509 4493 18
4509 4492 26
4509 4553 99
4510 4504 50
4510 4397 141
4510 4511 13
4511 4510 13
4511 4512 72
4511 4561 66
4512 4511 72
4512 4398 141
4512 4444 155
4512 4566 67
4513 4496 141
4514 4515 154
4514 4495 64
4514 4521 59
4515 4514 154
4516 4507 10
4516 4517 22
4516 4526 118
4517 4497 23
4517 4516 22
4517 5112 606
4518 4425 116
4518 4574 403
4518 4843 361
4519 4507 118
4519 4520 144
4519 4526 9
4519 4555 198
4520 4519 144
4521 4442 94
4521 4514 59
4521 4527 94
4522 4502 29
4522 4584 98
4522 4592 91
4523 4455 111
4523 4502 33
4523 4536 36
4524 4470 55
4524 4396 265
4524 4525 32
4524 4580 62
4525 4481 50
4525 4524 32
4525 4583 62
4526 4516 118
4526 4519 9
4526 4528 6
4526 4568 197
4527 4453 90
4527 4521 94
4527 4539 103
4528 4526 6
4529 4471 67
4529 4531 16
4529 4567 50
4530 4494 77
4530 4545 25
4530 4552 88
4531 4475 69
4531 4529 16
4531 4578 54
4532 4464 105
4532 4454 98
4532 4535 17
4533 4534 28
4533 4554 45
4533 4557 45
4534 4533 28
4535 4532 17
4535 4451 103
4535 4581 46
4536 4455 123
4536 4523 36
4536 4540 9
4537 4463 83
4537 4538 30
4537 4707 173
4538 4537 30
4538 4469 82
4538 4542 32
4538 4562 30
4539 4494 48
4539 4527 103
4539 4545 33
4539 4636 113
4540 4536 9
4540 4550 45
4540 4588 54
4541 4495 59
4542 4538 32
4543 3701 1002
4543 4544 578
4543 4758 261
4544 4543 578
4545 4530 25
4545 4539 33
4545 4552 38
4546 4483 78
4546 4473 182
4546 4564 122
4546 4593 49
4547 4548 46
4547 4569 60
4547 4569 60
4548 4547 46
4549 4472 92
4549 4551 148
4549 4660 112
4550 4488 101
4550 4540 45
4550 4557 12
4551 4549 148
4551 4479 90
4551 4576 30
4552 4530 88
4552 4545 38
4552 4599 58
4553 4509 99
4553 4556 5
4553 4558 11
4554 4488 123
4554 4533 45
4554 4589 60
4555 4519 198
4555 4447 138
4555 4556 6
4556 4555 6
4556 4553 5
4556 4568 9
4557 4533 45
4557 4550 12
4557 4589 34
4558 4553 11
4558 4492 120
4558 4570 14
4558 4590 83
4559 4504 68
4559 4560 20
4559 4561 60
4560 4559 20
4560 4603 57
4561 4559 60
4561 4511 66
4561 4563 30
4562 4538 30
4563 4561 30
4563 4566 43
4563 4607 57
4564 4546 122
4564 4576 99
4564 4576 202
4565 4344 391
4565 4571 18
4565 4641 263
4566 4563 43
4566 4512 67
4566 4608 102
4567 4529 50
4567 4582 19
4567 4597 59
4568 4526 197
4568 4556 9
4568 4570 11
4568 4623 95
4569 4547 60
4569 4547 60
4569 4487 102
4569 4587 23
4570 4568 11
4570 4558 14
4570 4600 114
4570 4623 100
4571 4565 18
4571 4645 277
4571 4694 156
4572 4484 101
4572 4577 77
4572 4610 50
4573 4467 195
4573 4595 33
4573 4758 488
4574 4575 197
4574 4518 403
4574 4836 295
4575 4574 197
4576 4551 30
4576 4564 99
4576 4564 202
4576 4669 151
4577 4572 77
4577 4581 48
4577 4617 59
4578 4531 54
4578 4579 18
4578 4594 48
4579 4578 18
4579 4582 21
4580 4524 62
4580 4583 25
4581 4577 48
4581 4535 46
4581 4622 63
4582 4567 19
4582 4579 21
4582 4633 68
4583 4525 62
4583 4580 25
4583 4585 70
4584 4522 98
4585 4489 119
4585 4583 70
4585 4586 15
4586 4585 15
4587 4569 23
4587 4598 152
4587 4672 114
4588 4540 54
4588 4592 57
4588 4711 118
4589 4554 60
4589 4557 34
4589 4611 56
4590 4558 83
4590 4591 21
4590 4599 47
4591 4590 21
4592 4588 57
4592 4522 91
4592 4596 63
4592 4651 61
4593 4546 49
4593 4640 52
4593 4650 110
4594 4474 161
4594 4578 48
4594 4637 95
4594 4644 63
4595 4573 33
4595 4615 111
4595 4787 320
4596 4592 63
4597 4567 59
4597 4624 75
4597 4627 46
4598 4587 152
4598 4602 131
4598 4659 88
4599 4590 47
4599 4552 58
4599 4636 73
4600 4570 114
4600 4679 162
4600 4718 94
4601 4482 145
4601 4619 172
4601 4694 136
4601 4792 187
4602 4598 131
4603 4560 57
4603 4605 88
4603 4606 100
4604 4500 129
4604 4605 7
4604 4626 22
4605 4604 7
4605 4501 128
4605 4603 88
4606 4603 100
4606 4607 12
4606 4642 129
4607 4606 12
4607 4563 57
4607 4608 88
4607 4608 126
4608 4607 88
4608 4607 126
4608 4566 102
4608 4609 85
4609 4608 85
4609 4449 202
4609 4648 35
4610 4572 50
4610 4617 77
4610 4675 56
4611 4612 117
4611 4589 56
4611 4652 48
4612 4611 117
4613 4412 244
4613 4614 14
4613 4625 16
4614 4395 279
4614 4613 14
4614 4631 19
4615 4595 111
4615 4616 697
4615 4787 169
4616 4323 492
4616 4737 308
4616 4615 697
4617 4610 77
4617 4577 59
4617 4622 39
4617 4688 52
4618 4388 292
4618 4634 144
4619 4601 172
4619 4646 84
4619 4691 50
4620 4621 67
4620 4632 94
4621 4620 67
4622 4617 39
4622 4581 63
4622 4697 51
4623 4568 95
4623 4570 100
4623 4958 379
4624 4597 75
4624 4627 90
4624 4804 235
4625 4613 16
4625 4634 5
4626 4604 22
4626 4641 26
4626 4649 19
4627 4597 46
4627 4624 90
4627 4633 27
4628 4629 86
4629 4628 86
4629 4630 54
4629 4677 36
4630 4629 54
4631 4614 19
4631 4635 315
4631 4655 23
4632 4620 94
4632 4689 74
4632 4729 113
4633 4582 68
4633 4627 27
4633 4644 64
4633 4776 135
4634 4625 5
4634 4618 144
4634 4655 27
4635 4631 315
4635 4665 306
4635 4885 254
4636 4599 73
4636 4539 113
4636 4666 61
4637 4594 95
4637 4643 19
4637 4708 55
4638 4639 173
4639 4638 173
4640 4593 52
4640 4643 77
4640 4647 36
4641 4565 263
4641 4626 26
4641 4645 7
4642 4606 129
4643 4640 77
4643 4637 19
4643 4713 98
4644 4594 63
4644 4633 64
4644 4708 92
4645 4571 277
4645 4641 7
4645 4654 3
4646 4619 84
4646 4679 95
4646 4740 97
4647 4640 36
4647 4650 22
4647 4713 55
4648 4609 35
4648 4665 39
4648 4673 29
4648 4674 23
4649 4626 19
4649 4662 7
4649 4683 286
4650 4593 110
4650 4647 22
4650 4663 13
4651 4592 61
4652 4653 125
4652 4611 48
4652 4670 30
4653 4652 125
4654 4645 3
4654 4664 7
4655 4631 23
4655 4634 27
4655 4914 260
4656 4657 16
4656 4658 82
4656 4666 32
4657 4656 16
4658 4656 82
4659 4598 88
4659 4685 20
4660 4661 191
4660 4549 112
4660 4669 64
4660 4845 199
4661 4660 191
4661 4709 232
4661 4709 500
4662 4649 7
4662 4668 28
4662 4700 277
4663 4650 13
4663 4671 93
4663 4727 89
4664 4654 7
4664 4668 4
4664 5162 667
4665 4648 39
4665 4635 306
4665 4674 31
4665 4682 15
4666 4636 61
4666 4667 25
4666 4656 32
4667 4666 25
4668 4664 4
4668 4662 28
4668 4745 84
4669 4660 64
4669 4576 151
4669 4701 70
4669 4820 164
4670 4652 30
4670 4686 14
4670 4721 58
4671 4663 93
4671 4702 56
4671 4727 38
4672 4587 114
4672 4685 117
4672 4763 83
4673 4648 29
4673 4678 7
4673 4681 10
4673 4681 10
4673 4699 11
4674 4648 23
4674 4665 31
4674 4678 7
4674 4714 27
4675 4610 56
4675 4688 78
4675 4739 57
4676 4677 54
4677 4676 54
4677 4629 36
4677 4719 29
4678 4673 7
4678 4674 7
4678 4716 27
4679 4600 162
4679 4646 95
4679 4740 53
4680 4681 3
4681 4680 3
4681 4673 10
4681 4673 10
4681 4693 24
4681 4693 24
4681 4699 7
4682 4665 15
4683 4649 286
4683 4684 7
4683 4693 27
4683 4698 5
4684 4683 7
4685 4659 20
4685 4672 117
4685 4717 25
4686 4687 49
4686 4670 14
4686 4735 66
4687 4686 49
4688 4675 78
4688 4617 52
4688 4690 9
4689 4632 74
4689 4695 2
4690 4688 9
4690 4697 18
4690 4744 50
4691 4619 50
4691 4692 151
4691 4746 47
4692 4691 151
4693 4683 27
4693 4681 24
4693 4681 24
4693 4698 27
4694 4601 136
4694 4571 156
4694 4792 160
4695 4689 2
4695 4696 50
4695 4735 51
4696 4695 50
4697 4690 18
4697 4622 51
4697 4707 92
4698 4683 5
4698 4693 27
4698 4700 11
4698 4703 2
4699 4681 7
4699 4673 11
4699 4710 17
4699 4712 18
4700 4662 277
4700 4698 11
4700 4703 11
4701 4669 70
4701 4702 63
4701 4730 48
4702 4671 56
4702 4701 63
4702 4730 37
4703 4700 11
4703 4698 2
4703 4706 5
4703 4710 45
4704 4705 43
4704 4711 46
4704 4721 47
4705 4704 43
4706 4703 5
4707 4697 92
4707 4537 173
4707 4880 216
4708 4637 55
4708 4644 92
4708 4759 111
4709 4661 232
4709 4661 500
4710 4703 45
4710 4699 17
4710 4712 18
4710 4901 220
4711 4588 118
4711 4704 46
4711 4743 27
4711 4731 175
4712 4710 18
4712 4699 18
4712 4716 15
4713 4647 55
4713 4643 98
4713 4759 59
4713 4768 121
4714 4674 27
4714 4715 9
4714 4716 10
4714 4789 109
4715 4714 9
4716 4712 15
4716 4678 27
4716 4714 10
4716 4736 15
4716 4736 15
4717 4685 25
4717 4725 83
4718 4600 94
4719 4677 29
4719 4720 3
4719 4722 54
4720 4719 3
4720 4728 5
4721 4670 58
4721 4704 47
4721 4769 75
4722 4719 54
4723 4724 44
4724 4723 44
4725 4726 82
4725 4717 83
4725 4731 73
4726 4725 82
4727 4671 38
4727 4663 89
4727 4760 86
4727 4768 62
4728 4729 4
4728 4720 5
4729 4728 4
4729 4632 113
4729 4799 145
4729 4814 135
4730 4701 48
4730 4702 37
4730 4760 42
4731 4732 59
4731 4725 73
4731 4711 175
4731 4902 190
4732 4731 59
4733 4734 236
4734 4733 236
4734 4345 624
4734 4764 58
4735 4695 51
4735 4686 66
4735 4757 42
4736 4716 15
4736 4716 15
4736 4847 171
4737 4616 308
4737 5031 136
4738 4739 51
4739 4738 51
4739 4675 57
4739 4825 126
4740 4679 53
4740 4646 97
4740 4834 135
4741 4742 157
4742 4741 157
4743 4711 27
4743 4765 113
4743 4859 157
4744 4690 50
4745 4668 84
4745 4756 63
4745 4785 77
4746 4691 47
4746 4905 177
4747 4748 17
4748 4747 17
4748 4752 30
4748 4775 35
4749 4750 28
4749 4750 28
4749 4751 16
4749 4772 33
4750 4749 28
4750 4749 28
4750 4771 34
4751 4749 16
4752 4748 30
4752 4753 17
4752 4777 35
4753 4752 17
4754 3374 1467
4754 4462 1057
4754 4779 1476
4755 4476 352
4755 4948 323
4755 5170 706
4756 4745 63
4757 4735 42
4757 4781 41
4757 4783 43
4758 4543 261
4758 4573 488
4758 4766 538
4758 4786 34
4759 4713 59
4759 4708 111
4759 4805 121
4760 4730 42
4760 4727 86
4760 4788 86
4760 4801 65
4761 4762 41
4761 4441 336
4761 4793 148
4762 4761 41
4763 4672 83
4763 4791 231
4763 4902 292
4764 4734 58
4764 4780 41
4764 4864 158
4765 4743 113
4766 4758 538
4766 4821 312
4766 4872 135
4767 4462 2125
4768 4727 62
4768 4713 121
4768 4790 62
4768 4805 57
4769 4721 75
4770 4771 7
4771 4770 7
4771 4750 34
4771 4772 28
4771 4795 32
4772 4771 28
4772 4749 33
4772 4773 18
4772 4798 32
4773 4772 18
4774 4775 22
4775 4774 22
4775 4748 35
4775 4777 30
4775 4802 35
4776 4633 135
4776 4853 344
4776 5118 347
4777 4775 30
4777 4752 35
4777 4778 12
4777 4806 35
4778 4777 12
4779 4151 697
4779 4843 323
4779 4754 1476
4780 4764 41
4781 4782 23
4781 4757 41
4781 4799 35
4782 4781 23
4783 4757 43
4783 4784 24
4783 4796 36
4783 4815 45
4784 4783 24
4785 4745 77
4785 4794 27
4785 4794 27
4785 4817 54
4786 4758 34
4786 4927 67
4787 4615 169
4787 4595 320
4787 4967 171
4788 4760 86
4788 4820 52
4788 4837 63
4789 4714 109
4789 4823 123
4789 4841 73
4790 4768 62
4790 4801 26
4790 4832 57
4791 4763 231
4792 4601 187
4792 4694 160
4792 4803 11
4793 4761 148
4793 4459 371
4793 4459 371
4793 4865 93
4793 4865 93
4794 4785 27
4794 4785 27
4794 4800 12
4794 4949 200
4795 4771 32
4795 4798 27
4795 4809 16
4796 4783 36
4796 4797 71
4796 4807 14
4797 4796 71
4798 4795 27
4798 4772 32
4798 4811 16
4799 4729 145
4799 4781 35
4799 4826 36
4800 4794 12
4800 4817 47
4800 4842 70
4800 4855 68
4801 4760 65
4801 4790 26
4801 4816 25
4802 4775 35
4802 4806 30
4802 4812 15
4803 4792 11
4803 4945 135
4804 4624 235
4805 4768 57
4805 4759 121
4805 4835 61
4805 4853 76
4806 4802 30
4806 4777 35
4806 4813 16
4807 4796 14
4807 4808 19
4807 4810 6
4808 4807 19
4809 4795 16
4810 4807 6
4811 4798 16
4812 4802 15
4813 4806 16
4814 4729 135
4814 4839 139
4814 4861 70
4815 4783 45
4816 4801 25
4816 4837 58
4816 4854 61
4817 4800 47
4817 4785 54
4817 4827 112
4818 4819 704
4819 4818 704
4819 4822 60
4819 4852 373
4819 5404 530
4820 4669 164
4820 4788 52
4820 4856 61
4821 4491 351
4821 4766 312
4821 4828 113
4822 4819 60
4822 5152 1313
4822 5589 754
4823 4789 123
4824 4825 101
4825 4824 101
4825 4739 126
4825 4860 97
4825 4913 99
4826 4799 36
4826 4840 17
4826 4873 152
4827 4817 112
4828 4821 113
4828 4836 140
4828 5107 327
4829 4830 153
4829 4831 89
4829 4846 20
4830 4829 153
4831 4829 89
4832 4790 57
4832 4835 7
4832 4854 48
4833 4834 53
4834 4833 53
4834 4740 135
4834 4881 49
4835 4832 7
4835 4805 61
4835 4867 47
4836 4574 295
4836 4828 140
4836 4868 90
4837 4788 63
4837 4816 58
4837 4856 54
4837 4890 59
4838 4435 442
4838 5693 783
4839 4814 139
4839 4840 40
4839 4910 164
4840 4839 40
4840 4826 17
4840 4858 32
4841 4789 73
4841 4847 8
4841 4849 26
4842 4800 70
4842 4855 30
4842 4956 131
4843 4518 361
4843 4779 323
4843 4868 339
4843 5188 345
4844 4845 164
4845 4844 164
4845 4660 199
4845 4943 83
4846 4829 20
4846 4850 6
4846 4930 161
4847 4736 171
4847 4841 8
4847 4848 3
4847 4848 3
4848 4847 3
4848 4847 3
4848 4870 24
4849 4841 26
4849 4869 108
4849 4878 27
4850 4851 124
4850 4846 6
4850 4882 29
4851 4850 124
4852 4819 373
4852 4888 210
4852 5160 280
4853 4805 76
4853 4776 344
4853 4909 60
4854 4816 61
4854 4832 48
4854 4857 11
4855 4842 30
4855 4800 68
4855 5023 133
4855 5411 577
4856 4820 61
4856 4837 54
4856 4884 36
4857 4854 11
4857 4890 51
4857 4915 50
4858 4840 32
4858 4871 64
4858 4895 31
4859 4743 157
4859 4889 22
4859 4873 131
4860 4825 97
4860 4880 35
4860 4937 71
4861 4814 70
4861 4886 17
4861 4910 53
4862 4863 96
4863 4862 96
4864 4764 158
4864 4928 75
4864 4930 58
4865 4866 159
4865 4793 93
4865 4793 93
4865 4959 119
4865 4959 119
4866 4865 159
4867 4835 47
4867 4909 35
4867 4915 66
4868 4836 90
4868 4843 339
4868 5107 230
4869 4849 108
4869 4879 75
4869 4893 17
4870 4848 24
4870 4875 5
4870 5060 152
4871 4858 64
4872 4766 135
4872 4991 55
4873 4826 152
4873 4874 61
4873 4859 131
4874 4873 61
4875 4870 5
4875 4887 18
4876 4877 83
4876 4881 149
4876 5052 138
4877 4876 83
4878 4849 27
4878 4887 23
4878 4893 104
4879 4869 75
4879 4885 42
4879 4896 13
4880 4860 35
4880 4707 216
4880 4894 34
4881 4876 149
4881 4834 49
4881 5008 104
4882 4883 122
4882 4850 29
4882 4990 105
4883 4882 122
4884 4856 36
4884 4944 101
4884 4960 67
4885 4879 42
4885 4635 254
4885 4914 275
4886 4861 17
4886 4906 13
4886 4924 54
4887 4875 18
4887 4878 23
4887 4965 66
4888 4418 512
4888 4852 210
4888 5102 183
4889 4859 22
4889 4929 52
4889 4984 85
4890 4837 59
4890 4857 51
4890 4960 106
4891 4892 172
4891 4901 70
4891 5066 185
4892 4891 172
4893 4878 104
4893 4869 17
4893 4896 77
4893 5104 181
4894 4880 34
4894 4970 156
4894 4971 68
4895 4858 31
4895 4903 3
4896 4893 77
4896 4879 13
4896 4897 7
4896 4912 8
4897 4896 7
4897 4898 39
4897 4946 44
4898 4897 39
4898 4920 268
4898 4942 37
4899 4900 35
4899 4911 28
4899 4929 71
4900 4899 35
4901 4891 70
4901 4710 220
4901 5022 154
4902 4731 190
4902 4763 292
4902 4922 33
4903 4895 3
4903 4932 72
4903 4976 69
4904 4905 42
4905 4904 42
4905 4746 177
4905 4957 139
4906 4886 13
4906 4917 126
4906 4968 68
4907 4908 322
4907 5187 260
4908 4907 322
4909 4867 35
4909 4853 60
4909 5049 252
4910 4861 53
4910 4839 164
4910 4924 13
4910 4976 97
4911 4899 28
4912 4896 8
4913 4825 99
4913 4933 26
4913 4934 52
4914 4885 275
4914 4655 260
4914 4916 25
4914 4920 6
4915 4857 50
4915 4867 66
4915 4941 50
4916 4914 25
4916 4918 117
4916 4925 6
4917 4906 126
4918 4916 117
4918 4919 262
4918 4921 8
4919 4918 262
4920 4898 268
4920 4914 6
4920 4925 26
4920 5305 363
4921 4918 8
4921 4931 6
4921 4943 351
4922 4923 183
4922 4902 33
4922 5016 160
4923 4922 183
4924 4886 54
4924 4910 13
4924 4939 21
4924 4954 114
4925 4920 26
4925 4916 6
4925 4931 125
4925 5288 349
4926 4927 73
4926 4964 396
4926 5141 333
4927 4926 73
4927 4786 67
4928 4864 75
4929 4889 52
4929 4899 71
4929 5016 74
4930 4846 161
4930 4864 58
4930 5011 89
4931 4925 125
4931 4921 6
4931 4947 351
4931 5272 320
4932 4903 72
4933 4913 26
4933 4935 11
4933 4985 92
4934 4913 52
4935 4936 52
4935 4933 11
4935 4952 23
4936 4935 52
4937 4938 45
4937 4860 71
4937 4951 16
4938 4937 45
4939 4940 30
4939 4924 21
4939 4954 13
4940 4939 30
4941 4915 50
4942 4898 37
4943 4921 351
4943 4845 83
4943 4944 0
4944 4943 0
4944 4884 101
4944 4947 5
4945 4803 135
4945 4950 41
4945 5098 138
4946 4897 44
4947 4931 351
4947 4944 5
4947 5105 135
4948 4755 323
4948 4959 12
4948 5087 142
4949 4794 200
4949 4956 10
4949 5184 289
4950 4945 41
4951 4937 16
4951 4974 22
4951 4981 33
4952 4953 33
4952 4935 23
4952 4994 41
4953 4952 33
4954 4955 32
4954 4939 13
4954 4924 114
4954 5009 45
4955 4954 32
4956 4949 10
4956 4842 131
4956 5023 115
4956 5209 306
4957 4905 139
4957 5098 125
4958 4623 379
4958 5136 169
4958 5139 170
4959 4948 12
4959 4865 119
4959 4865 119
4959 5083 188
4960 4884 67
4960 4890 106
4960 5049 68
4961 4962 138
4962 4961 138
4962 4963 421
4962 4969 65
4962 4973 7
4963 4962 421
4964 4926 396
4965 4887 66
4965 4966 72
4965 5321 357
4966 4965 72
4967 4787 171
4968 4906 68
4968 5007 36
4968 5010 49
4969 4962 65
4970 4894 156
4970 4990 34
4970 5025 43
4971 4894 68
4972 4973 137
4973 4972 137
4973 4962 7
4973 4980 66
4973 4983 7
4974 4975 49
4974 4951 22
4974 4977 9
4975 4974 49
4976 4910 97
4976 4903 69
4976 4999 24
4977 4974 9
4977 4985 8
4977 5012 49
4978 4979 49
4979 4978 49
4979 5042 57
4979 5236 313
4980 4973 66
4981 4951 33
4982 4983 127
4983 4982 127
4983 4973 7
4983 4987 65
4983 4989 7
4984 4889 85
4984 4986 40
4984 5046 52
4985 4933 92
4985 4977 8
4985 5024 36
4986 4984 40
4987 4983 65
4988 4989 119
4989 4988 119
4989 4983 7
4989 4993 67
4989 4997 7
4990 4970 34
4990 4882 105
4990 4998 7
4991 4992 189
4991 4872 55
4992 4991 189
4993 4989 67
4994 4995 27
4994 4952 41
4994 5005 11
4995 4994 27
4996 4997 109
4997 4996 109
4997 4989 7
4997 5002 67
4997 5004 7
4998 4990 7
4998 5030 28
4998 5048 67
4999 4976 24
4999 5026 24
4999 5001 119
5000 5001 36
5001 5000 36
5001 4999 119
5001 5071 109
5002 4997 67
5003 5004 101
5004 5003 101
5004 4997 7
5004 5017 67
5004 5019 7
5005 5006 17
5005 4994 11
5005 5086 87
5006 5005 17
5007 4968 36
5007 5033 55
5007 5034 21
5008 4881 104
5008 5072 266
5008 5129 138
5009 4954 45
5009 5010 33
5009 5026 89
5009 5035 18
5010 4968 49
5010 5009 33
5010 5033 15
5011 4930 89
5011 5068 83
5011 5082 77
5012 4977 49
5013 5014 90
5013 5015 49
5013 5065 39
5014 5013 90
5015 5013 49
5016 4929 74
5016 4922 160
5016 5046 102
5017 5004 67
5018 5019 87
5019 5018 87
5019 5004 7
5019 5027 66
5019 5029 7
5020 5021 1
5021 5020 1
5021 5022 11
5021 5041 23
5022 4901 154
5022 5021 11
5022 5051 29
5023 4956 115
5023 4855 133
5023 5215 256
5023 5395 416
5024 4985 36
5024 5059 39
5024 5085 153
5025 4970 43
5026 5009 89
5026 4999 24
5026 5096 115
5027 5019 66
5028 5029 75
5029 5028 75
5029 5019 7
5029 5036 66
5029 5038 7
5030 4998 28
5031 5032 394
5031 4737 136
5032 5031 394
5033 5007 55
5033 5010 15
5033 5058 20
5034 5007 21
5034 5057 23
5034 5058 71
5035 5009 18
5036 5029 66
5037 5038 64
5038 5037 64
5038 5029 7
5038 5043 67
5038 5045 7
5039 5040 114
5039 5056 49
5039 5075 66
5040 5039 114
5041 5021 23
5041 5047 6
5041 5060 66
5042 4979 57
5043 5038 67
5044 5045 53
5045 5044 53
5045 5038 7
5045 5050 68
5045 5054 8
5046 4984 52
5046 5016 102
5046 5055 11
5047 5041 6
5047 5051 27
5047 5060 66
5048 4998 67
5048 5082 62
5048 5088 51
5049 4960 68
5049 4909 252
5049 5105 137
5049 5443 455
5050 5045 68
5051 5022 29
5051 5047 27
5051 5099 104
5052 4876 138
5053 5054 39
5054 5053 39
5054 5045 8
5054 5062 70
5054 5064 7
5055 5046 11
5055 5065 57
5055 5117 79
5056 5039 49
5056 5057 3
5056 5111 110
5057 5056 3
5057 5034 23
5057 5061 2
5058 5034 71
5058 5033 20
5058 5084 32
5059 5024 39
5059 5077 25
5059 5080 52
5060 5047 66
5060 5041 66
5060 4870 152
5060 5280 238
5061 5057 2
5061 5078 44
5061 5106 99
5062 5054 70
5063 5064 28
5064 5063 28
5064 5054 7
5064 5069 69
5064 5070 7
5065 5013 39
5065 5055 57
5065 5071 37
5066 4891 185
5066 5067 0
5066 5067 4
5066 5079 22
5067 5066 0
5067 5066 4
5067 5079 22
5067 5090 93
5068 5011 83
5069 5064 69
5070 5064 7
5070 5076 69
5070 5083 20
5071 5001 109
5071 5065 37
5071 5097 216
5072 5008 266
5073 5074 557
5073 5113 45
5073 5119 63
5074 5073 557
5075 5039 66
5075 5093 30
5076 5070 69
5077 5059 25
5077 5116 54
5077 5125 126
5078 5061 44
5078 5081 21
5078 5092 18
5079 5066 22
5079 5067 22
5079 5186 188
5080 5059 52
5081 5078 21
5081 5084 20
5082 5048 62
5082 5011 77
5082 5089 8
5083 4959 188
5083 5070 20
5083 5091 11
5084 5081 20
5084 5058 32
5084 5094 27
5085 5024 153
5086 5005 87
5086 5127 93
5086 5205 132
5087 4948 142
5087 5283 616
5087 5414 339
5088 5048 51
5088 5115 30
5089 5082 8
5089 5161 154
5089 5192 107
5090 5067 93
5090 5099 77
5090 5132 84
5091 5083 11
5091 5095 16
5091 5112 318
5092 5078 18
5092 5110 61
5092 5128 44
5093 5075 30
5093 5111 32
5093 5126 45
5094 5084 27
5094 5096 9
5094 5110 15
5095 5091 16
5095 5114 178
5095 5363 470
5096 5094 9
5096 5026 115
5096 5097 63
5097 5071 216
5097 5096 63
5097 5384 259
5098 4957 125
5098 4945 138
5098 5151 73
5098 5201 114
5099 5090 77
5099 5051 104
5100 5101 64
5101 5100 64
5101 5103 64
5101 5104 91
5101 5140 44
5102 4888 183
5102 5160 241
5102 5482 349
5103 5101 64
5103 5138 42
5104 4893 181
5104 5101 91
5104 5303 199
5105 4947 135
5105 5049 137
5105 5272 384
5105 5528 444
5106 5061 99
5106 5131 53
5106 5150 81
5107 4868 230
5107 4828 327
5107 6565 2021
5108 5109 17
5108 5122 23
5108 5130 32
5109 5108 17
5110 5092 61
5110 5094 15
5110 5149 56
5111 5093 32
5111 5056 110
5111 5155 85
5112 5091 318
5112 4517 606
5112 5113 13
5112 5123 12
5113 5112 13
5113 5073 45
5113 5119 43
5113 5124 12
5114 5095 178
5114 5123 123
5114 5134 27
5115 5088 30
5116 5077 54
5116 5127 13
5116 5135 124
5117 5055 79
5117 5164 64
5118 4776 347
5118 5159 210
5118 5266 178
5119 5113 43
5119 5073 63
5119 5136 147
5120 5121 58
5121 5120 58
5121 5129 32
5121 5144 122
5122 5108 23
5122 5128 10
5122 5137 29
5123 5114 123
5123 5112 12
5123 5124 13
5123 5363 231
5124 5123 13
5124 5113 12
5124 5145 195
5124 5167 51
5125 5077 126
5126 5093 45
5126 5161 66
5127 5086 93
5127 5116 13
5127 5166 53
5128 5122 10
5128 5092 44
5128 5149 59
5129 5121 32
5129 5008 138
5129 5147 31
5130 5108 32
5130 5131 16
5130 5137 19
5131 5106 53
5131 5130 16
5131 5154 34
5132 5090 84
5132 5146 24
5132 5165 34
5133 5134 102
5133 5220 109
5134 5133 102
5134 5114 27
5134 5157 26
5134 5220 347
5135 5116 124
5135 5143 36
5135 5248 95
5136 5119 147
5136 4958 169
5136 5139 11
5136 5145 12
5137 5130 19
5137 5122 29
5137 5156 26
5138 5103 42
5138 5140 71
5138 5265 121
5139 5136 11
5139 4958 170
5139 5148 12
5139 5171 174
5140 5101 44
5140 5138 71
5140 5278 126
5141 4926 333
5141 5142 97
5141 5180 35
5142 5141 97
5143 5135 36
5143 5218 86
5143 5239 90
5144 5121 122
5145 5124 195
5145 5136 12
5145 5148 11
5145 5684 571
5146 5132 24
5146 5165 25
5147 5129 31
5147 5219 75
5147 5238 79
5148 5145 11
5148 5139 12
5148 5204 247
5148 5681 564
5149 5128 59
5149 5110 56
5149 5258 101
5150 5106 81
5150 5163 15
5150 5196 92
5151 5098 73
5151 5162 35
5151 5185 70
5151 5197 35
5152 4822 1313
5153 5154 29
5154 5153 29
5154 5131 34
5154 5158 3
5155 5111 85
5156 5137 26
5156 5173 16
5157 5134 26
5157 5202 88
5157 5202 204
5158 5154 3
5158 5173 28
5158 5196 28
5159 5118 210
5159 5230 238
5159 5456 319
5160 5102 241
5160 4852 280
5160 5179 92
5161 5089 154
5161 5126 66
5161 5168 6
5161 5199 66
5162 5151 35
5162 4664 667
5162 5184 15
5163 5150 15
5164 5117 64
5164 5183 47
5164 5208 38
5165 5132 34
5165 5146 25
5165 5186 25
5165 5186 25
5166 5127 53
5166 5182 63
5166 5195 27
5167 5124 51
5167 5365 181
5167 5535 423
5168 5161 6
5168 5169 3
5169 5168 3
5169 5178 0
5170 4755 706
5171 5139 174
5171 5172 134
5171 5187 38
5172 5171 134
5173 5158 28
5173 5156 16
5173 5213 32
5174 5175 19
5174 5176 164
5174 5208 23
5175 5174 19
5176 5174 164
5177 5178 4
5177 5214 57
5178 5177 4
5178 5169 0
5179 5160 92
5179 5353 156
5180 5181 404
5180 5141 35
5180 5274 153
5180 5352 195
5181 5180 404
5181 5350 144
5182 5166 63
5183 5164 47
5184 5162 15
5184 4949 289
5184 5200 13
5185 5151 70
5185 5201 32
5186 5079 188
5186 5165 25
5186 5165 25
5187 5171 38
5187 4907 260
5187 5198 39
5188 4843 345
5189 5190 26
5190 5189 26
5190 15180 87
5191 5192 27
5192 5191 27
5192 5089 107
5192 5223 31
5192 5237 68
5193 5194 536
5193 5517 342
5194 5193 536
5195 5166 27
5195 5203 25
5195 5232 66
5196 5150 92
5196 5158 28
5196 5212 20
5197 5151 35
5197 5200 31
5197 5253 294
5197 5390 170
5198 5187 39
5198 5204 5
5198 5219 116
5199 5161 66
5199 5221 36
5199 5237 66
5200 5184 13
5200 5197 31
5200 5207 7
5200 5534 307
5201 5098 114
5201 5185 32
5201 5238 338
5202 5157 88
5202 5220 26
5202 5157 204
5203 5195 25
5204 5148 247
5204 5198 5
5204 5227 124
5204 5538 303
5205 5206 6
5205 5086 132
5205 5232 59
5206 5205 6
5207 5200 7
5207 5209 5
5207 5209 5
5208 5174 23
5208 5164 38
5208 5264 65
5209 5207 5
5209 5207 5
5209 4956 306
5209 5215 160
5209 5532 299
5210 5211 11
5211 5210 11
5211 5217 32
5212 5196 20
5212 5213 10
5212 5213 10
5212 5250 39
5213 5212 10
5213 5212 10
5213 5173 32
5213 5258 69
5214 5177 57
5214 5251 42
5214 5254 60
5215 5209 160
5215 5023 256
5215 5381 154
5216 5217 10
5217 5216 10
5217 5211 32
5218 5143 86
5219 5198 116
5219 5147 75
5219 5238 74
5220 5133 109
5220 5202 26
5220 5134 347
5221 5199 36
5221 5226 34
5221 5233 13
5222 5223 26
5223 5222 26
5223 5192 31
5223 5244 17
5224 5225 16
5224 5246 38
5224 5273 100
5225 5224 16
5226 5221 34
5226 5228 5
5227 5204 124
5227 5243 40
5227 5377 129
5228 5226 5
5228 5229 18
5228 5251 24
5229 5228 18
5230 5159 238
5230 4430 807
5230 5231 9
5230 5714 505
5231 5230 9
5231 4427 1084
5231 5235 137
5231 5862 671
5232 5205 59
5232 5195 66
5232 5245 52
5232 5392 156
5233 5234 30
5233 5221 13
5233 5293 72
5234 5233 30
5235 5231 137
5236 4979 313
5236 5283 353
5236 5423 165
5237 5192 68
5237 5199 66
5237 5279 44
5238 5219 74
5238 5147 79
5238 5201 338
5239 5143 90
5240 5241 24
5241 5240 24
5241 5242 22
5241 5250 13
5242 5241 22
5243 5227 40
5243 5255 28
5243 5298 66
5244 5223 17
5244 5259 25
5244 5277 39
5245 5232 52
5245 5260 92
5245 5322 365
5246 5247 9
5246 5224 38
5246 5270 21
5247 5246 9
5248 5249 88
5248 5135 95
5249 5248 88
5250 5241 13
5250 5212 39
5250 5252 3
5251 5228 24
5251 5214 42
5251 5262 11
5251 5276 58
5252 5250 3
5252 5286 53
5253 5197 294
5253 5261 93
5253 5271 20
5254 5214 60
5255 5243 28
5255 5261 42
5255 5299 60
5256 5257 15
5256 5269 12
5256 15180 151
5257 5256 15
5258 5213 69
5258 5149 101
5258 5290 62
5259 5244 25
5260 5245 92
5261 5255 42
5261 5253 93
5261 5306 58
5262 5263 40
5262 5251 11
5262 5296 56
5263 5262 40
5264 5208 65
5264 5319 134
5264 5394 132
5265 5138 121
5265 5278 124
5265 5304 53
5266 5118 178
5266 5443 226
5266 5456 229
5267 5268 24
5268 5267 24
5269 5256 12
5270 5246 21
5271 5253 20
5271 5287 43
5271 5310 72
5272 4931 320
5272 5105 384
5272 5285 40
5272 5408 177
5273 5224 100
5274 5180 153
5274 5275 172
5274 5330 84
5274 5428 169
5275 5274 172
5276 5251 58
5276 5281 19
5276 5301 31
5277 5244 39
5277 5284 36
5277 5318 40
5278 5140 126
5278 5265 124
5278 5303 101
5279 5237 44
5279 5294 12
5280 5060 238
5280 5320 41
5280 5326 72
5281 5276 19
5281 5282 38
5281 5286 23
5282 5281 38
5283 5236 353
5283 5087 616
5283 5316 203
5283 5678 368
5284 5277 36
5285 5272 40
5285 5288 75
5285 5379 153
5286 5281 23
5286 5252 53
5286 5289 7
5287 5271 43
5287 5292 9
5287 5292 9
5287 5309 33
5288 4925 349
5288 5285 75
5288 5305 57
5289 5286 7
5289 5324 47
5289 5327 26
5290 5291 33
5290 5258 62
5290 5324 31
5291 5290 33
5292 5287 9
5292 5287 9
5292 5308 16
5293 5294 36
5293 5233 72
5293 5315 16
5294 5293 36
5294 5295 16
5294 5279 12
5295 5294 16
5295 5315 33
5295 5336 24
5296 5262 56
5296 5302 4
5297 5298 19
5298 5297 19
5298 5243 66
5298 5299 28
5298 5398 63
5299 5298 28
5299 5255 60
5299 5300 2
5299 5391 61
5300 5299 2
5301 5276 31
5301 5327 42
5301 5403 85
5302 5296 4
5303 5104 199
5303 5278 101
5303 5325 14
5303 5329 236
5304 5265 53
5304 5325 229
5304 5379 167
5305 4920 363
5305 5288 57
5305 5379 51
5306 5261 58
5306 5307 15
5306 5422 83
5307 5306 15
5307 5309 23
5307 5421 82
5308 5292 16
5308 5309 36
5308 5310 76
5309 5307 23
5309 5287 33
5309 5308 36
5310 5308 76
5310 5271 72
5310 5311 25
5311 5310 25
5311 5312 3
5311 5312 3
5312 5311 3
5312 5311 3
5312 5313 120
5312 5380 48
5313 5312 120
5313 5314 101
5313 5389 51
5314 5313 101
5315 5295 33
5315 5293 16
5315 5356 36
5316 5283 203
5317 5318 41
5318 5317 41
5318 5277 40
5318 5364 37
5319 5264 134
5319 5354 48
5319 5354 81
5320 5280 41
5320 5321 7
5320 5326 41
5320 5332 6
5321 5320 7
5321 4965 357
5321 5328 5
5321 5329 37
5322 5245 365
5322 5323 126
5322 5364 175
5323 5322 126
5324 5289 47
5324 5290 31
5324 5346 26
5325 5303 14
5325 5304 229
5325 5610 261
5326 5280 72
5326 5320 41
5326 5334 25
5327 5301 42
5327 5289 26
5327 5346 39
5328 5321 5
5328 5329 38
5328 5332 7
5328 5366 34
5329 5328 38
5329 5321 37
5329 5303 236
5330 5274 84
5330 5331 471
5330 5399 87
5331 5330 471
5332 5320 6
5332 5328 7
5332 5339 40
5332 5376 37
5333 5334 119
5333 5335 120
5333 5338 125
5334 5333 119
5334 5326 25
5334 5335 2
5334 5343 10
5335 5333 120
5335 5334 2
5335 5338 12
5335 5344 10
5336 5337 12
5336 5295 24
5336 5360 23
5337 5336 12
5337 15181 4
5338 5333 125
5338 5335 12
5338 5345 9
5338 5435 235
5339 5332 40
5339 5342 7
5339 5376 45
5340 5341 16
5341 5340 16
5341 5349 14
5341 15182 72
5341 15183 72
5342 5339 7
5342 5343 18
5342 5378 36
5343 5334 10
5343 5342 18
5343 5344 3
5343 5371 21
5344 5335 10
5344 5343 3
5344 5345 13
5344 5370 21
5345 5338 9
5345 5344 13
5345 5367 17
5345 5375 95
5346 5327 39
5346 5324 26
5346 5368 24
5347 5348 20
5347 15180 210
5348 5347 20
5349 5341 14
5350 5351 441
5350 5181 144
5351 5350 441
5352 5180 195
5352 5561 263
5352 5627 319
5353 5179 156
5353 5404 385
5353 5746 403
5354 5355 35
5354 5319 48
5354 5319 81
5355 5354 35
5356 5315 36
5356 5357 10
5356 5382 43
5357 5356 10
5358 5359 55
5358 5374 48
5358 5444 79
5359 5358 55
5359 5444 161
5360 5336 23
5360 5388 50
5360 5478 130
5360 5487 115
5361 5362 29
5362 5361 29
5363 5095 470
5363 5123 231
5363 5585 204
5364 5322 175
5364 5318 37
5364 5429 58
5365 5167 181
5365 5651 328
5365 5695 316
5366 5328 34
5366 5724 350
5367 5345 17
5367 5370 14
5367 5393 85
5367 5430 56
5368 5346 24
5368 5369 80
5368 5427 68
5369 5368 80
5369 5384 166
5369 5489 115
5370 5367 14
5370 5344 21
5370 5371 3
5370 5420 39
5371 5370 3
5371 5343 21
5371 5378 41
5371 5412 36
5372 5373 13
5372 5406 20
5372 5453 169
5373 5372 13
5374 5358 48
5374 5406 82
5374 5506 132
5375 5345 95
5375 5393 12
5375 5460 156
5376 5339 45
5376 5332 37
5376 5378 18
5376 5635 246
5377 5227 129
5377 5396 9
5378 5371 41
5378 5342 36
5378 5376 18
5378 5412 54
5378 5462 93
5378 5510 139
5379 5304 167
5379 5305 51
5379 5285 153
5379 5622 233
5379 5623 232
5380 5312 48
5380 5386 2
5380 5386 4
5381 5215 154
5381 5410 39
5381 5470 137
5382 5356 43
5382 5383 22
5382 5385 1
5383 5382 22
5384 5369 166
5384 5097 259
5384 5387 1
5384 5394 103
5385 5382 1
5385 5403 32
5385 5407 20
5386 5380 2
5386 5380 4
5386 5389 120
5386 5409 25
5387 5384 1
5387 5501 113
5388 5360 50
5389 5386 120
5389 5313 51
5389 5390 75
5390 5389 75
5390 5197 170
5390 5676 273
5391 5299 61
5391 5434 46
5392 5232 156
5392 5426 42
5393 5375 12
5393 5367 85
5393 5451 126
5393 5459 77
5394 5384 103
5394 5264 132
5394 5401 47
5394 5617 227
5395 5023 416
5395 5411 142
5395 5419 60
5396 5397 106
5396 5377 9
5396 5398 38
5396 5432 43
5397 5396 106
5397 5469 80
5398 5396 38
5398 5298 63
5398 5413 23
5399 5330 87
5399 5400 341
5399 5428 54
5399 5475 140
5400 5399 341
5401 5394 47
5401 5402 51
5401 5484 116
5402 5401 51
5403 5385 32
5403 5301 85
5403 5416 22
5404 4819 530
5404 5405 93
5404 5353 385
5404 5922 481
5405 5404 93
5406 5374 82
5406 5372 20
5406 5530 132
5407 5385 20
5408 5272 177
5408 5700 292
5409 5386 25
5409 5424 10
5409 5424 10
5410 5381 39
5411 5395 142
5411 4855 577
5411 5435 41
5411 5600 204
5412 5371 36
5412 5378 54
5412 5420 5
5412 5462 49
5413 5398 23
5413 5433 21
5414 5087 339
5414 5436 53
5414 5440 26
5415 5416 43
5416 5415 43
5416 5403 22
5416 5425 20
5417 5418 104
5418 5417 104
5418 5454 158
5418 5473 59
5419 5395 60
5420 5370 39
5420 5412 5
5420 5430 26
5420 5471 55
5421 5307 82
5421 5422 14
5421 5424 156
5422 5306 83
5422 5421 14
5422 5439 21
5423 5236 165
5423 5431 16
5423 5463 47
5424 5421 156
5424 5409 10
5424 5409 10
5424 5445 26
5425 5416 20
5425 5427 58
5425 5477 60
5426 5392 42
5426 5438 12
5426 5452 78
5427 5425 58
5427 5368 68
5427 5483 76
5428 5274 169
5428 5399 54
5428 5561 196
5429 5364 58
5429 5442 42
5429 5488 57
5430 5367 56
5430 5420 26
5430 5459 49
5430 5481 48
5431 5423 16
5431 5513 85
5431 5616 242
5432 5396 43
5432 5433 39
5432 5480 71
5432 5480 44
5433 5432 39
5433 5413 21
5433 5434 28
5433 5543 98
5434 5433 28
5434 5391 46
5434 5439 41
5434 5546 98
5435 5411 41
5435 5338 235
5435 5448 25
5436 5414 53
5437 5438 62
5438 5437 62
5438 5426 12
5438 5522 87
5439 5434 41
5439 5422 21
5439 5549 97
5440 5441 213
5440 5414 26
5440 5598 172
5441 5440 213
5442 5429 42
5443 5049 455
5443 5266 226
5443 5461 27
5444 5359 161
5444 5358 79
5444 5457 53
5445 5424 26
5446 5447 34
5446 5458 64
5446 5479 30
5447 5446 34
5448 5449 57
5448 5435 25
5448 5460 7
5448 5607 162
5449 5448 57
5450 5451 10
5451 5450 10
5451 5393 126
5451 5464 9
5451 5465 14
5452 5426 78
5453 5372 169
5453 5472 60
5453 5567 98
5454 5418 158
5454 5455 28
5454 5479 59
5454 5500 45
5455 5454 28
5456 5266 229
5456 5159 319
5456 5674 274
5456 5714 320
5457 5444 53
5458 5446 64
5459 5393 77
5459 5430 49
5459 5464 141
5459 5481 36
5459 5499 80
5460 5448 7
5460 5375 156
5460 5466 14
5460 5467 7
5461 5443 27
5461 5514 92
5461 5525 127
5462 5412 49
5462 5378 93
5462 5471 10
5462 5519 57
5463 5423 47
5464 5451 9
5464 5459 141
5464 5465 9
5464 5468 12
5465 5451 14
5465 5464 9
5465 5466 7
5465 5468 3
5466 5460 14
5466 5465 7
5466 5467 16
5466 5468 5
5467 5460 7
5467 5466 16
5467 5474 17
5467 5759 333
5468 5466 5
5468 5465 3
5468 5464 12
5468 5474 6
5469 5397 80
5470 5381 137
5470 5532 132
5470 5555 68
5471 5420 55
5471 5462 10
5471 5490 20
5471 5520 48
5472 5453 60
5473 5418 59
5474 5467 17
5474 5468 6
5474 5544 126
5474 5730 286
5475 5476 115
5475 5399 140
5475 5536 81
5476 5475 115
5477 5425 60
5477 5487 102
5477 5512 43
5478 5360 130
5478 5487 42
5478 5504 27
5479 5454 59
5479 5446 30
5479 5523 48
5480 5432 71
5480 5432 44
5480 5542 55
5481 5459 36
5481 5430 48
5481 5490 21
5481 5917 517
5482 5102 349
5482 5486 131
5482 5696 205
5483 5427 76
5483 5489 57
5483 5550 57
5484 5401 116
5484 5485 36
5484 5491 15
5485 5484 36
5486 5482 131
5487 5478 42
5487 5360 115
5487 5477 102
5487 5511 30
5488 5429 57
5488 5498 34
5488 5533 42
5489 5483 57
5489 5369 115
5489 5505 44
5490 5481 21
5490 5471 20
5490 5520 30
5491 5492 47
5491 5484 15
5491 5518 29
5492 5491 47
5493 5494 88
5494 5493 88
5494 5495 33
5494 5570 72
5495 5494 33
5495 5588 136
5495 5597 105
5496 5497 17
5496 5500 13
5496 5557 45
5497 5496 17
5498 5488 34
5499 5459 80
5500 5496 13
5500 5454 45
5500 5545 75
5501 5387 113
5501 5503 6
5501 5507 8
5502 5503 78
5503 5502 78
5503 5501 6
5503 5529 25
5504 5478 27
5504 5511 49
5504 5608 98
5504 15187 98
5504 5669 11
5505 5489 44
5505 5524 45
5505 5579 72
5506 5374 132
5506 5530 87
5506 5704 355
5507 5501 8
5508 5509 40
5509 5508 40
5510 5378 139
5510 5519 57
5510 5638 114
5511 5504 49
5511 5487 30
5511 5560 24
5512 5477 43
5512 5550 134
5512 5556 23
5513 5431 85
5514 5461 92
5514 5548 33
5514 5573 49
5515 5516 42
5515 5526 57
5515 5558 20
5516 5515 42
5517 5193 342
5517 5531 1253
5517 6343 848
5518 5491 29
5518 5521 48
5518 5563 25
5519 5462 57
5519 5510 57
5519 5520 6
5519 5628 132
5520 5490 30
5520 5471 48
5520 5519 6
5521 5518 48
5522 5438 87
5523 5479 48
5523 5545 11
5523 5552 98
5524 5505 45
5524 5553 23
5524 5580 45
5525 5461 127
5525 5528 2
5525 5548 14
5526 5515 57
5526 5527 28
5526 5541 39
5526 5565 20
5527 5526 28
5528 5105 444
5528 5525 2
5528 5540 7
5529 5503 25
5530 5506 87
5530 5406 132
5530 5567 112
5531 5517 1253
5532 5209 299
5532 5470 132
5532 5534 13
5532 5555 108
5533 5488 42
5533 5551 39
5533 5593 61
5534 5200 307
5534 5532 13
5534 5770 239
5535 5167 423
5535 5581 72
5535 5692 175
5536 5475 81
5536 5537 618
5536 5687 173
5537 5536 618
5538 5539 46
5538 5204 303
5538 5542 121
5539 5538 46
5540 5528 7
5540 5562 13
5540 5642 294
5541 5526 39
5542 5538 121
5542 5480 55
5542 5543 40
5543 5542 40
5543 5433 98
5543 5546 28
5544 5474 126
5545 5500 75
5545 5523 11
5545 5609 71
5546 5543 28
5546 5434 98
5546 5547 8
5547 5546 8
5547 5549 34
5547 5654 111
5548 5525 14
5548 5514 33
5548 5562 12
5548 5573 34
5549 5547 34
5549 5439 97
5549 5554 115
5550 5512 134
5550 5483 57
5550 5630 94
5551 5533 39
5552 5523 98
5553 5524 23
5554 5549 115
5555 5532 108
5555 5470 68
5555 5577 136
5556 5512 23
5556 5568 35
5556 5569 22
5557 5496 45
5558 5559 44
5558 5515 20
5558 5565 57
5558 5582 31
5559 5558 44
5560 5511 24
5560 5569 77
5560 5584 30
5561 5352 263
5561 5428 196
5561 5627 412
5561 5685 156
5562 5540 13
5562 5548 12
5562 5631 188
5562 5786 266
5563 5564 67
5563 5518 25
5563 5571 20
5563 5591 89
5564 5563 67
5565 5558 57
5565 5526 20
5565 5566 39
5565 5587 31
5566 5565 39
5567 5530 112
5567 5453 98
5567 5585 89
5568 5556 35
5569 5560 77
5569 5556 22
5569 5648 89
5570 5494 72
5570 5589 61
5570 5606 41
5571 5572 47
5571 5563 20
5571 5590 18
5572 5571 47
5573 5548 34
5573 5514 49
5573 5779 231
5574 5575 179
5574 5601 77
5575 5574 179
5575 5576 81
5575 5605 36
5575 5609 186
5576 5575 81
5577 5555 136
5577 5578 108
5577 5607 195
5578 5577 108
5579 5505 72
5580 5524 45
5581 5535 72
5581 5621 73
5581 5876 273
5582 5583 44
5582 5558 31
5582 5587 57
5582 5594 19
5583 5582 44
5584 5560 30
5584 5586 40
5584 5615 35
5585 5567 89
5585 5363 204
5585 5884 286
5586 5584 40
5587 5582 57
5587 5565 31
5587 5604 19
5588 5495 136
5588 5597 34
5588 5612 26
5589 4822 754
5589 5570 61
5589 5624 46
5590 5571 18
5590 5614 33
5591 5563 89
5591 5592 22
5591 5640 53
5592 5591 22
5593 5533 61
5593 5596 32
5593 5641 49
5594 5595 45
5594 5582 19
5594 5604 56
5594 5616 17
5595 5594 45
5596 5593 32
5597 5495 105
5597 5588 34
5597 5606 30
5598 5599 66
5598 5440 172
5598 5650 129
5598 5663 64
5599 5598 66
5600 5411 204
5601 5574 77
5601 5605 179
5602 5603 40
5602 5617 54
5603 5602 40
5604 5594 56
5604 5587 19
5604 5626 24
5605 5575 36
5605 5601 179
5605 5644 42
5606 5570 41
5606 5597 30
5606 5624 52
5607 5577 195
5607 5448 162
5607 5826 461
5607 15190 461
5608 5504 98
5608 15187 98
5608 5615 67
5608 5625 19
5609 5575 186
5609 5545 71
5609 5611 7
5610 5325 261
5610 5620 244
5610 5780 179
5611 5609 7
5611 5641 211
5611 5680 64
5612 5588 26
5613 5614 95
5614 5613 95
5614 5590 33
5614 5634 39
5615 5608 67
5615 5584 35
5615 5637 25
5616 5431 242
5616 5594 17
5616 5626 58
5617 5602 54
5617 5394 227
5617 5675 56
5618 5619 167
5619 5618 167
5620 5610 244
5620 5622 143
5620 5766 150
5621 5581 73
5621 5684 131
5621 5691 68
5622 5379 233
5622 5623 15
5622 5620 143
5622 5742 125
5623 5622 15
5623 5379 232
5623 5719 222
5623 5736 122
5624 5589 46
5624 5606 52
5624 5827 224
5625 5608 19
5625 5629 53
5625 5677 47
5626 5616 58
5626 5604 24
5626 5678 164
5627 5352 319
5627 5561 412
5627 5953 302
5628 5519 132
5628 5639 80
5628 5683 67
5628 5798 237
5629 5625 53
5629 5637 20
5629 5677 95
5630 5550 94
5630 5636 39
5630 5646 12
5631 5562 188
5631 5656 67
5631 5817 186
5632 5633 13
5632 5644 163
5632 5706 75
5633 5632 13
5634 5614 39
5634 5682 80
5634 5686 95
5635 5376 246
5635 5638 14
5635 5725 97
5636 5630 39
5637 5629 20
5637 5615 25
5637 5645 36
5637 5707 72
5638 5510 114
5638 5635 14
5638 5639 34
5639 5628 80
5639 5638 34
5639 5683 56
5640 5591 53
5640 5649 22
5640 5682 56
5641 5611 211
5641 5593 49
5641 5664 18
5642 5643 309
5642 5540 294
5642 5700 213
5643 5642 309
5644 5605 42
5644 5657 62
5644 5632 163
5645 5637 36
5645 5648 15
5645 5699 56
5646 5630 12
5646 5647 24
5646 5660 10
5647 5646 24
5648 5645 15
5648 5569 89
5648 5672 86
5649 5640 22
5650 5598 129
5651 5365 328
5651 5652 121
5651 5665 13
5652 5651 121
5653 5654 157
5654 5653 157
5654 5547 111
5654 5655 133
5654 5723 74
5655 5654 133
5656 5631 67
5656 5690 143
5656 5990 275
5657 5644 62
5657 5680 138
5658 5659 56
5658 5670 27
5659 5658 56
5659 5673 31
5660 5646 10
5660 5666 68
5660 5710 55
5661 5662 100
5662 5661 100
5662 5727 99
5663 5598 64
5663 5731 207
5663 5765 125
5664 5641 18
5664 5668 78
5664 5783 126
5665 5651 13
5665 5692 36
5665 5926 245
5666 5660 68
5666 5667 34
5666 5673 27
5667 5666 34
5668 5664 78
5668 5669 158
5668 15186 158
5668 5697 39
5669 5668 158
5669 15186 158
5669 5504 11
5670 5658 27
5670 5671 44
5670 5679 20
5671 5670 44
5672 5648 86
5672 5694 22
5672 5710 97
5673 5666 27
5673 5659 31
5673 5758 133
5674 5456 274
5674 5779 158
5675 5617 56
5675 5698 29
5676 5390 273
5676 5772 104
5676 5828 161
5677 5625 47
5677 5629 95
5677 5697 22
5678 5626 164
5678 5283 368
5678 5731 182
5679 5670 20
5679 5689 40
5679 5785 144
5680 5657 138
5680 5611 64
5680 5713 325
5681 5148 564
5681 5684 8
5681 5910 221
5682 5634 80
5682 5640 56
5682 5701 46
5682 5747 165
5683 5628 67
5683 5639 56
5683 5798 165
5683 5957 232
5684 5145 571
5684 5681 8
5684 5621 131
5684 5912 216
5685 5561 156
5685 5708 189
5685 5756 206
5685 5961 237
5686 5634 95
5686 5705 25
5686 5740 85
5687 5536 173
5687 5688 802
5687 5815 121
5688 5687 802
5689 5679 40
5689 5698 41
5690 5656 143
5690 5726 185
5690 6009 262
5691 5621 68
5692 5665 36
5692 5535 175
5692 5702 21
5693 4838 783
5693 5696 10
5693 6063 294
5694 5672 22
5694 5699 112
5694 5729 92
5694 5781 94
5695 5365 316
5695 5715 185
5695 5890 174
5696 5693 10
5696 5482 205
5696 5711 81
5696 6020 263
5697 5668 39
5697 5677 22
5697 5739 54
5698 5689 41
5698 5675 29
5698 5737 49
5699 5645 56
5699 5694 112
5699 5707 22
5699 5738 47
5700 5408 292
5700 5642 213
5700 5719 70
5701 5682 46
5701 5716 56
5701 5752 58
5702 5692 21
5702 5703 136
5702 5720 24
5703 5702 136
5704 5506 355
5705 5686 25
5706 5632 75
5706 5713 125
5706 5735 36
5707 5637 72
5707 5699 22
5707 5717 12
5708 5685 189
5708 5709 54
5708 5859 132
5709 5708 54
5710 5672 97
5710 5660 55
5710 5712 6
5711 5696 81
5711 5746 106
5711 6022 246
5712 5710 6
5712 5728 39
5713 5706 125
5713 5680 325
5713 5893 177
5714 5456 320
5714 5230 505
5714 5852 161
5715 5695 185
5716 5701 56
5716 5722 42
5716 5857 121
5717 5718 33
5717 5707 12
5717 5732 20
5718 5717 33
5719 5623 222
5719 5700 70
5719 5736 132
5720 5702 24
5720 5721 135
5720 5733 25
5720 5754 41
5721 5720 135
5722 5716 42
5722 5727 35
5722 5818 86
5723 5654 74
5723 5744 22
5723 5748 35
5724 5366 350
5724 5757 37
5724 5769 88
5725 5635 97
5725 5757 44
5725 5784 54
5726 5690 185
5726 5753 132
5726 6256 435
5727 5722 35
5727 5662 99
5727 5760 102
5728 5712 39
5728 5758 59
5728 5806 64
5729 5694 92
5730 5474 286
5730 5778 54
5730 5836 90
5731 5678 182
5731 5663 207
5731 5765 86
5732 5717 20
5732 5738 19
5732 5796 49
5733 5720 25
5733 5734 145
5733 5774 37
5733 5782 48
5734 5733 145
5735 5706 36
5736 5623 122
5736 5719 132
5736 5742 13
5736 5753 11
5737 5698 49
5737 5740 2
5737 5833 80
5738 5732 19
5738 5699 47
5738 5741 41
5738 5799 44
5739 5697 54
5739 5745 39
5739 5788 40
5740 5737 2
5740 5686 85
5740 5750 36
5741 5738 41
5742 5622 125
5742 5736 13
5742 5755 11
5742 5766 154
5743 5744 101
5744 5743 101
5744 5723 22
5744 5751 4
5744 5751 4
5745 5739 39
5746 5711 106
5746 5353 403
5746 5792 54
5747 5682 165
5747 5750 58
5747 5777 28
5748 5723 35
5748 5749 141
5748 5865 100
5749 5748 141
5750 5747 58
5750 5740 36
5750 5821 59
5751 5744 4
5751 5744 4
5752 5701 58
5753 5736 11
5753 5726 132
5753 5755 15
5754 5720 41
5755 5742 11
5755 5753 15
5755 5776 87
5756 5685 206
5757 5725 44
5757 5724 37
5757 5761 10
5757 5764 5
5758 5728 59
5758 5673 133
5758 5830 56
5759 5467 333
5759 5771 14
5759 5840 295
5760 5727 102
5760 5775 23
5760 5804 28
5761 5757 10
5761 5764 7
5761 5769 54
5761 5791 87
5762 5763 53
5762 5834 228
5762 5846 65
5763 5762 53
5764 5757 5
5764 5761 7
5764 5784 22
5764 5812 30
5765 5731 86
5765 5663 125
5766 5620 150
5766 5742 154
5766 5773 14
5766 5790 16
5767 5768 5
5767 5780 166
5767 5789 18
5768 5767 5
5768 5769 44
5768 5791 25
5769 5761 54
5769 5724 88
5769 5768 44
5770 5534 239
5770 5823 41
5770 5826 73
5771 5759 14
5771 5800 25
5771 6043 201
5772 5676 104
5772 5824 40
5772 5828 71
5773 5766 14
5773 5780 179
5774 5733 37
5775 5760 23
5775 5794 43
5775 5950 137
5776 5755 87
5776 5787 56
5776 5900 118
5777 5747 28
5777 5849 63
5777 5880 181
5778 5730 54
5779 5573 231
5779 5674 158
5779 5786 11
5779 6160 333
5780 5767 166
5780 5610 179
5780 5773 179
5781 5694 94
5782 5733 48
5782 5876 82
5782 5935 120
5783 5664 126
5783 5788 103
5783 5980 141
5784 5725 54
5784 5764 22
5784 6152 466
5785 5679 144
5786 5562 266
5786 5779 11
5786 6131 490
5786 6168 335
5787 5776 56
5787 5790 10
5787 5900 95
5788 5783 103
5788 5739 40
5788 5795 102
5788 5882 65
5789 5767 18
5789 5803 4
5789 5790 351
5790 5766 16
5790 5787 10
5790 5789 351
5790 5916 107
5791 5768 25
5791 5761 87
5791 5802 4
5792 5746 54
5792 5793 253
5792 5819 35
5793 5792 253
5794 5775 43
5794 5820 64
5794 5861 54
5795 5788 102
5795 5796 0
5796 5795 0
5796 5732 49
5796 5797 15
5796 5878 55
5797 5796 15
5797 5799 2
5797 5866 53
5798 5628 237
5798 5683 165
5798 5907 96
5798 6056 204
5799 5797 2
5799 5738 44
5799 5807 75
5800 5771 25
5800 5801 11
5800 5836 46
5801 5800 11
5802 5791 4
5802 5805 4
5803 5789 4
5803 5808 17
5803 5908 79
5804 5760 28
5805 5802 4
5805 5808 9
5805 5812 101
5806 5728 64
5806 5822 15
5806 5873 122
5807 5799 75
5808 5805 9
5808 5803 17
5808 6383 460
5809 5810 38
5809 5811 24
5809 5858 41
5810 5809 38
5811 5809 24
5812 5764 30
5812 5805 101
5812 6180 466
5813 5814 186
5814 5813 186
5814 5855 38
5815 5687 121
5815 5816 406
5815 5859 251
5815 6062 203
5816 5815 406
5817 5631 186
5818 5722 86
5819 5792 35
5819 5851 53
5819 6156 358
5820 5794 64
5820 5839 51
5820 5888 58
5821 5750 59
5822 5806 15
5822 5830 76
5822 5848 28
5823 5770 41
5823 5825 9
5823 5826 48
5823 5838 14
5824 5772 40
5824 5825 6
5824 5828 55
5824 5837 14
5825 5824 6
5825 5823 9
5826 5823 48
5826 5770 73
5826 5607 461
5826 15190 461
5827 5624 224
5827 5829 35
5827 5895 171
5827 6091 233
5828 5676 161
5828 5772 71
5828 5824 55
5828 5854 144
5829 5827 35
5829 5922 310
5829 6205 334
5830 5822 76
5830 5758 56
5830 5845 12
5831 5832 151
5831 5842 12
5832 5831 151
5832 5860 19
5832 5863 125
5833 5737 80
5833 5847 34
5833 5883 35
5834 5762 228
5834 5835 63
5834 5855 279
5834 5918 58
5835 5834 63
5836 5800 46
5836 5730 90
5836 5921 79
5837 5824 14
5837 5838 15
5837 5841 44
5837 5911 47
5838 5837 15
5838 5823 14
5838 5840 46
5838 5924 61
5839 5820 51
5839 5858 36
5839 5947 104
5840 5838 46
5840 5759 295
5840 5924 78
5841 5837 44
5841 5879 157
5841 5911 71
5842 5831 12
5842 5853 15
5842 5889 35
5843 5844 10
5844 5843 10
5844 5855 7
5844 15188 16
5845 5830 12
5845 5899 33
5845 5905 143
5846 5762 65
5846 5863 10
5846 5918 230
5846 5929 384
5847 5833 34
5848 5822 28
5849 5850 16
5849 5777 63
5849 5932 105
5850 5849 16
5851 5819 53
5851 5885 46
5851 5937 64
5852 5714 161
5852 5862 9
5852 6000 137
5853 5842 15
5853 5860 142
5853 5886 25
5854 5828 144
5854 5879 9
5854 5910 292
5855 5844 7
5855 5814 38
5855 5856 0
5855 5834 279
5856 5855 0
5857 5716 121
5858 5839 36
5858 5809 41
5858 5864 8
5859 5708 132
5859 5815 251
5859 6049 134
5860 5853 142
5860 5832 19
5860 6004 109
5861 5794 54
5862 5852 9
5862 5231 671
5862 5970 222
5862 6003 136
5863 5832 125
5863 5846 10
5863 5930 230
5863 6019 115
5864 5858 8
5864 5891 49
5864 5906 27
5865 5748 100
5866 5797 53
5866 5869 26
5866 5878 17
5866 5934 55
5867 5868 65
5867 5872 32
5867 5873 45
5868 5867 65
5869 5866 26
5869 5870 2
5869 5913 32
5870 5869 2
5870 5871 45
5870 5872 21
5871 5870 45
5872 5870 21
5872 5867 32
5872 5915 33
5873 5867 45
5873 5806 122
5873 5877 52
5873 5928 50
5874 5875 18
5874 15189 18
5875 5874 18
5875 15189 18
5876 5782 82
5876 5581 273
5876 5945 74
5877 5873 52
5878 5796 55
5878 5866 17
5878 5967 70
5879 5854 9
5879 5841 157
5879 5903 170
5879 6217 279
5880 5777 181
5880 5960 63
5881 5882 44
5882 5881 44
5882 5788 65
5882 5902 17
5883 5833 35
5883 5905 13
5883 5909 53
5884 5585 286
5884 5890 13
5884 5997 74
5885 5851 46
5885 5936 51
5885 5962 274
5886 5853 25
5886 5897 7
5886 5904 15
5887 5888 28
5888 5887 28
5888 5820 58
5888 5977 66
5889 5842 35
5889 5904 21
5889 5933 42
5890 5884 13
5890 5695 174
5890 5926 255
5890 6037 107
5891 5864 49
5891 5892 64
5891 5929 72
5892 5891 64
5893 5894 29
5893 5713 177
5893 5931 127
5894 5893 29
5895 5827 171
5895 5896 404
5895 6091 154
5895 6200 2308
5896 5895 404
5897 5886 7
5898 5899 24
5899 5898 24
5899 5845 33
5899 6002 71
5900 5787 95
5900 5776 118
5900 6256 355
5901 5902 55
5902 5901 55
5902 5882 17
5902 5985 60
5903 5879 170
5903 5920 119
5903 6248 294
5904 5889 21
5904 5886 15
5904 5914 17
5905 5883 13
5905 5845 143
5905 5940 32
5906 5864 27
5907 5798 96
5907 5917 75
5907 6005 87
5908 5803 79
5908 5916 453
5908 6134 190
5909 5883 53
5909 5919 34
5909 6014 91
5910 5681 221
5910 5854 292
5910 5912 14
5910 5920 10
5911 5841 71
5911 5837 47
5911 6259 295
5912 5684 216
5912 5910 14
5912 5923 10
5912 5945 241
5913 5869 32
5913 5915 22
5913 5941 23
5914 5904 17
5914 5925 27
5914 6057 114
5915 5913 22
5915 5872 33
5915 5928 65
5916 5790 107
5916 5908 453
5916 6157 240
5917 5481 517
5917 5907 75
5917 5921 17
5918 5846 230
5918 5834 58
5918 5930 10
5918 5997 254
5919 5909 34
5919 5927 31
5919 6073 119
5920 5910 10
5920 5903 119
5920 5923 13
5920 6305 328
5921 5836 79
5921 5917 17
5921 6005 70
5921 6043 147
5922 5404 481
5922 5829 310
5922 5962 127
5922 6333 350
5923 5912 10
5923 5920 13
5923 5964 236
5923 6306 329
5924 5838 61
5924 5840 78
5924 6243 260
5925 5914 27
5925 5946 33
5925 6075 114
5926 5890 255
5926 5665 245
5926 5935 131
5927 5919 31
5927 5932 20
5927 6038 74
5928 5915 65
5928 5873 50
5928 5975 29
5929 5891 72
5929 5846 384
5929 5933 13
5929 6016 68
5930 5863 230
5930 5918 10
5930 6017 249
5930 6087 119
5931 5893 127
5931 5944 62
5931 6120 160
5932 5927 20
5932 5849 105
5932 5942 30
5933 5929 13
5933 5889 42
5933 6025 70
5934 5866 55
5934 5941 12
5934 6053 79
5935 5926 131
5935 5782 120
5935 5945 128
5936 5885 51
5936 5937 77
5936 6032 78
5937 5851 64
5937 5936 77
5937 6033 64
5938 5939 13
5938 15194 13
5939 5938 13
5939 15194 13
5940 5905 32
5940 5955 36
5940 6010 54
5941 5934 12
5941 5913 23
5941 5949 19
5942 5932 30
5942 5943 60
5942 5948 18
5943 5942 60
5944 5931 62
5944 5954 34
5944 6136 163
5945 5935 128
5945 5876 74
5945 5912 241
5945 5964 15
5946 5925 33
5947 5839 104
5948 5942 18
5948 5956 39
5948 6044 65
5949 5941 19
5950 5775 137
5950 5971 86
5950 5974 14
5951 5952 15
5951 15196 15
5952 5951 15
5952 15196 15
5953 5627 302
5953 5973 13
5953 6018 769
5953 6076 205
5954 5944 34
5954 5987 102
5954 5987 213
5955 5940 36
5956 5948 39
5956 5959 28
5956 6041 56
5957 5683 232
5957 5958 98
5957 6056 112
5958 5957 98
5959 5956 28
5959 5960 12
5959 6011 48
5960 5959 12
5960 5880 63
5960 5965 31
5961 5685 237
5961 5969 27
5961 6049 120
5962 5885 274
5962 5922 127
5962 6238 251
5963 5964 342
5963 6037 269
5963 6021 420
5964 5963 342
5964 5945 15
5964 5923 236
5964 6021 55
5965 5960 31
5965 5976 22
5965 6045 58
5966 5967 39
5967 5966 39
5967 5878 70
5967 6051 58
5968 5969 221
5969 5968 221
5969 5961 27
5969 6013 38
5970 5862 222
5971 5950 86
5971 5972 19
5971 5977 28
5972 5971 19
5973 5953 13
5974 5950 14
5974 5979 10
5975 5928 29
5975 5983 3
5975 5991 58
5976 5965 22
5976 5981 4
5976 6124 136
5977 5971 28
5977 5888 66
5977 6029 41
5978 5979 47
5978 6001 64
5978 6295 298
5979 5978 47
5979 5974 10
5979 6079 81
5980 5783 141
5980 5985 111
5980 6031 42
5981 5976 4
5981 5982 80
5981 6001 47
5982 5981 80
5983 5984 16
5983 5975 3
5983 6060 59
5984 5983 16
5985 5980 111
5985 5902 60
5985 5986 97
5985 6035 39
5986 5985 97
5986 6042 40
5987 5954 102
5987 5954 213
5987 6036 56
5988 5989 72
5988 5990 30
5988 6097 89
5989 5988 72
5989 6009 68
5990 5988 30
5990 5656 275
5990 5992 30
5991 5975 58
5991 5999 32
5991 6024 30
5992 5990 30
5992 5993 40
5992 5998 25
5993 5992 40
5994 5995 107
5995 5994 107
5995 5996 60
5995 5998 12
5996 5995 60
5997 5884 74
5997 5918 254
5997 6017 22
5998 5992 25
5998 5995 12
5998 6050 42
5999 5991 32
5999 6008 40
5999 6047 60
6000 5852 137
6000 6003 7
6000 6160 207
6001 5981 47
6001 5978 64
6001 6132 127
6002 5899 71
6002 6006 37
6002 6010 107
6003 6000 7
6003 5862 136
6003 6026 45
6003 6170 209
6004 5860 109
6004 6019 72
6004 6129 116
6005 5921 70
6005 5907 87
6005 6130 137
6006 6002 37
6006 6008 19
6006 6093 110
6007 6008 63
6008 6007 63
6008 6006 19
6008 5999 40
6009 5690 262
6009 5989 68
6009 6209 168
6010 6002 107
6010 5940 54
6010 6048 24
6011 5959 48
6012 6013 219
6013 6012 219
6013 5969 38
6013 6027 11
6014 5909 91
6015 6016 98
6016 6015 98
6016 5929 68
6016 6133 118
6017 5930 249
6017 5997 22
6017 6141 119
6018 5953 769
6018 6444 664
6018 7579 1639
6019 6004 72
6019 5863 115
6019 6087 230
6019 6138 116
6020 5696 263
6020 6022 60
6020 6178 166
6020 15201 166
6021 5964 55
6021 5963 420
6021 6322 332
6022 5711 246
6022 6023 116
6022 6020 60
6023 6022 116
6024 5991 30
6025 5933 70
6025 6057 37
6025 6098 62
6026 6003 45
6026 6039 291
6026 6690 602
6027 6013 11
6027 6072 48
6027 6103 134
6028 6029 22
6029 6028 22
6029 5977 41
6029 6030 10
6030 6029 10
6030 6034 35
6030 6084 62
6031 5980 42
6031 6035 114
6031 6078 41
6032 5936 78
6032 6033 127
6032 6066 27
6033 5937 64
6033 6032 127
6033 6104 59
6034 6030 35
6034 6046 70
6034 6088 51
6035 6031 114
6035 5985 39
6035 6042 101
6035 6085 42
6036 5987 56
6036 6078 101
6036 6194 153
6037 5890 107
6037 5963 269
6037 6118 84
6038 5927 74
6039 6026 291
6039 6040 226
6039 6052 69
6039 6096 51
6040 6039 226
6041 5956 56
6041 6102 54
6042 6035 101
6042 5986 40
6042 6067 19
6043 5771 201
6043 5921 147
6043 6059 15
6044 5948 65
6045 5965 58
6046 6034 70
6047 5999 60
6048 6010 24
6048 6061 8
6048 6070 73
6049 5961 120
6049 5859 134
6049 6103 49
6050 5998 42
6051 5967 58
6051 6053 32
6051 6064 10
6052 6039 69
6053 6051 32
6053 5934 79
6053 6068 43
6054 6055 9
6054 6058 42
6054 6208 151
6055 6054 9
6056 5798 204
6056 5957 112
6056 6137 191
6057 6025 37
6057 5914 114
6057 6075 31
6058 6054 42
6058 6059 25
6058 6208 188
6059 6058 25
6059 6043 15
6059 6074 14
6060 5983 59
6060 6065 56
6060 6068 33
6061 6048 8
6061 6083 25
6062 5815 203
6062 6749 724
6063 5693 294
6063 6143 115
6064 6051 10
6064 6067 45
6064 6119 65
6065 6060 56
6066 6032 27
6066 6106 42
6066 6107 53
6067 6042 19
6067 6064 45
6067 6086 21
6068 6069 16
6068 6060 33
6068 6053 43
6068 6176 102
6069 6068 16
6070 6048 73
6070 6073 11
6070 6082 16
6071 6072 238
6072 6071 238
6072 6027 48
6072 6095 49
6072 6135 167
6073 6070 11
6073 5919 119
6073 6077 64
6074 6059 14
6074 6130 136
6075 6057 31
6075 5925 114
6075 6108 106
6076 5953 205
6077 6073 64
6077 6080 20
6077 6151 74
6078 6036 101
6078 6031 41
6078 6085 115
6078 6109 41
6079 5979 81
6079 6084 169
6079 6100 18
6080 6077 20
6080 6081 34
6080 6102 89
6081 6080 34
6082 6070 16
6083 6061 25
6083 6089 5
6083 6099 44
6084 6079 169
6084 6030 62
6084 6088 23
6085 6078 115
6085 6035 42
6085 6086 109
6085 6114 40
6086 6085 109
6086 6067 21
6086 6117 40
6087 6019 230
6087 5930 119
6087 6141 248
6087 6161 73
6088 6084 23
6088 6034 51
6088 6133 112
6089 6090 25
6089 6083 5
6089 6115 36
6090 6089 25
6091 5827 233
6091 5895 154
6091 6469 354
6092 6093 38
6093 6092 38
6093 6006 110
6093 6145 61
6094 6095 231
6095 6094 231
6095 6072 49
6095 6111 46
6095 6192 200
6096 6039 51
6097 5988 89
6098 6025 62
6098 6139 56
6098 6206 221
6099 6083 44
6100 6079 18
6100 6101 29
6100 6105 52
6100 6153 55
6101 6100 29
6102 6080 89
6102 6041 54
6102 6172 70
6103 6027 134
6103 6049 49
6103 6135 40
6104 6033 59
6104 6106 140
6104 6169 62
6105 6100 52
6106 6104 140
6106 6066 42
6106 6107 32
6106 6171 59
6107 6106 32
6107 6066 53
6107 6175 70
6108 6075 106
6109 6078 41
6109 6114 117
6109 6185 55
6110 6111 255
6111 6110 255
6111 6095 46
6111 6142 297
6111 6197 138
6112 6113 20
6112 6126 33
6112 6298 172
6113 6112 20
6114 6109 117
6114 6085 40
6114 6117 116
6114 6189 53
6115 6116 99
6115 6089 36
6115 6177 49
6116 6115 99
6117 6114 116
6117 6086 40
6117 6119 56
6118 6037 84
6118 6144 25
6118 6165 39
6119 6117 56
6119 6064 65
6119 6187 48
6120 6121 86
6120 5931 160
6120 6140 18
6121 6120 86
6122 6123 69
6122 6128 32
6122 6158 150
6123 6122 69
6124 6125 12
6124 5976 136
6124 6220 90
6125 6124 12
6126 6112 33
6126 6127 94
6126 6128 13
6127 6126 94
6128 6126 13
6128 6122 32
6128 6179 37
6129 6004 116
6129 6138 57
6129 6392 247
6130 6074 136
6130 6005 137
6130 6137 35
6130 6183 49
6131 5786 490
6131 6209 106
6131 6257 113
6132 6001 127
6132 6201 64
6132 6290 133
6133 6088 112
6133 6016 118
6133 6285 141
6134 5908 190
6134 6162 179
6134 6380 195
6135 6072 167
6135 6103 40
6135 6191 39
6136 5944 163
6137 6130 35
6137 6056 191
6137 6152 49
6137 6183 70
6138 6129 57
6138 6019 116
6138 6207 218
6138 6273 119
6139 6098 56
6139 6233 83
6139 6265 234
6140 6120 18
6140 6194 213
6141 6087 248
6141 6017 119
6141 6144 17
6141 6270 114
6142 6111 297
6143 6063 115
6143 15199 33
6144 6141 17
6144 6118 25
6144 6165 25
6144 6282 114
6145 6093 61
6145 6146 31
6145 6150 14
6146 6145 31
6146 6193 109
6146 6232 67
6147 6148 44
6148 6147 44
6148 6149 7
6148 6190 103
6148 6204 38
6149 6148 7
6150 6145 14
6150 6154 42
6151 6077 74
6152 6137 49
6152 5784 466
6152 6370 284
6153 6100 55
6153 6246 100
6153 6266 131
6154 6155 80
6154 6150 42
6154 6176 79
6154 6214 49
6155 6154 80
6156 5819 358
6157 5916 240
6157 6162 334
6157 6378 204
6158 6122 150
6158 6159 67
6158 6218 195
6158 6269 100
6159 6158 67
6160 5779 333
6160 6000 207
6160 6168 7
6160 6170 8
6161 6087 73
6161 6207 61
6161 6219 71
6162 6134 179
6162 6157 334
6162 6376 173
6163 6164 73
6163 6205 196
6163 6482 260
6164 6163 73
6165 6144 25
6165 6118 39
6165 6182 11
6165 6182 11
6166 6167 39
6166 6172 18
6166 6267 96
6167 6166 39
6168 5786 335
6168 6160 7
6168 6181 9
6168 6408 321
6169 6104 62
6169 6171 140
6169 6242 65
6170 6160 8
6170 6003 209
6170 6181 8
6170 6458 278
6171 6169 140
6171 6106 59
6171 6175 70
6171 6188 11
6172 6166 18
6172 6102 70
6173 6174 8
6173 15199 12
6174 6173 8
6175 6171 70
6175 6107 70
6175 6238 62
6176 6068 102
6176 6154 79
6176 6184 22
6177 6115 49
6177 6193 17
6177 6210 78
6178 6020 166
6178 15201 166
6178 6226 145
6178 6268 105
6179 6128 37
6180 5812 466
6180 6384 516
6180 6387 272
6181 6168 9
6181 6170 8
6181 6432 330
6181 6459 273
6182 6165 11
6182 6165 11
6182 6249 70
6183 6130 49
6183 6137 70
6183 6347 182
6184 6176 22
6184 6187 36
6184 6229 40
6185 6109 55
6185 6189 118
6185 6202 14
6186 6187 145
6186 6189 40
6186 6231 95
6187 6186 145
6187 6119 48
6187 6184 36
6187 6227 37
6188 6171 11
6189 6185 118
6189 6114 53
6189 6186 40
6190 6148 103
6191 6135 39
6191 6192 2
6191 6597 876
6192 6095 200
6192 6191 2
6192 6197 128
6193 6146 109
6193 6177 17
6193 6237 41
6194 6140 213
6194 6036 153
6194 6202 125
6195 6196 557
6196 6195 557
6196 6343 638
6196 6805 658
6197 6111 138
6197 6192 128
6197 6813 702
6198 6199 11
6198 15200 10
6199 6198 11
6200 5895 2308
6201 6132 64
6201 6220 24
6201 6271 72
6202 6194 125
6202 6185 14
6202 6280 75
6203 6204 67
6204 6203 67
6204 6148 38
6204 6225 96
6204 6240 35
6205 6163 196
6205 5829 334
6205 6213 41
6206 6098 221
6207 6138 218
6207 6161 61
6207 6253 64
6208 6054 151
6208 6058 188
6208 6215 7
6208 6336 106
6209 6009 168
6209 6131 106
6209 6244 55
6210 6177 78
6210 6211 36
6210 6212 11
6211 6210 36
6212 6210 11
6212 6264 100
6213 6205 41
6214 6154 49
6214 6216 48
6214 6230 15
6215 6208 7
6216 6214 48
6217 5879 279
6217 6221 3
6217 6224 7
6218 6158 195
6218 6260 43
6218 6332 386
6219 6161 71
6219 6261 45
6219 6270 218
6219 6270 218
6220 6124 90
6220 6201 24
6220 6258 49
6221 6217 3
6221 6224 6
6222 6223 43
6222 6228 49
6222 6269 128
6223 6222 43
6224 6221 6
6224 6217 7
6224 6248 116
6224 6259 223
6225 6204 96
6226 6178 145
6226 6241 194
6226 6289 56
6227 6187 37
6227 6364 111
6228 6222 49
6229 6184 40
6229 6363 109
6230 6214 15
6230 6250 24
6231 6186 95
6232 6146 67
6232 6237 79
6232 6254 26
6233 6139 83
6233 6294 60
6233 6372 233
6234 6235 55
6235 6234 55
6235 6236 98
6235 6264 35
6236 6235 98
6237 6232 79
6237 6193 41
6237 6251 19
6238 6175 62
6238 5962 251
6238 6247 16
6239 6240 65
6240 6239 65
6240 6204 35
6240 6262 116
6240 6275 37
6241 6226 194
6241 6242 59
6241 6321 63
6242 6169 65
6242 6241 59
6242 6245 161
6243 5924 260
6243 6281 34
6243 6303 83
6244 6209 55
6244 6288 149
6244 6324 108
6245 6242 161
6245 6247 85
6245 6328 63
6246 6153 100
6246 6266 57
6246 6406 124
6247 6245 85
6247 6238 16
6247 6333 128
6248 5903 294
6248 6224 116
6248 6293 36
6249 6182 70
6249 6276 404
6249 6313 49
6250 6230 24
6250 6255 46
6250 6308 43
6251 6237 19
6251 6252 19
6251 6254 86
6251 6287 26
6252 6251 19
6253 6207 64
6253 6261 29
6253 6350 74
6254 6232 26
6254 6251 86
6254 6283 21
6255 6250 46
6255 6283 59
6256 5900 355
6256 5726 435
6256 6351 84
6257 6131 113
6257 6288 21
6257 6562 280
6258 6220 49
6258 6271 36
6258 6304 39
6259 6224 223
6259 5911 295
6259 6272 10
6260 6218 43
6260 6307 34
6260 6314 60
6260 6346 77
6261 6253 29
6261 6219 45
6262 6240 116
6262 6263 80
6262 6340 53
6263 6262 80
6264 6212 100
6264 6235 35
6264 6267 64
6265 6139 234
6266 6153 131
6266 6246 57
6266 6297 50
6267 6166 96
6267 6264 64
6267 6304 89
6267 6309 28
6268 6178 105
6268 6279 95
6268 6468 154
6269 6222 128
6269 6158 100
6269 6334 42
6270 6219 218
6270 6219 218
6270 6141 114
6270 6278 6
6270 6423 114
6271 6258 36
6271 6201 72
6271 6286 27
6272 6259 10
6272 6281 13
6272 6291 12
6273 6138 119
6273 6350 237
6273 6392 84
6274 6275 39
6275 6274 39
6275 6240 37
6275 6301 77
6275 6337 42
6276 6249 404
6276 6277 50
6276 6330 226
6277 6276 50
6278 6270 6
6278 6282 9
6279 6268 95
6279 6289 96
6279 6478 156
6280 6202 75
6280 6302 98
6280 6332 39
6281 6272 13
6281 6243 34
6281 6296 12
6281 6303 68
6282 6278 9
6282 6144 114
6282 6313 94
6282 6430 114
6283 6255 59
6283 6254 21
6283 6325 36
6284 6285 112
6285 6284 112
6285 6133 141
6285 6381 80
6286 6271 27
6286 6290 21
6286 6326 31
6287 6251 26
6287 6292 62
6287 6310 18
6288 6244 149
6288 6257 21
6288 6385 69
6289 6279 96
6289 6226 56
6289 6315 19
6290 6286 21
6290 6132 133
6290 6295 42
6291 6272 12
6291 6296 12
6291 6454 123
6292 6287 62
6293 6248 36
6293 6305 100
6293 6377 59
6294 6233 60
6294 6371 63
6294 6541 323
6295 6290 42
6295 5978 298
6296 6291 12
6296 6281 12
6296 6318 59
6296 6373 56
6297 6266 50
6298 6112 172
6299 6300 52
6300 6299 52
6300 6334 85
6300 6367 47
6301 6275 77
6302 6280 98
6303 6281 68
6303 6243 83
6303 6355 114
6304 6267 89
6304 6258 39
6304 6320 11
6305 5920 328
6305 6293 100
6305 6306 8
6305 6880 476
6306 5923 329
6306 6305 8
6306 6319 47
6306 6538 170
6307 6260 34
6308 6250 43
6308 6311 27
6308 6360 76
6309 6267 28
6309 6338 82
6309 6354 64
6310 6287 18
6310 6312 42
6310 6359 35
6311 6308 27
6311 6316 44
6311 6361 36
6312 6310 42
6312 6317 38
6312 6339 18
6313 6282 94
6313 6249 49
6313 6412 80
6314 6260 60
6315 6289 19
6315 6321 194
6315 6395 59
6316 6311 44
6316 6325 23
6317 6312 38
6317 6344 19
6317 6349 86
6318 6296 59
6318 6323 31
6318 6401 200
6319 6306 47
6319 6322 32
6319 6348 20
6320 6304 11
6320 6326 88
6320 6354 33
6321 6315 194
6321 6241 63
6321 6405 64
6322 6021 332
6322 6319 32
6322 6329 38
6323 6318 31
6323 6373 55
6324 6244 108
6324 6362 45
6324 6385 216
6325 6316 23
6325 6283 36
6325 6335 6
6326 6286 31
6326 6320 88
6327 6328 138
6328 6327 138
6328 6245 63
6328 6331 106
6328 6409 63
6329 6330 137
6329 6322 38
6329 6549 163
6330 6329 137
6330 6276 226
6330 6566 204
6331 6328 106
6332 6218 386
6332 6280 39
6332 6399 54
6333 6247 128
6333 5922 350
6333 6482 220
6333 6886 482
6334 6300 85
6334 6269 42
6334 6368 98
6335 6325 6
6335 6359 106
6335 6379 33
6336 6208 106
6336 6357 48
6337 6275 42
6337 6342 115
6337 6345 73
6337 6386 36
6338 6309 82
6339 6312 18
6340 6262 53
6340 6341 12
6340 6396 49
6341 6340 12
6341 6345 36
6341 6466 104
6342 6337 115
6342 6358 26
6342 6402 54
6343 6196 638
6343 5517 848
6343 6555 179
6344 6317 19
6345 6341 36
6345 6337 73
6345 6455 89
6346 6260 77
6346 6393 58
6346 6400 57
6347 6183 182
6348 6319 20
6348 6538 160
6348 6563 174
6349 6317 86
6349 6369 58
6349 6394 32
6350 6273 237
6350 6253 74
6350 6423 250
6350 6500 114
6351 6256 84
6351 6362 9
6352 6353 43
6353 6352 43
6353 6356 33
6353 6418 50
6354 6309 64
6354 6320 33
6354 6374 16
6355 6303 114
6355 6388 78
6356 6353 33
6357 6336 48
6358 6342 26
6358 6386 78
6358 6389 23
6359 6335 106
6359 6310 35
6359 6420 50
6360 6308 76
6360 6361 65
6360 6363 42
6361 6360 65
6361 6311 36
6362 6351 9
6362 6324 45
6362 6378 14
6362 6600 228
6363 6229 109
6363 6360 42
6363 6364 44
6364 6227 111
6364 6363 44
6364 6397 27
6365 6366 153
6366 6365 153
6367 6300 47
6368 6334 98
6368 6393 59
6368 6441 63
6369 6349 58
6369 6374 80
6369 6431 58
6370 6152 284
6370 6387 20
6370 6388 20
6371 6294 63
6371 6493 109
6371 6544 232
6372 6233 233
6373 6296 56
6373 6323 55
6373 6445 60
6374 6369 80
6374 6354 16
6374 6375 74
6374 6390 10
6375 6374 74
6376 6162 173
6376 6380 160
6376 6391 416
6376 6553 130
6377 6293 59
6377 6454 303
6377 6729 284
6378 6157 204
6378 6362 14
6378 6391 40
6378 6543 149
6379 6335 33
6380 6134 195
6380 6376 160
6380 6383 9
6380 6820 435
6381 6382 153
6381 6285 80
6381 6502 109
6382 6381 153
6383 5808 460
6383 6380 9
6383 6384 11
6383 6711 283
6384 6180 516
6384 6383 11
6385 6324 216
6385 6288 69
6385 6471 109
6386 6358 78
6386 6337 36
6386 6419 33
6387 6370 20
6387 6180 272
6387 6404 19
6388 6355 78
6388 6370 20
6388 6403 17
6389 6358 23
6389 6419 78
6389 6429 34
6390 6374 10
6390 6425 33
6390 6426 58
6391 6378 40
6391 6376 416
6391 6515 94
6392 6129 247
6392 6273 84
6392 6415 20
6393 6368 59
6393 6346 58
6393 6400 34
6394 6349 32
6394 6422 115
6395 6315 59
6395 6405 193
6395 6486 71
6396 6340 49
6396 6491 72
6397 6364 27
6397 6413 73
6397 6438 34
6398 6399 83
6399 6398 83
6399 6332 54
6399 6440 37
6400 6393 34
6400 6346 57
6400 6411 34
6400 6477 66
6401 6318 200
6401 6403 7
6401 6572 139
6402 6342 54
6402 6429 34
6402 6586 233
6403 6401 7
6403 6388 17
6403 6407 12
6404 6387 19
6404 6407 8
6405 6395 193
6405 6321 64
6405 6409 224
6405 6498 68
6406 6246 124
6406 6410 150
6406 6502 122
6407 6404 8
6407 6403 12
6407 6711 695
6408 6168 321
6408 6432 15
6408 6517 128
6409 6405 224
6409 6328 63
6409 6416 128
6410 6406 150
6411 6400 34
6411 6427 35
6411 6463 45
6412 6313 80
6412 6481 56
6412 6540 332
6413 6414 128
6413 6397 73
6413 6437 22
6414 6413 128
6415 6392 20
6415 6424 8
6415 6439 87
6416 6409 128
6417 6418 18
6418 6417 18
6418 6353 50
6418 6433 44
6419 6389 78
6419 6386 33
6419 6455 73
6419 6462 37
6420 6359 50
6420 6421 25
6420 6464 36
6421 6420 25
6421 6422 37
6421 6488 145
6422 6421 37
6422 6394 115
6422 6449 81
6423 6350 250
6423 6270 114
6423 6430 14
6423 6573 117
6424 6415 8
6424 6510 32
6425 6390 33
6425 6457 53
6425 6554 108
6426 6390 58
6427 6411 35
6427 6428 91
6427 6436 38
6428 6427 91
6429 6402 34
6429 6389 34
6429 6462 84
6429 6465 39
6430 6423 14
6430 6282 114
6430 6481 162
6430 6580 117
6431 6369 58
6431 6488 73
6432 6408 15
6432 6181 330
6432 6525 113
6432 6525 207
6433 6418 44
6433 6475 103
6434 6435 60
6435 6434 60
6436 6427 38
6436 6452 40
6436 6499 45
6437 6413 22
6437 6438 71
6437 6479 31
6438 6397 34
6438 6437 71
6438 6506 45
6439 6415 87
6440 6399 37
6440 6443 60
6440 6475 27
6441 6442 34
6441 6368 63
6441 6456 9
6442 6441 34
6443 6440 60
6444 6018 664
6444 6876 501
6444 7579 1696
6445 6373 60
6445 6483 42
6445 6518 51
6446 6447 11
6447 6446 11
6447 6448 12
6447 6533 59
6448 6447 12
6449 6422 81
6450 6451 19
6450 6545 67
6451 6450 19
6452 6436 40
6452 6453 19
6452 6522 189
6453 6452 19
6454 6291 123
6454 6377 303
6454 6874 380
6455 6419 73
6455 6345 89
6455 6466 36
6456 6441 9
6456 6467 45
6456 6495 27
6457 6425 53
6458 6170 278
6458 6690 344
6459 6181 273
6459 6487 23
6459 6603 142
6460 6461 2
6461 6460 2
6462 6429 84
6462 6419 37
6462 6519 37
6462 6598 283
6463 6411 45
6463 6480 40
6463 6496 18
6464 6420 36
6464 6497 19
6464 6534 103
6465 6429 39
6465 6516 39
6465 6519 90
6466 6455 36
6466 6341 104
6466 6491 36
6467 6456 45
6468 6268 154
6468 6478 95
6468 6591 85
6469 6091 354
6469 6470 450
6469 6615 135
6470 6469 450
6471 6385 109
6471 6600 150
6472 6473 4
6472 6474 11
6472 6537 38
6473 6472 4
6473 6492 50
6474 6472 11
6474 6476 14
6474 6476 113
6475 6433 103
6475 6440 27
6475 6522 29
6476 6474 14
6476 6474 113
6476 6484 43
6477 6400 66
6478 6468 95
6478 6279 156
6478 6485 40
6478 6590 79
6479 6437 31
6479 6492 84
6479 6505 34
6480 6463 40
6480 6499 34
6480 6524 29
6481 6430 162
6481 6412 56
6481 6540 41
6482 6333 220
6482 6163 260
6482 6535 58
6483 6445 42
6483 6512 55
6483 6518 49
6484 6476 43
6484 6497 32
6484 6532 32
6485 6478 40
6485 6486 75
6485 6585 75
6486 6485 75
6486 6395 71
6486 6489 22
6487 6459 23
6487 15206 594
6487 15207 545
6488 6421 145
6488 6431 73
6488 6568 61
6489 6486 22
6489 6490 63
6489 6592 76
6490 6489 63
6490 6494 41
6490 6595 79
6491 6466 36
6491 6396 72
6491 6557 139
6492 6473 50
6492 6479 84
6492 6577 98
6493 6371 109
6493 6579 117
6493 6613 122
6494 6490 41
6494 6498 67
6494 6666 142
6495 6456 27
6496 6463 18
6497 6484 32
6497 6464 19
6497 6534 54
6497 6571 63
6498 6494 67
6498 6405 68
6498 6667 140
6499 6480 34
6499 6436 45
6499 6548 34
6500 6501 62
6500 6350 114
6500 6573 249
6500 6639 121
6501 6500 62
6502 6406 122
6502 6381 109
6502 6614 114
6503 6504 10
6503 6509 8
6503 6507 24
6504 6503 10
6505 6479 34
6505 6506 46
6505 6577 95
6506 6438 45
6506 6505 46
6506 6693 156
6507 6508 9
6507 6523 7
6507 6503 24
6508 6507 9
6509 6503 8
6510 6511 42
6510 6424 32
6511 6510 42
6511 6542 34
6512 6483 55
6512 6539 17
6512 6570 141
6513 6514 105
6513 6526 18
6513 6578 53
6514 6513 105
6515 6391 94
6515 6543 138
6515 6672 138
6516 6465 39
6516 6561 37
6516 6564 102
6517 6408 128
6517 6525 12
6517 6562 55
6518 6445 51
6518 6483 49
6518 6655 122
6519 6465 90
6519 6462 37
6519 6564 38
6519 6637 285
6520 6521 73
6520 6527 38
6520 6712 162
6521 6520 73
6522 6452 189
6522 6475 29
6522 6531 33
6522 6649 113
6523 6507 7
6524 6480 29
6525 6517 12
6525 6432 113
6525 6584 80
6525 6432 207
6526 6513 18
6527 6520 38
6527 6528 68
6527 6536 28
6527 6723 169
6528 6527 68
6529 6530 86
6530 6529 86
6530 6533 47
6530 6546 73
6531 6522 33
6532 6484 32
6533 6447 59
6533 6530 47
6533 6545 45
6534 6497 54
6534 6464 103
6534 6568 114
6535 6482 58
6535 6622 180
6535 6994 449
6536 6527 28
6536 6744 176
6537 6472 38
6538 6348 160
6538 6306 170
6538 6882 307
6539 6512 17
6539 6550 16
6539 6552 12
6540 6481 41
6540 6412 332
6540 6583 37
6541 6294 323
6541 6542 13
6541 6602 79
6542 6541 13
6542 6511 34
6543 6515 138
6543 6378 149
6543 6657 135
6544 6371 232
6544 6559 13
6545 6450 67
6545 6533 45
6545 6554 134
6546 6530 73
6546 6547 103
6546 6614 121
6547 6546 103
6548 6499 34
6549 6329 163
6549 6551 35
6549 6563 69
6550 6539 16
6550 6552 21
6551 6549 35
6551 6582 198
6552 6539 12
6552 6550 21
6552 6560 23
6553 6376 130
6553 6629 69
6553 6678 250
6554 6425 108
6554 6556 4
6554 6545 134
6555 6343 179
6555 6727 502
6555 8248 1311
6556 6554 4
6556 6568 87
6556 6619 74
6557 6491 139
6557 6558 62
6557 6598 37
6558 6557 62
6559 6544 13
6559 6602 66
6559 6654 100
6560 6552 23
6560 6569 32
6560 6668 134
6561 6516 37
6561 6588 25
6561 6604 107
6562 6257 280
6562 6517 55
6562 6567 11
6563 6549 69
6563 6348 174
6563 6806 237
6564 6516 102
6564 6519 38
6564 6604 35
6564 6673 287
6565 5107 2021
6565 7961 1087
6566 6330 204
6567 6562 11
6567 6584 13
6567 6716 209
6568 6488 61
6568 6556 87
6568 6534 114
6569 6560 32
6569 6574 4
6569 6576 20
6570 6512 141
6570 6572 10
6570 6596 20
6571 6497 63
6571 6593 45
6571 6644 69
6572 6570 10
6572 6401 139
6572 6578 8
6573 6500 249
6573 6423 117
6573 6575 6
6573 6708 116
6574 6569 4
6574 6576 17
6575 6573 6
6575 6580 7
6576 6569 20
6576 6574 17
6576 6601 57
6577 6505 95
6577 6492 98
6577 6624 42
6578 6572 8
6578 6513 53
6578 6611 83
6579 6493 117
6579 6654 115
6579 6697 121
6580 6575 7
6580 6430 117
6580 6640 233
6580 6714 116
6581 6582 83
6581 6583 352
6581 6751 155
6582 6581 83
6582 6551 198
6582 6752 149
6583 6540 37
6583 6581 352
6583 6640 57
6584 6567 13
6584 6525 80
6584 6720 192
6584 6743 159
6585 6485 75
6585 6590 38
6585 6592 94
6585 6638 47
6586 6587 18
6586 6402 233
6586 6612 62
6587 6586 18
6588 6589 53
6588 6561 25
6588 6594 5
6589 6588 53
6590 6478 79
6590 6585 38
6590 6591 103
6591 6468 85
6591 6590 103
6591 6777 165
6592 6585 94
6592 6489 76
6592 6595 64
6592 6659 64
6593 6571 45
6593 6607 17
6593 6610 53
6594 6588 5
6594 6626 35
6594 6651 112
6595 6592 64
6595 6490 79
6595 6765 152
6596 6570 20
6596 6599 9
6596 6606 11
6597 6191 876
6598 6462 283
6598 6557 37
6598 6608 39
6598 6637 37
6599 6596 9
6599 6601 2
6600 6362 228
6600 6471 150
6600 6716 140
6601 6576 57
6601 6599 2
6601 6606 21
6602 6559 66
6602 6541 79
6602 6656 90
6603 6459 142
6603 6605 1
6603 6605 78
6603 6905 299
6604 6561 107
6604 6564 35
6604 6625 61
6604 6651 47
6605 6603 1
6605 6603 78
6605 6718 222
6605 6908 300
6606 6596 11
6606 6601 21
6606 6616 42
6607 6593 17
6607 6630 29
6607 6661 53
6608 6598 39
6608 6609 132
6608 6617 36
6609 6608 132
6610 6593 53
6611 6578 83
6611 6641 32
6611 6705 238
6612 6586 62
6612 6626 25
6612 6684 75
6613 6493 122
6613 6697 123
6613 6732 113
6614 6546 121
6614 6502 114
6614 6726 111
6615 6469 135
6616 6606 42
6616 6620 4
6616 6621 21
6617 6608 36
6617 6618 156
6617 6635 50
6618 6617 156
6619 6556 74
6619 6681 62
6620 6616 4
6620 6621 16
6621 6616 21
6621 6627 9
6621 6620 16
6622 6535 180
6622 6650 42
6622 6809 218
6623 6624 42
6624 6623 42
6624 6577 42
6624 6631 40
6624 6653 24
6625 6604 61
6625 6660 107
6625 6734 98
6626 6612 25
6626 6594 35
6626 6707 120
6627 6621 9
6627 6628 16
6627 6641 31
6628 6627 16
6629 6553 69
6629 6642 59
6629 6888 274
6630 6607 29
6631 6624 40
6631 6632 67
6631 6658 24
6632 6631 67
6633 6634 11
6634 6633 11
6634 6645 21
6634 6664 41
6635 6617 50
6635 6636 179
6635 6647 38
6636 6635 179
6637 6519 285
6637 6598 37
6637 6673 35
6637 6737 294
6638 6585 47
6639 6500 121
6639 6708 244
6639 6776 112
6639 6860 283
6640 6580 233
6640 6583 57
6640 6793 139
6641 6627 31
6641 6611 32
6641 6747 97
6642 6629 59
6643 6644 51
6644 6643 51
6644 6571 69
6644 6661 45
6644 6683 44
6645 6634 21
6645 6646 46
6645 6671 39
6646 6645 46
6647 6635 38
6647 6648 166
6647 6662 40
6648 6647 166
6649 6522 113
6649 6669 75
6649 6760 98
6650 6622 42
6650 6826 334
6650 7147 474
6651 6594 112
6651 6604 47
6651 6707 45
6652 6653 39
6653 6652 39
6653 6624 24
6653 6696 36
6654 6579 115
6654 6559 100
6654 6665 12
6655 6518 122
6655 6700 129
6655 6728 67
6656 6602 90
6656 6762 108
6657 6543 135
6657 6672 252
6657 6724 79
6658 6631 24
6659 6592 64
6660 6625 107
6661 6644 45
6661 6607 53
6661 6675 28
6662 6647 40
6662 6663 149
6662 6676 40
6663 6662 149
6664 6634 41
6665 6654 12
6665 6762 156
6665 6773 107
6666 6494 142
6667 6498 140
6668 6560 134
6668 6700 28
6668 6747 211
6669 6649 75
6669 6670 60
6669 6674 25
6670 6669 60
6671 6645 39
6671 6726 89
6671 6810 147
6672 6515 138
6672 6657 252
6672 6695 22
6673 6564 287
6673 6637 35
6673 6680 9
6674 6669 25
6674 6679 39
6674 6706 29
6675 6661 28
6676 6662 40
6676 6677 130
6676 6685 40
6677 6676 130
6678 6553 250
6678 6695 160
6678 6877 227
6679 6674 39
6679 6694 44
6679 6818 130
6680 6673 9
6680 6721 101
6680 6730 40
6681 6619 62
6681 6691 18
6681 6704 15
6682 6683 56
6683 6682 56
6683 6644 44
6683 6722 32
6683 6740 123
6684 6612 75
6684 6713 56
6684 6733 59
6685 6676 40
6685 6686 123
6685 6709 40
6686 6685 123
6687 6688 8
6687 6689 39
6687 6693 31
6688 6687 8
6689 6687 39
6690 6458 344
6690 6026 602
6690 6718 21
6690 6777 272
6691 6681 18
6691 6692 31
6691 6702 18
6692 6691 31
6693 6687 31
6693 6506 156
6693 6701 5
6694 6679 44
6694 6698 13
6694 6828 127
6695 6678 160
6695 6672 22
6695 6877 168
6696 6653 36
6696 6715 34
6696 6759 64
6697 6613 123
6697 6579 121
6697 6773 113
6697 6796 108
6698 6694 13
6698 6699 190
6698 6712 37
6699 6698 190
6700 6655 129
6700 6668 28
6700 6725 85
6701 6693 5
6701 6766 60
6701 6771 93
6702 6691 18
6702 6703 44
6702 6735 30
6703 6702 44
6703 6750 147
6703 6815 114
6704 6681 15
6705 6611 238
6705 6770 161
6705 6841 138
6706 6674 29
6707 6626 120
6707 6651 45
6707 6734 54
6708 6639 244
6708 6573 116
6708 6714 15
6708 6814 116
6709 6685 40
6709 6710 127
6709 6719 37
6710 6709 127
6711 6407 695
6711 6383 283
6711 6817 149
6712 6698 37
6712 6520 162
6712 6717 17
6713 6684 56
6714 6708 15
6714 6580 116
6714 6783 74
6714 6793 307
6715 6696 34
6716 6600 140
6716 6567 209
6716 6720 12
6716 6724 17
6717 6712 17
6717 6723 18
6717 6984 253
6718 6605 222
6718 6690 21
6718 6731 12
6718 6801 270
6719 6709 37
6720 6716 12
6720 6584 192
6720 6739 22
6720 6746 147
6721 6680 101
6722 6683 32
6722 6745 35
6722 6790 68
6723 6717 18
6723 6527 169
6723 6738 34
6724 6657 79
6724 6716 17
6724 6739 11
6724 6900 257
6725 6700 85
6725 6754 77
6725 6728 242
6726 6671 89
6726 6614 111
6726 6732 17
6726 6855 154
6727 6555 502
6727 6805 161
6727 7658 729
6728 6655 67
6728 6725 242
6728 6819 95
6729 6377 284
6729 6851 150
6729 6869 133
6730 6680 40
6730 6764 96
6730 6824 102
6731 6718 12
6731 6916 164
6732 6726 17
6732 6613 113
6732 6796 119
6732 6825 115
6733 6684 59
6733 6768 106
6733 6775 45
6734 6707 54
6734 6625 98
6734 6757 51
6735 6736 77
6735 6702 30
6735 6782 49
6736 6735 77
6736 6767 55
6737 6637 294
6738 6723 34
6738 6744 8
6738 6901 152
6739 6724 11
6739 6720 22
6739 6870 210
6740 6683 123
6740 6741 2
6740 6763 25
6741 6740 2
6741 6742 21
6741 6755 34
6742 6741 21
6743 6584 159
6743 6746 26
6743 6778 247
6744 6738 8
6744 6536 176
6744 6753 45
6745 6722 35
6746 6720 147
6746 6743 26
6746 7080 358
6747 6668 211
6747 6641 97
6747 6785 76
6748 6749 117
6748 6774 81
6748 6795 55
6749 6748 117
6749 6062 724
6750 6703 147
6750 6786 40
6751 6581 155
6751 6752 78
6751 6921 168
6752 6751 78
6752 6582 149
6752 6798 49
6752 6821 148
6753 6744 45
6753 6766 40
6753 6812 61
6754 6725 77
6754 6785 95
6754 7018 232
6755 6741 34
6755 6756 52
6755 6767 29
6756 6755 52
6757 6734 51
6757 6758 52
6757 6774 22
6758 6757 52
6759 6696 64
6759 6771 55
6759 6790 118
6760 6761 258
6760 6649 98
6760 6779 18
6761 6760 258
6762 6665 156
6762 6656 108
6762 6780 23
6763 6740 25
6764 6730 96
6765 6595 152
6765 6827 271
6765 6972 265
6766 6753 40
6766 6701 60
6766 6772 33
6766 6864 103
6767 6755 29
6767 6736 55
6767 6781 24
6768 6733 106
6768 6769 31
6768 6784 53
6768 6799 38
6769 6768 31
6770 6705 161
6770 6817 166
6770 6899 131
6771 6701 93
6771 6759 55
6771 6772 25
6772 6766 33
6772 6771 25
6772 6792 24
6773 6697 113
6773 6665 107
6773 6854 155
6773 6868 113
6774 6748 81
6774 6757 22
6774 6787 39
6775 6733 45
6775 6791 66
6775 6800 57
6776 6639 112
6776 6814 177
6776 6848 101
6777 6690 272
6777 6591 165
6777 6801 30
6777 6827 78
6778 6743 247
6779 6760 18
6779 6797 72
6779 6884 98
6780 6762 23
6780 6854 88
6780 6871 134
6781 6767 24
6781 6804 36
6782 6735 49
6783 6714 74
6783 6858 90
6783 6881 364
6784 6768 53
6785 6754 95
6785 6747 76
6785 6794 41
6786 6750 40
6786 6810 49
6787 6774 39
6787 6788 89
6787 6789 11
6788 6787 89
6789 6787 11
6789 6802 43
6789 6829 43
6790 6759 118
6790 6722 68
6790 6803 19
6791 6775 66
6791 6799 47
6791 6800 135
6792 6772 24
6792 6857 71
6792 6857 147
6793 6714 307
6793 6640 139
6793 6845 57
6794 6785 41
6794 6841 150
6794 7123 402
6795 6748 55
6795 6829 130
6795 6833 40
6796 6732 119
6796 6697 108
6796 6868 114
6797 6779 72
6797 6811 34
6797 6831 35
6798 6752 49
6799 6791 47
6799 6768 38
6799 6833 121
6800 6775 57
6800 6791 135
6800 6839 39
6800 6917 307
6801 6718 270
6801 6777 30
6801 6862 60
6802 6789 43
6802 6824 65
6802 6840 38
6803 6790 19
6803 6834 73
6803 6867 61
6804 6781 36
6804 6816 14
6804 6837 43
6805 6196 658
6805 6727 161
6805 9405 2452
6806 6563 237
6806 6821 163
6806 6893 231
6807 6808 32
6807 6822 39
6807 6838 37
6808 6807 32
6809 6622 218
6810 6786 49
6810 6671 147
6810 6855 80
6810 6999 184
6811 6797 34
6811 6818 43
6811 6918 91
6812 6753 61
6813 6197 702
6813 6876 130
6814 6776 177
6814 6708 116
6814 6946 128
6815 6703 114
6815 6830 19
6815 6879 96
6816 6804 14
6816 6850 40
6816 6853 48
6817 6770 166
6817 6711 149
6817 6820 10
6817 6989 131
6818 6811 43
6818 6679 130
6818 6828 45
6818 6935 95
6819 6728 95
6819 6883 52
6819 6898 75
6820 6817 10
6820 6380 435
6820 6888 190
6820 7226 380
6821 6752 148
6821 6806 163
6821 6960 121
6822 6807 39
6822 6823 10
6822 6849 37
6823 6822 10
6824 6802 65
6824 6730 102
6824 6843 33
6825 6732 115
6825 6872 46
6825 6996 236
6826 6650 334
6826 6914 229
6826 7598 604
6827 6777 78
6827 6765 271
6827 6919 98
6827 6972 126
6828 6818 45
6828 6694 127
6828 6953 105
6829 6795 130
6829 6789 43
6829 6840 42
6829 6875 39
6830 6815 19
6830 6853 44
6830 6861 58
6831 6832 19
6831 6797 35
6831 6895 51
6832 6831 19
6833 6799 121
6833 6795 40
6833 6875 130
6833 6932 81
6834 6803 73
6834 6835 47
6834 6842 17
6835 6834 47
6836 6837 48
6837 6836 48
6837 6804 43
6837 6850 17
6838 6807 37
6838 6847 14
6838 6859 22
6839 6800 39
6839 6852 26
6839 6932 261
6840 6829 42
6840 6802 38
6840 6885 36
6841 6794 150
6841 6705 138
6841 6899 142
6842 6834 17
6842 6856 28
6842 6873 24
6843 6824 33
6843 6844 105
6843 6959 115
6844 6843 105
6845 6793 57
6845 6846 165
6845 6881 25
6846 6845 165
6847 6838 14
6848 6776 101
6848 6860 108
6848 6946 198
6849 6822 37
6850 6837 17
6850 6816 40
6850 6909 46
6851 6729 150
6851 6869 85
6851 6874 106
6852 6839 26
6852 6902 108
6852 6923 87
6853 6816 48
6853 6830 44
6853 6861 9
6854 6773 155
6854 6780 88
6854 6931 112
6855 6810 80
6855 6726 154
6855 6872 14
6855 7049 184
6856 6842 28
6856 6863 6
6856 6930 57
6857 6792 71
6857 6792 147
6857 6865 3
6858 6783 90
6858 6892 97
6858 6928 56
6859 6838 22
6859 6863 2
6859 6945 83
6860 6639 283
6860 6848 108
6860 6866 13
6860 7068 295
6861 6853 9
6861 6830 58
6861 6970 79
6862 6801 60
6862 6919 42
6862 7083 214
6863 6856 6
6863 6859 2
6864 6766 103
6864 6865 80
6864 6933 52
6865 6857 3
6865 6864 80
6865 6904 29
6866 6860 13
6866 6878 53
6867 6803 61
6867 6930 117
6867 6934 58
6868 6796 114
6868 6773 113
6868 6996 113
6868 7046 264
6869 6729 133
6869 6851 85
6869 6880 22
6870 6739 210
6870 6913 47
6870 6980 82
6871 6780 134
6871 6878 14
6871 6931 65
6872 6855 14
6872 6825 46
6872 6944 68
6873 6842 24
6874 6851 106
6874 6454 380
6874 6883 14
6874 6890 12
6875 6833 130
6875 6829 39
6875 6983 82
6876 6444 501
6876 6813 130
6876 8736 2456
6877 6678 227
6877 6695 168
6877 6943 91
6878 6871 14
6878 6866 53
6879 6815 96
6879 6985 99
6880 6305 476
6880 6869 22
6880 6882 8
6880 6891 11
6881 6783 364
6881 6845 25
6881 6929 41
6882 6538 307
6882 6880 8
6882 6893 11
6883 6874 14
6883 6819 52
6883 6894 11
6883 6898 47
6884 6779 98
6884 6895 80
6884 6936 45
6885 6840 36
6886 6887 68
6886 6333 482
6886 6988 71
6887 6886 68
6888 6820 190
6888 6629 274
6888 7278 400
6889 6890 99
6889 6891 108
6889 7043 154
6890 6889 99
6890 6874 12
6890 6894 14
6890 7043 131
6891 6880 11
6891 6889 108
6891 6893 8
6891 7371 414
6892 6858 97
6892 6924 23
6892 6925 258
6893 6806 231
6893 6882 11
6893 6891 8
6893 7078 158
6894 6890 14
6894 6883 11
6894 6907 38
6894 7102 197
6895 6884 80
6895 6831 51
6895 6918 37
6896 6897 10
6897 6896 10
6897 6911 28
6898 6883 47
6898 6819 75
6898 7018 304
6899 6841 142
6899 6770 131
6899 6989 198
6900 6724 257
6900 6913 11
6900 6943 62
6901 6738 152
6901 6903 28
6901 6955 44
6902 6852 108
6902 6923 49
6902 6950 64
6903 6901 28
6904 6865 29
6904 6915 13
6905 6906 241
6905 6603 299
6905 6908 4
6905 6969 48
6906 6905 241
6906 6941 49
6907 6894 38
6907 6995 210
6907 7110 219
6908 6905 4
6908 6605 300
6908 6916 62
6908 6967 46
6909 6910 12
6909 6850 46
6909 6954 40
6910 6909 12
6911 6912 13
6911 6897 28
6912 6911 13
6913 6900 11
6913 6870 47
6913 6920 12
6913 6980 53
6914 6826 229
6914 7158 2898
6914 8187 1215
6915 6904 13
6915 6934 96
6915 6937 21
6916 6908 62
6916 6731 164
6916 6951 31
6917 6800 307
6918 6895 37
6918 6811 91
6918 6935 41
6919 6862 42
6919 6827 98
6919 6981 46
6920 6913 12
6920 6952 51
6920 6979 45
6921 6751 168
6921 6922 52
6921 6927 26
6922 6921 52
6923 6902 49
6923 6852 87
6923 6991 47
6924 6892 23
6924 6964 33
6924 6992 218
6925 6892 258
6925 6926 93
6925 6992 51
6926 6925 93
6926 6929 13
6926 7007 66
6927 6921 26
6927 6948 27
6927 6965 152
6928 6858 56
6928 6964 112
6928 7023 92
6929 6926 13
6929 6881 41
6929 6990 41
6930 6867 117
6930 6856 57
6930 6945 31
6931 6854 112
6931 6871 65
6931 7046 119
6931 7141 225
6932 6839 261
6932 6833 81
6932 6983 131
6932 6987 38
6933 6864 52
6933 6982 52
6934 6915 96
6934 6867 58
6934 6947 13
6935 6918 41
6935 6818 95
6935 6953 41
6936 6884 45
6936 6949 57
6936 7016 62
6937 6915 21
6938 6939 25
6938 6940 53
6938 6942 4
6939 6938 25
6940 6938 53
6941 6906 49
6941 6977 246
6941 6977 349
6941 15215 349
6942 6938 4
6942 6954 27
6942 6993 35
6943 6877 91
6943 6900 62
6943 7278 505
6944 6872 68
6944 7058 116
6944 7091 235
6945 6930 31
6945 6859 83
6945 6958 22
6946 6848 198
6946 6814 128
6946 7068 125
6947 6934 13
6947 6968 29
6947 6997 44
6948 6927 27
6948 6960 123
6948 7036 74
6949 6936 57
6950 6902 64
6950 6998 42
6950 7034 90
6951 6916 31
6951 6967 42
6951 6967 182
6952 6920 51
6952 6979 72
6952 7227 428
6953 6935 41
6953 6828 105
6953 6976 22
6954 6942 27
6954 6909 40
6954 7003 37
6955 6956 42
6955 6901 44
6955 7017 49
6956 6955 42
6957 6958 2
6957 7015 48
6958 6957 2
6958 6945 22
6958 6978 23
6959 6843 115
6959 7009 76
6959 7101 144
6960 6948 123
6960 6821 121
6960 7156 192
6961 6962 20
6961 6963 28
6961 6978 9
6962 6961 20
6963 6961 28
6964 6928 112
6964 6924 33
6964 7005 151
6964 7022 104
6965 6966 106
6965 6927 152
6965 6990 77
6966 6965 106
6967 6908 46
6967 6951 42
6967 6969 4
6967 6951 182
6968 6947 29
6969 6905 48
6969 6967 4
6969 6977 14
6969 7114 159
6970 6971 19
6970 6861 79
6970 7011 45
6971 6970 19
6972 6827 126
6972 6765 265
6972 7002 31
6973 6974 137
6974 6973 137
6974 6975 132
6974 7065 88
6975 6974 132
6976 6953 22
6976 6984 20
6976 7051 81
6977 6941 246
6977 6969 14
6977 6941 349
6977 15215 349
6978 6958 23
6978 6961 9
6978 6993 34
6979 6952 72
6979 6920 45
6979 7097 121
6980 6913 53
6980 6870 82
6980 7487 429
6981 6919 46
6981 7013 66
6981 7064 82
6982 6933 52
6982 7019 40
6983 6932 131
6983 6875 82
6983 7010 106
6983 7020 36
6984 6976 20
6984 6717 253
6984 7017 117
6985 6879 99
6985 6999 35
6985 7014 76
6985 7021 41
6986 6987 227
6987 6986 227
6987 6932 38
6987 7020 131
6987 7025 41
6988 6886 71
6988 7001 416
6988 7059 314
6988 7265 281
6989 6899 198
6989 6817 131
6989 7215 248
6990 6929 41
6990 6965 77
6990 7008 23
6991 6923 47
6991 7027 46
6991 7066 301
6992 6924 218
6992 6925 51
6992 7006 17
6993 6978 34
6993 6942 35
6993 7003 31
6993 7040 53
6994 6535 449
6995 6907 210
6995 7033 117
6995 7090 95
6996 6825 236
6996 6868 113
6996 7004 10
6996 7125 262
6997 6947 44
6997 7039 43
6997 7052 230
6998 6950 42
6998 7030 42
6998 7105 138
6999 6985 35
6999 6810 184
6999 7049 79
6999 7172 207
7000 7001 78
7000 7002 227
7000 7031 177
7001 7000 78
7001 6988 416
7001 7183 188
7002 6972 31
7002 7000 227
7002 7031 29
7003 6993 31
7003 6954 37
7003 7044 42
7004 6996 10
7004 7050 55
7004 7142 261
7005 6964 151
7006 6992 17
7006 7007 86
7006 7084 90
7007 7006 86
7007 6926 66
7007 7008 46
7008 7007 46
7008 6990 23
7008 7088 84
7009 6959 76
7010 6983 106
7010 7048 38
7011 6970 45
7011 7012 15
7012 7011 15
7012 7014 27
7012 7072 61
7013 6981 66
7013 7079 85
7013 7082 68
7014 7012 27
7014 6985 76
7014 7021 39
7015 6957 48
7016 6936 62
7016 7024 43
7016 7103 97
7017 6984 117
7017 6955 49
7017 7032 16
7018 6898 304
7018 6754 232
7018 7056 117
7019 6982 40
7019 7032 97
7019 7045 129
7020 6987 131
7020 6983 36
7020 7048 112
7020 7060 41
7021 7014 39
7021 6985 41
7021 7152 162
7022 6964 104
7023 6928 92
7023 7062 175
7023 7077 59
7024 7016 43
7024 7028 41
7024 7119 102
7025 7026 255
7025 6987 41
7025 7060 130
7025 7066 40
7026 7025 255
7027 6991 46
7027 7069 41
7027 7100 292
7028 7024 41
7028 7035 47
7028 7124 105
7029 7030 111
7030 7029 111
7030 6998 42
7030 7067 51
7030 7175 182
7031 7002 29
7031 7000 177
7031 7064 117
7031 7179 156
7032 7017 16
7032 7019 97
7032 7087 52
7033 6995 117
7033 7099 208
7033 7166 302
7034 6950 90
7035 7028 47
7035 7038 4
7035 7138 107
7036 6948 74
7036 7037 22
7036 7075 105
7036 7088 246
7037 7036 22
7038 7035 4
7038 7047 54
7039 6997 43
7039 7045 5
7039 7061 124
7040 6993 53
7040 7042 21
7040 7044 28
7041 7042 143
7042 7041 143
7042 7040 21
7042 7052 12
7043 6889 154
7043 6890 131
7043 7374 307
7044 7040 28
7044 7003 42
7044 7070 84
7045 7019 129
7045 7039 5
7045 7108 78
7046 6868 264
7046 6931 119
7046 7125 106
7046 7140 117
7047 7038 54
7047 7051 17
7047 7085 36
7048 7020 112
7048 7010 38
7048 7089 41
7049 6999 79
7049 6855 184
7049 7058 13
7049 7171 153
7050 7004 55
7050 7091 53
7050 7185 257
7051 7047 17
7051 6976 81
7051 7074 77
7052 6997 230
7052 7042 12
7052 7081 29
7053 7054 98
7053 7055 150
7053 7254 270
7054 7053 98
7055 7053 150
7056 7018 117
7056 7057 85
7056 7092 106
7057 7056 85
7058 7049 13
7058 6944 116
7058 7184 237
7058 7213 204
7059 6988 314
7060 7025 130
7060 7020 41
7060 7089 126
7060 7095 41
7061 7039 124
7061 7071 79
7061 7117 65
7062 7023 175
7062 7063 77
7062 7084 183
7062 7139 84
7063 7062 77
7064 6981 82
7064 7031 117
7064 7366 274
7065 6974 88
7065 7080 234
7065 7223 172
7066 6991 301
7066 7025 40
7066 7095 130
7066 7100 43
7067 7030 51
7067 7093 42
7067 7098 53
7068 6860 295
7068 6946 125
7068 7073 9
7068 7614 456
7069 7027 41
7069 7105 45
7069 7143 289
7070 7044 84
7070 7076 15
7070 7129 68
7071 7061 79
7071 7081 34
7071 7109 48
7072 7012 61
7073 7068 9
7073 7077 6
7074 7051 77
7075 7036 105
7076 7070 15
7077 7073 6
7077 7023 59
7077 7139 198
7077 7146 82
7078 6893 158
7078 7154 77
7078 7156 416
7079 7013 85
7079 7082 43
7079 7107 32
7080 7065 234
7080 6746 358
7080 7163 92
7081 7071 34
7081 7052 29
7082 7013 68
7082 7079 43
7082 7106 30
7083 6862 214
7083 7120 64
7083 7121 50
7084 7062 183
7084 7006 90
7084 7112 37
7085 7047 36
7085 7155 75
7085 7177 180
7086 7087 62
7087 7086 62
7087 7032 52
7087 7111 89
7087 7169 93
7088 7008 84
7088 7036 246
7088 7104 20
7089 7048 41
7089 7060 126
7089 7094 10
7090 6995 95
7091 6944 235
7091 7050 53
7091 7184 115
7091 7233 262
7092 7056 106
7092 7099 12
7092 7123 103
7093 7067 42
7093 7199 166
7093 7257 222
7094 7089 10
7095 7066 130
7095 7060 41
7095 7116 89
7095 7132 42
7096 7097 81
7097 7096 81
7097 6979 121
7097 7492 315
7098 7067 53
7099 7033 208
7099 7092 12
7099 7137 104
7099 7212 283
7100 7027 292
7100 7066 43
7100 7132 130
7100 7143 41
7101 6959 144
7101 7122 79
7101 7433 282
7102 6894 197
7102 7388 247
7102 7398 457
7103 7016 97
7103 7119 71
7103 7245 146
7104 7088 20
7104 7112 198
7104 7159 56
7105 6998 138
7105 7069 45
7105 7149 42
7105 7182 295
7106 7082 30
7106 7107 47
7106 7130 28
7107 7106 47
7107 7079 32
7107 7150 38
7108 7045 78
7108 7113 34
7108 7148 38
7109 7071 48
7109 7127 21
7109 7133 83
7110 6907 219
7111 7087 89
7111 7126 17
7111 7153 50
7112 7084 37
7112 7104 198
7112 7203 94
7113 7108 34
7114 7115 566
7114 15214 566
7114 6969 159
7114 7128 18
7115 7114 566
7115 15214 566
7116 7095 89
7117 7118 18
7117 7061 65
7117 7131 16
7117 7162 66
7118 7117 18
7119 7103 71
7119 7024 102
7119 7124 34
7120 7083 64
7120 7121 53
7120 7220 191
7120 15220 191
7121 7083 50
7121 7120 53
7121 7167 40
7122 7101 79
7123 7092 103
7123 6794 402
7123 7137 10
7123 7222 272
7124 7119 34
7124 7028 105
7124 7138 37
7125 6996 262
7125 7046 106
7125 7142 12
7126 7111 17
7127 7109 21
7128 7114 18
7129 7070 68
7130 7106 28
7130 7150 47
7130 7165 32
7131 7117 16
7132 7100 130
7132 7095 42
7132 7161 92
7132 7174 42
7133 7109 83
7133 7134 22
7133 7196 64
7134 7133 22
7135 7136 13
7136 7135 13
7136 7159 157
7136 7164 63
7136 7252 113
7137 7099 104
7137 7123 10
7137 7240 272
7137 7426 236
7138 7124 37
7138 7035 107
7138 7151 31
7139 7077 198
7139 7062 84
7139 7188 52
7140 7046 117
7140 7141 98
7140 7256 144
7141 7140 98
7141 6931 225
7141 7392 252
7142 7004 261
7142 7125 12
7142 7185 58
7143 7069 289
7143 7100 41
7143 7174 130
7143 7180 41
7144 7145 47
7145 7144 47
7145 7157 175
7145 7176 42
7146 7077 82
7146 7201 179
7146 7271 138
7147 6650 474
7148 7108 38
7148 7160 18
7148 7178 108
7149 7105 42
7149 7170 103
7149 7175 33
7150 7130 47
7150 7107 38
7150 7173 31
7151 7138 31
7151 7155 10
7151 7195 52
7152 7021 162
7152 7172 37
7152 7373 210
7153 7111 50
7153 7160 29
7153 7169 129
7154 7078 77
7154 7381 181
7154 7515 500
7155 7151 10
7155 7085 75
7155 7177 107
7156 6960 192
7156 7078 416
7156 7164 105
7157 7145 175
7157 7190 39
7158 3875 3588
7158 6914 2898
7158 8187 2247
7159 7104 56
7159 7136 157
7159 7235 82
7160 7153 29
7160 7148 18
7160 7194 42
7161 7132 92
7162 7117 66
7163 7080 92
7163 7231 73
7163 7307 234
7164 7136 63
7164 7156 105
7164 7417 256
7165 7130 32
7165 7173 49
7165 7192 32
7166 7033 302
7167 7121 40
7167 7168 67
7167 7200 38
7168 7167 67
7169 7087 93
7169 7153 129
7169 7193 26
7170 7149 103
7170 7181 137
7170 7211 192
7171 7049 153
7171 7208 51
7172 7152 37
7172 6999 207
7172 7208 73
7172 7403 204
7173 7165 49
7173 7150 31
7173 7202 34
7174 7143 130
7174 7132 42
7174 7197 96
7174 7206 40
7175 7030 182
7175 7149 33
7175 7181 6
7176 7145 42
7176 7190 172
7176 7214 46
7177 7155 107
7177 7085 180
7177 7193 99
7178 7148 108
7179 7031 156
7179 7183 191
7179 7432 283
7179 7532 252
7180 7143 41
7180 7182 2
7180 7206 130
7181 7175 6
7181 7170 137
7181 7224 47
7182 7105 295
7182 7180 2
7182 7211 39
7183 7179 191
7183 7001 188
7183 7263 70
7184 7058 237
7184 7091 115
7184 7255 78
7184 7380 262
7185 7050 257
7185 7142 58
7185 7233 58
7186 7187 36
7186 7230 50
7186 7326 297
7187 7186 36
7188 7189 40
7188 7139 52
7188 7191 6
7189 7188 40
7189 7201 21
7190 7176 172
7190 7157 39
7190 7234 45
7190 7250 209
7191 7188 6
7191 7198 37
7191 7267 66
7192 7165 32
7192 7202 48
7192 7207 21
7193 7177 99
7193 7169 26
7193 7221 35
7194 7160 42
7194 7209 67
7194 7291 84
7195 7151 52
7196 7133 64
7197 7174 96
7198 7191 37
7198 7203 141
7198 7602 298
7199 7093 166
7199 7228 46
7199 7349 111
7200 7167 38
7200 7205 98
7200 7243 41
7201 7146 179
7201 7189 21
7201 7429 166
7202 7192 48
7202 7173 34
7202 7232 31
7203 7198 141
7203 7112 94
7203 7204 43
7203 7295 71
7204 7203 43
7204 7229 92
7204 7796 403
7205 7200 98
7206 7180 130
7206 7174 40
7206 7225 64
7206 7261 41
7207 7192 21
7207 7217 11
7208 7172 73
7208 7171 51
7208 7213 13
7208 7469 204
7209 7194 67
7209 7210 71
7209 7329 95
7210 7209 71
7210 7251 81
7210 7283 89
7211 7170 192
7211 7182 39
7211 7261 130
7211 7269 40
7212 7099 283
7213 7208 13
7213 7058 204
7213 7315 84
7213 7330 138
7214 7176 46
7214 7234 172
7214 7280 45
7215 6989 248
7215 7216 4
7215 7226 13
7216 7215 4
7216 7222 8
7217 7207 11
7217 7232 47
7217 7259 30
7218 7219 87
7219 7218 87
7220 7120 191
7220 15220 191
7220 7268 36
7220 7336 349
7221 7193 35
7221 7249 20
7221 7293 131
7222 7123 272
7222 7216 8
7222 7240 15
7223 7065 172
7223 7244 121
7223 7457 148
7224 7181 47
7224 7272 36
7224 7360 337
7225 7206 64
7226 7215 13
7226 6820 380
7226 7236 8
7227 6952 428
7227 7286 74
7227 7290 75
7228 7199 46
7228 7264 39
7228 7347 79
7229 7204 92
7229 7239 34
7229 7325 67
7230 7186 50
7230 7262 62
7230 7277 35
7231 7163 73
7231 7244 143
7231 7346 76
7232 7217 47
7232 7202 31
7232 7273 30
7233 7091 262
7233 7185 58
7233 7256 120
7233 7380 111
7234 7214 172
7234 7190 45
7234 7250 176
7234 7298 45
7235 7159 82
7235 7239 104
7235 7287 38
7236 7226 8
7236 7253 12
7236 7278 431
7237 7238 38
7237 7246 135
7237 7276 38
7238 7237 38
7239 7229 34
7239 7235 104
7239 7415 260
7240 7137 272
7240 7222 15
7240 7247 4
7241 7242 148
7242 7241 148
7242 7257 52
7242 7275 163
7243 7200 41
7243 7311 194
7243 7312 49
7244 7231 143
7244 7223 121
7244 7379 86
7245 7103 146
7245 7277 94
7245 7384 87
7246 7237 135
7246 7264 27
7246 7372 84
7247 7240 4
7247 7258 12
7247 7494 191
7248 7249 107
7249 7248 107
7249 7221 20
7249 7326 55
7250 7234 176
7250 7190 209
7250 7316 45
7251 7210 81
7251 7289 103
7251 7308 42
7252 7136 113
7252 7274 77
7252 7302 36
7253 7236 12
7253 7260 11
7253 7339 181
7254 7053 270
7255 7184 78
7255 7300 35
7255 7330 222
7256 7140 144
7256 7233 120
7256 7392 96
7257 7242 52
7257 7093 222
7257 7272 32
7258 7247 12
7258 7260 6
7258 7493 182
7259 7217 30
7259 7273 46
7259 7322 45
7260 7253 11
7260 7258 6
7260 7304 34
7261 7211 130
7261 7206 41
7261 7313 39
7261 7344 212
7262 7230 62
7263 7183 70
7263 7265 326
7263 7690 287
7264 7246 27
7264 7228 39
7265 6988 281
7265 7266 202
7265 7263 326
7265 7892 388
7266 7265 202
7267 7191 66
7267 7439 108
7268 7220 36
7268 7292 48
7268 7311 38
7269 7270 154
7269 7211 40
7269 7294 65
7270 7269 154
7271 7146 138
7271 7317 80
7271 7483 155
7272 7257 32
7272 7224 36
7272 7320 94
7273 7259 46
7273 7232 30
7274 7252 77
7274 7287 63
7274 7319 37
7275 7242 163
7276 7237 38
7276 15221 27
7277 7245 94
7277 7230 35
7277 7301 60
7278 6888 400
7278 6943 505
7278 7236 431
7279 7280 41
7280 7279 41
7280 7214 45
7280 7298 171
7281 7282 43
7281 7289 5
7281 7350 67
7282 7281 43
7283 7210 89
7283 7296 24
7283 7340 42
7284 7285 19
7284 7314 28
7285 7284 19
7285 7288 15
7285 7321 28
7286 7227 74
7286 7309 70
7286 7375 58
7287 7235 38
7287 7274 63
7287 7415 80
7288 7285 15
7288 7297 15
7288 7328 28
7289 7251 103
7289 7281 5
7289 7343 38
7290 7227 75
7290 7339 262
7290 7465 122
7291 7194 84
7291 7293 2
7291 7329 64
7292 7268 48
7292 7310 43
7292 7413 81
7293 7221 131
7293 7291 2
7293 7447 94
7294 7269 65
7294 7313 64
7294 7360 45
7295 7203 71
7296 7283 24
7296 7318 58
7296 7362 45
7297 7288 15
7297 7299 16
7297 7335 28
7298 7280 171
7298 7234 45
7298 7316 175
7298 7368 42
7299 7297 16
7299 7303 15
7299 7341 28
7300 7255 35
7300 7420 93
7300 7471 208
7301 7277 60
7301 7356 33
7301 7397 223
7302 7252 36
7302 7319 60
7302 7417 69
7303 7299 15
7304 7260 34
7305 7306 389
7305 15212 165
7306 7305 389
7306 7345 205
7307 7163 234
7308 7251 42
7308 7318 5
7308 7343 98
7309 7286 70
7309 7324 202
7309 7395 52
7310 7292 43
7310 7332 38
7310 7444 82
7311 7268 38
7311 7243 194
7311 7378 42
7312 7243 49
7312 7322 19
7312 7323 95
7313 7294 64
7313 7261 39
7313 7436 261
7314 7284 28
7314 7321 20
7314 7337 14
7315 7213 84
7315 7476 120
7315 7542 234
7316 7298 175
7316 7250 45
7316 7327 92
7317 7271 80
7317 7331 57
7317 7363 40
7318 7296 58
7318 7308 5
7318 7364 29
7319 7274 37
7319 7302 60
7319 7407 57
7320 7272 94
7320 7338 43
7320 7377 32
7321 7314 20
7321 7285 28
7321 7328 15
7321 7348 14
7322 7312 19
7322 7259 45
7322 7366 75
7323 7312 95
7323 7342 12
7323 7378 72
7324 7309 202
7325 7229 67
7326 7186 297
7326 7249 55
7326 7397 43
7327 7316 92
7328 7321 15
7328 7288 28
7328 7335 15
7328 7355 14
7329 7291 64
7329 7209 95
7329 7370 35
7330 7213 138
7330 7255 222
7330 7420 96
7331 7317 57
7332 7310 38
7332 7354 38
7332 7462 82
7333 7334 20
7334 7333 20
7334 7340 10
7334 7370 23
7335 7328 15
7335 7297 28
7335 7341 16
7335 7359 14
7336 7220 349
7336 7361 121
7336 7409 45
7337 7314 14
7337 7348 20
7337 7497 107
7338 7320 43
7338 7358 42
7338 7387 27
7339 7253 181
7339 7290 262
7339 7438 58
7340 7334 10
7340 7283 42
7340 7353 11
7340 7386 26
7341 7335 16
7341 7299 28
7341 7352 16
7341 7367 15
7342 7323 12
7342 7427 53
7342 7557 135
7343 7308 98
7343 7289 38
7343 7512 110
7344 7261 212
7345 7306 205
7345 7361 9
7345 7408 311
7346 7231 76
7347 7228 79
7348 7337 20
7348 7321 14
7348 7351 1
7348 7355 15
7349 7199 111
7349 7405 23
7350 7281 67
7350 7373 49
7350 7373 49
7350 7486 92
7351 7348 1
7352 7341 16
7353 7340 11
7353 7357 11
7353 7393 28
7354 7332 38
7354 7365 39
7354 7475 83
7355 7348 15
7355 7328 14
7355 7359 15
7355 7516 107
7356 7301 33
7356 7389 139
7356 7402 29
7357 7353 11
7357 7362 9
7357 7400 30
7358 7338 42
7358 7382 42
7358 7394 22
7359 7355 15
7359 7335 14
7359 7367 16
7359 7522 107
7360 7224 337
7360 7294 45
7360 7390 71
7360 7424 41
7361 7345 9
7361 7336 121
7361 7428 310
7361 7441 46
7362 7357 9
7362 7296 45
7362 7416 32
7363 7317 40
7363 7383 62
7363 7556 118
7364 7318 29
7365 7354 39
7365 7385 37
7365 7489 85
7366 7322 75
7366 7064 274
7366 7401 25
7367 7359 16
7367 7341 15
7367 7376 16
7367 7530 107
7368 7369 213
7368 7298 42
7368 7443 43
7369 7368 213
7370 7329 35
7370 7334 23
7370 7386 13
7371 6891 414
7371 7374 9
7371 7381 17
7372 7246 84
7373 7350 49
7373 7350 49
7373 7152 210
7373 7403 34
7374 7371 9
7374 7043 307
7374 7388 14
7375 7286 58
7376 7367 16
7377 7320 32
7378 7311 42
7378 7323 72
7378 7413 55
7379 7244 86
7380 7184 262
7380 7233 111
7380 7392 227
7380 7471 121
7381 7154 181
7381 7371 17
7381 7404 20
7382 7358 42
7382 7396 39
7382 7421 29
7383 7363 62
7384 7245 87
7384 7389 66
7384 7566 116
7385 7365 37
7385 7391 42
7385 7501 83
7386 7370 13
7386 7340 26
7386 7393 12
7387 7338 27
7388 7374 14
7388 7102 247
7388 7412 16
7389 7384 66
7389 7356 139
7389 7402 103
7389 7533 92
7390 7360 71
7391 7385 42
7391 7399 41
7391 7521 84
7392 7256 96
7392 7141 252
7392 7380 227
7393 7386 12
7393 7353 28
7393 7400 10
7394 7358 22
7395 7309 52
7396 7382 39
7396 7414 39
7396 7459 38
7397 7301 223
7397 7326 43
7397 7431 20
7397 7447 135
7398 7102 457
7398 7490 316
7398 7712 544
7399 7391 41
7399 7409 41
7399 7547 87
7400 7393 10
7400 7357 30
7400 7416 12
7401 7366 25
7401 7432 46
7401 7644 171
7402 7356 29
7402 7389 103
7402 7422 174
7403 7373 34
7403 7172 204
7403 7469 73
7403 7679 177
7404 7381 20
7404 7423 12
7404 7515 399
7405 7406 13
7405 7349 23
7406 7405 13
7406 7437 251
7406 7468 39
7407 7319 57
7407 7417 47
7408 7345 311
7408 7428 11
7408 7457 215
7409 7336 45
7409 7399 41
7409 7418 41
7409 7559 88
7410 7411 45
7410 7437 15
7410 7455 122
7411 7410 45
7412 7388 16
7412 7419 18
7412 7440 16
7413 7292 81
7413 7378 55
7413 7444 44
7413 7580 106
7414 7396 39
7414 7424 31
7414 7479 48
7415 7287 80
7415 7239 260
7415 7473 42
7416 7400 12
7416 7362 32
7416 7434 26
7417 7407 47
7417 7302 69
7417 7164 256
7417 7538 76
7418 7409 41
7418 7425 39
7418 7564 87
7419 7412 18
7419 7448 112
7419 7470 95
7420 7330 96
7420 7300 93
7420 7542 87
7421 7382 29
7422 7402 174
7422 7431 43
7422 7634 111
7423 7404 12
7423 7450 15
7423 7524 359
7424 7414 31
7424 7360 41
7424 7430 10
7425 7418 39
7425 7441 43
7425 7572 83
7426 7137 236
7426 7490 48
7426 7494 246
7427 7342 53
7427 7555 79
7427 7585 96
7428 7408 11
7428 7361 310
7428 7463 214
7428 7514 56
7429 7201 166
7429 7439 29
7429 7464 25
7430 7424 10
7430 7454 41
7430 7499 51
7431 7422 43
7431 7397 20
7431 7506 54
7432 7401 46
7432 7179 283
7432 7532 140
7432 8008 340
7433 7101 282
7433 7467 87
7433 7548 71
7434 7416 26
7434 7435 40
7434 7449 8
7435 7434 40
7436 7313 261
7437 7406 251
7437 7410 15
7437 7477 32
7438 7339 58
7439 7429 29
7439 7267 108
7440 7412 16
7440 7453 11
7440 7461 51
7440 7751 200
7441 7361 46
7441 7425 43
7441 7549 199
7442 7443 209
7443 7442 209
7443 7368 43
7443 7474 355
7443 7511 50
7444 7310 82
7444 7413 44
7444 7462 40
7445 7446 61
7446 7445 61
7447 7397 135
7447 7293 94
7447 7545 64
7448 7419 112
7448 7460 76
7448 7470 21
7449 7434 8
7449 7451 1
7449 7545 220
7450 7423 15
7450 7453 21
7450 7741 188
7451 7449 1
7451 7452 42
7451 7546 110
7452 7451 42
7453 7440 11
7453 7450 21
7453 7748 192
7454 7430 41
7454 7458 12
7454 7513 46
7455 7410 122
7455 7456 22
7455 7520 48
7456 7455 22
7457 7223 148
7457 7408 215
7457 7487 109
7458 7454 12
7459 7396 38
7460 7448 76
7461 7440 51
7461 7484 56
7461 7788 202
7462 7332 82
7462 7444 40
7462 7475 42
7463 7428 214
7463 7498 106
7463 7899 250
7464 7429 25
7464 7550 48
7464 7586 154
7465 7290 122
7465 7466 97
7465 7478 105
7465 7668 115
7466 7465 97
7467 7433 87
7467 7472 49
7467 7727 183
7468 7406 39
7468 7488 247
7468 7535 42
7469 7403 73
7469 7208 204
7469 7476 11
7469 7667 119
7470 7419 95
7470 7448 21
7470 7576 153
7471 7300 208
7471 7380 121
7471 7595 45
7472 7467 49
7472 7485 48
7472 7698 127
7473 7415 42
7473 7581 59
7473 7805 306
7474 7443 355
7474 7567 49
7475 7354 83
7475 7462 42
7475 7489 45
7476 7469 11
7476 7315 120
7476 7676 118
7476 7705 228
7477 7437 32
7477 7488 10
7477 7520 122
7478 7465 105
7479 7414 48
7480 7481 40
7480 7915 414
7481 7480 40
7481 7482 557
7481 8023 324
7482 7481 557
7483 7271 155
7483 7500 46
7483 7554 44
7484 7461 56
7484 7561 127
7484 7656 86
7485 7472 48
7485 7491 25
7485 7704 126
7486 7350 92
7486 7503 46
7487 6980 429
7487 7457 109
7487 7492 10
7487 7498 10
7488 7468 247
7488 7477 10
7488 7573 39
7489 7365 85
7489 7475 45
7489 7501 43
7490 7398 316
7490 7426 48
7491 7485 25
7492 7097 315
7492 7487 10
7492 7510 10
7493 7258 182
7493 7509 83
7493 7756 176
7494 7247 191
7494 7426 246
7494 7903 264
7495 7496 107
7495 7502 50
7495 7603 49
7496 7495 107
7497 7337 107
7497 7516 36
7497 7529 17
7498 7487 10
7498 7463 106
7498 7510 10
7498 7899 251
7499 7430 51
7500 7483 46
7500 7517 21
7500 7636 61
7501 7385 83
7501 7489 43
7501 7521 42
7502 7495 50
7502 7511 52
7502 7745 136
7503 7486 46
7503 7512 9
7503 7639 59
7504 7505 11
7505 7504 11
7505 7523 166
7505 7599 42
7506 7431 54
7506 7552 137
7506 7647 62
7507 7508 136
7508 7507 136
7509 7493 83
7510 7492 10
7510 7498 10
7510 7888 237
7511 7502 52
7511 7443 50
7511 7567 355
7511 7620 49
7512 7343 110
7512 7503 9
7512 7546 41
7513 7454 46
7514 7428 56
7514 7596 38
7514 7843 282
7515 7154 500
7515 7404 399
7515 7560 119
7516 7497 36
7516 7355 107
7516 7522 15
7516 7551 16
7517 7500 21
7517 7528 21
7517 7707 107
7518 7519 14
7519 7518 14
7519 7531 14
7519 7534 8
7520 7477 122
7520 7455 48
7520 7625 47
7521 7391 84
7521 7501 42
7521 7547 44
7522 7516 15
7522 7359 107
7522 7530 16
7522 7558 15
7523 7505 166
7524 7423 359
7524 7641 256
7524 7842 191
7525 7526 155
7525 7527 57
7525 7548 24
7525 7915 223
7526 7525 155
7527 7525 57
7528 7517 21
7528 7553 38
7528 7723 112
7529 7497 17
7529 7543 20
7529 7584 24
7530 7522 16
7530 7367 107
7530 7563 15
7531 7519 14
7532 7432 140
7532 7179 252
7532 7690 167
7533 7389 92
7534 7519 8
7535 7468 42
7535 7573 243
7535 7637 42
7536 7537 16
7537 7536 16
7538 7417 76
7538 7539 120
7538 7560 9
7538 7581 102
7539 7538 120
7540 7541 24
7541 7540 24
7542 7315 234
7542 7420 87
7542 7616 65
7542 7705 114
7543 7529 20
7543 7544 16
7543 7551 15
7543 7597 24
7544 7543 16
7545 7447 64
7545 7552 4
7545 7449 220
7546 7451 110
7546 7512 41
7546 7621 177
7547 7399 87
7547 7521 44
7547 7559 40
7548 7433 71
7548 7525 24
7548 7709 96
7549 7441 199
7549 7562 50
7549 7649 113
7550 7464 48
7550 7602 120
7550 7877 188
7551 7543 15
7551 7516 16
7551 7558 14
7551 7606 25
7552 7506 137
7552 7545 4
7552 7626 34
7553 7528 38
7553 7556 10
7553 7713 181
7554 7483 44
7554 7633 38
7554 7682 72
7555 7427 79
7555 7580 51
7555 7627 31
7556 7553 10
7556 7363 118
7556 7586 69
7557 7342 135
7557 7585 29
7557 7644 41
7558 7551 14
7558 7522 15
7558 7563 16
7558 7609 25
7559 7409 88
7559 7547 40
7559 7564 45
7560 7538 9
7560 7515 119
7560 7607 99
7561 7484 127
7561 7576 34
7561 7664 95
7561 7684 60
7562 7549 50
7562 7575 38
7562 7702 180
7563 7558 16
7563 7530 15
7563 7617 25
7564 7418 87
7564 7559 45
7564 7565 6
7565 7564 6
7565 7572 36
7565 7757 114
7566 7384 116
7566 7628 134
7566 8054 293
7567 7511 355
7567 7474 49
7567 7574 46
7567 7675 49
7568 7569 32
7569 7568 32
7570 7571 34
7571 7570 34
7572 7425 83
7572 7565 36
7572 7649 107
7573 7535 243
7573 7488 39
7573 7625 118
7573 7666 45
7574 7567 46
7574 7582 44
7574 7823 138
7575 7562 38
7575 7596 66
7575 7629 22
7576 7561 34
7576 7470 153
7576 7665 84
7577 7578 44
7578 7577 44
7579 6018 1639
7579 6444 1696
7579 8736 882
7580 7413 106
7580 7555 51
7580 7615 42
7580 7694 69
7581 7473 59
7581 7538 102
7581 7607 12
7582 7574 44
7582 7583 101
7582 7587 44
7582 7829 138
7583 7582 101
7584 7529 24
7584 7597 21
7585 7427 96
7585 7557 29
7585 7627 36
7586 7556 69
7586 7464 154
7586 7713 79
7587 7582 44
7587 7588 108
7587 7600 45
7587 7835 138
7588 7587 108
7589 7590 319
7590 7589 319
7590 7592 53
7590 7598 43
7591 7592 141
7592 7591 141
7592 7590 53
7592 7906 185
7593 7594 182
7593 7595 20
7593 7605 68
7593 8013 239
7594 7593 182
7595 7593 20
7595 7471 45
7596 7514 38
7596 7575 66
7596 7843 144
7597 7584 21
7597 7543 24
7597 7606 15
7598 7590 43
7598 6826 604
7598 8336 460
7599 7505 42
7599 7638 271
7599 7680 41
7600 7587 45
7600 7601 84
7600 7610 88
7600 7838 138
7601 7600 84
7602 7550 120
7602 7198 298
7602 7912 189
7603 7604 105
7603 7495 49
7603 7687 43
7604 7603 105
7605 7593 68
7605 7608 62
7605 7720 76
7606 7597 15
7606 7551 25
7606 7609 15
7607 7581 12
7607 7560 99
7607 7641 14
7607 7805 219
7608 7605 62
7608 7651 78
7608 7708 64
7609 7606 15
7609 7558 25
7609 7617 15
7610 7600 88
7610 7611 99
7610 7623 45
7610 7847 138
7611 7610 99
7612 7613 62
7613 7612 62
7614 7068 456
7614 7633 12
7614 7696 57
7615 7580 42
7615 7650 45
7615 7725 79
7616 7542 65
7617 7609 15
7617 7563 25
7618 7619 67
7619 7618 67
7620 7511 49
7620 7675 355
7620 7693 42
7621 7622 42
7621 7546 177
7621 7717 68
7622 7621 42
7622 7630 68
7622 7699 50
7623 7610 45
7623 7624 103
7623 7631 43
7623 7738 80
7624 7623 103
7625 7573 118
7625 7520 47
7625 7642 44
7626 7552 34
7626 7630 23
7626 7846 154
7627 7555 31
7627 7585 36
7627 7703 57
7628 7566 134
7628 7640 82
7628 7730 74
7629 7575 22
7629 7655 39
7629 7689 34
7630 7626 23
7630 7622 68
7630 7711 60
7631 7623 43
7631 7632 122
7631 7637 44
7631 7743 80
7632 7631 122
7633 7614 12
7633 7554 38
7633 7682 57
7633 7683 35
7634 7635 80
7634 7422 111
7634 7647 33
7635 7634 80
7635 15224 20
7636 7500 61
7637 7631 44
7637 7535 42
7637 7661 146
7637 7749 80
7638 7599 271
7639 7503 59
7640 7628 82
7641 7607 14
7641 7524 256
7641 7681 70
7641 7824 121
7642 7625 44
7642 7643 120
7642 7659 44
7643 7642 120
7644 7557 41
7644 7401 171
7644 7703 65
7645 7646 33
7646 7645 33
7646 7657 90
7646 7668 81
7647 7634 33
7647 7506 62
7647 7648 84
7647 7828 118
7648 7647 84
7649 7549 113
7649 7572 107
7649 7702 42
7650 7615 45
7650 7672 39
7650 7760 86
7651 7608 78
7651 7696 235
7651 7777 85
7652 7653 30
7653 7652 30
7653 7662 11
7653 7692 38
7654 7655 10
7655 7654 10
7655 7629 39
7655 7701 39
7656 7484 86
7656 7684 153
7656 7716 57
7657 7646 90
7658 6727 729
7659 7642 44
7659 7660 110
7659 7673 43
7660 7659 110
7661 7637 146
7661 7663 44
7661 7830 104
7662 7653 11
7663 7661 44
7663 7666 47
7663 7836 106
7664 7561 95
7664 7665 26
7664 8070 451
7665 7576 84
7665 7664 26
7665 8058 426
7666 7663 47
7666 7573 45
7666 7714 220
7666 7722 48
7667 7469 119
7667 7676 10
7667 7677 8
7668 7646 81
7668 7465 115
7668 7728 61
7669 7670 26
7670 7669 26
7670 7671 39
7670 7679 43
7671 7670 39
7672 7650 39
7672 7686 44
7672 7806 91
7673 7659 43
7673 7674 97
7673 7724 48
7674 7673 97
7675 7620 355
7675 7567 49
7675 7721 44
7676 7667 10
7676 7476 118
7676 7685 9
7676 7879 230
7677 7667 8
7677 7685 9
7677 7726 51
7678 7679 33
7679 7678 33
7679 7403 177
7679 7670 43
7679 7726 72
7680 7599 41
7680 7697 292
7680 7729 43
7681 7641 70
7681 7700 39
7681 7778 68
7682 7633 57
7682 7554 72
7682 7707 47
7683 7633 35
7683 7831 242
7683 7897 154
7684 7561 60
7684 7656 153
7684 7872 178
7685 7677 9
7685 7676 9
7685 7744 59
7685 7895 229
7686 7672 44
7686 7695 43
7686 7833 91
7687 7688 104
7687 7603 43
7687 7737 44
7688 7687 104
7689 7629 34
7689 7701 39
7689 7710 29
7690 7532 167
7690 7263 287
7690 7799 66
7691 7692 66
7692 7691 66
7692 7653 38
7692 7754 51
7693 7620 42
7693 7721 355
7693 7750 46
7694 7580 69
7694 7725 49
7694 7742 43
7695 7686 43
7695 7706 44
7695 7850 93
7696 7651 235
7696 7614 57
7696 7887 133
7697 7680 292
7698 7472 127
7698 7704 43
7698 7780 86
7699 7622 50
7700 7681 39
7700 7800 56
7700 7921 220
7701 7655 39
7701 7689 39
7701 7752 38
7702 7562 180
7702 7649 42
7702 7774 44
7703 7627 57
7703 7644 65
7703 7742 45
7703 7901 122
7704 7485 126
7704 7698 43
7705 7476 228
7705 7542 114
7705 7879 119
7705 7926 220
7706 7695 44
7706 7715 44
7706 7871 94
7707 7682 47
7707 7517 107
7707 7723 21
7708 7608 64
7709 7548 96
7709 7727 62
7709 7867 91
7710 7689 29
7710 7736 24
7710 7752 47
7711 7630 60
7711 7734 48
7711 7868 89
7712 7398 544
7713 7553 181
7713 7586 79
7713 7837 62
7714 7666 220
7714 7724 25
7714 7816 51
7715 7706 44
7715 7733 55
7715 7881 96
7716 7656 57
7716 7747 64
7716 7832 59
7717 7621 68
7718 7719 22
7718 7735 107
7719 7718 22
7719 7767 90
7719 7849 71
7720 7605 76
7721 7693 355
7721 7675 44
7721 7813 45
7722 7666 48
7722 7814 47
7722 7816 217
7723 7707 21
7723 7528 112
7723 7837 150
7724 7714 25
7724 7673 48
7724 7739 50
7725 7615 79
7725 7694 49
7725 7760 44
7726 7679 72
7726 7677 51
7726 7955 179
7727 7467 183
7727 7709 62
7727 7780 68
7728 7668 61
7728 7769 133
7728 7801 80
7728 7827 53
7729 7680 43
7729 7758 318
7729 7808 38
7730 7628 74
7731 7732 31
7731 7737 45
7731 7844 54
7732 7731 31
7733 7715 55
7733 7746 37
7733 7911 99
7734 7711 48
7735 7718 107
7735 7741 11
7736 7710 24
7736 7755 39
7736 7810 54
7737 7731 45
7737 7687 44
7737 7745 49
7738 7623 80
7738 7743 42
7738 7852 58
7739 7724 50
7739 7740 113
7739 7761 56
7740 7739 113
7741 7735 11
7741 7450 188
7741 7748 11
7741 8062 198
7742 7694 43
7742 7703 45
7742 7826 67
7742 7905 90
7743 7738 42
7743 7631 80
7743 7749 44
7743 7857 57
7744 7685 59
7744 7819 60
7744 7870 102
7745 7737 49
7745 7502 136
7745 7750 51
7745 7854 156
7746 7733 37
7746 7753 36
7746 7924 98
7747 7716 64
7747 7872 95
7747 7908 95
7748 7741 11
7748 7453 192
7748 7751 11
7748 7855 59
7749 7743 44
7749 7637 80
7749 7785 13
7750 7745 51
7750 7693 46
7750 7759 57
7751 7748 11
7751 7440 200
7751 7788 41
7751 7861 60
7752 7701 38
7752 7710 47
7752 7810 28
7753 7746 36
7753 7757 15
7753 7934 97
7754 7692 51
7754 7782 25
7754 7807 97
7755 7736 39
7755 7773 40
7755 7898 79
7756 7493 176
7756 7798 59
7756 7802 18
7757 7565 114
7757 7753 15
7757 7763 25
7758 7729 318
7758 7779 35
7759 7750 57
7759 7813 298
7759 7854 48
7760 7650 86
7760 7725 44
7760 7806 47
7761 7739 56
7761 7762 131
7761 7794 45
7762 7761 131
7763 7757 25
7763 7771 50
7763 7942 96
7764 7765 60
7765 7764 60
7766 7767 50
7766 7768 50
7767 7766 50
7767 7719 90
7767 7768 0
7767 8217 277
7768 7766 50
7768 7767 0
7768 7772 6
7768 8216 276
7769 7770 59
7769 7728 133
7769 7820 42
7770 7769 59
7771 7763 50
7771 7775 36
7771 8020 136
7772 7768 6
7772 7842 73
7773 7755 40
7773 7776 40
7773 7925 86
7774 7702 44
7774 7775 31
7774 7776 11
7775 7774 31
7775 7771 36
7775 7956 97
7776 7774 11
7776 7773 40
7776 7945 93
7777 7651 85
7777 7887 181
7777 7995 121
7778 7681 68
7778 7800 40
7778 7851 43
7779 7780 85
7779 7758 35
7780 7779 85
7780 7698 86
7780 7727 68
7781 7782 40
7782 7781 40
7782 7754 25
7782 7801 15
7783 7784 62
7783 7786 58
7783 7811 36
7784 7783 62
7785 7749 13
7785 7803 99
7785 7860 44
7786 7783 58
7786 7787 104
7786 7825 21
7787 7786 104
7788 7751 41
7788 7461 202
7788 7832 63
7789 7790 85
7790 7789 85
7790 7809 67
7790 7818 16
7791 7792 46
7792 7791 46
7792 7793 71
7792 7828 155
7792 7856 46
7793 7792 71
7794 7761 45
7794 7795 126
7794 7808 48
7795 7794 126
7796 7204 403
7796 7797 64
7796 7864 46
7797 7796 64
7798 7756 59
7798 7809 48
7798 7929 84
7799 7690 66
7799 7866 49
7799 7892 302
7800 7700 56
7800 7778 40
7800 7896 66
7801 7728 80
7801 7782 15
7801 7827 26
7802 7756 18
7802 7948 110
7802 8109 216
7803 7785 99
7803 7804 45
7803 7817 9
7804 7803 45
7805 7473 306
7805 7607 219
7805 7910 136
7806 7672 91
7806 7760 47
7806 7833 44
7807 7754 97
7807 7873 46
7807 7863 140
7808 7794 48
7808 7729 38
7808 7815 52
7809 7790 67
7809 7798 48
7809 7948 142
7810 7752 28
7810 7736 54
7810 7898 84
7811 7812 46
7811 7783 36
7811 7928 76
7812 7811 46
7813 7759 298
7813 7721 45
7813 7823 47
7813 7885 47
7814 7722 47
7814 7841 14
7814 7880 213
7815 7808 52
7815 7834 102
7815 7900 53
7816 7722 217
7816 7714 51
7816 7880 42
7816 7900 279
7817 7803 9
7817 7830 43
7817 7869 32
7818 7790 16
7818 7822 21
7818 7858 23
7819 7744 60
7819 7893 81
7819 7969 106
7820 7821 90
7820 7769 42
7820 8233 260
7821 7820 90
7821 7825 47
7821 7894 74
7822 7818 21
7823 7813 47
7823 7574 138
7823 7829 44
7823 8059 147
7824 7641 121
7824 7851 80
7824 8030 122
7825 7786 21
7825 7821 47
7825 7932 80
7826 7742 67
7826 7916 169
7826 7944 80
7827 7728 53
7827 7801 26
7827 7952 159
7827 8345 366
7828 7792 155
7828 7647 118
7828 7853 77
7828 7933 71
7829 7823 44
7829 7582 138
7829 7835 45
7829 8079 157
7830 7817 43
7830 7661 104
7830 7836 43
7830 8073 155
7831 7683 242
7831 7935 240
7831 7975 93
7832 7788 63
7832 7716 59
7832 7922 62
7833 7686 91
7833 7806 44
7833 7850 48
7834 7815 102
7834 7848 195
7834 7904 47
7835 7829 45
7835 7587 138
7835 7838 44
7836 7830 43
7836 7663 106
7836 7841 46
7836 8086 156
7837 7723 150
7837 7713 62
7837 7877 69
7838 7835 44
7838 7600 138
7838 7845 44
7838 8181 223
7839 7840 156
7840 7839 156
7841 7836 46
7841 7814 14
7841 7884 32
7842 7772 73
7842 7524 191
7842 8030 231
7843 7596 144
7843 7514 282
7843 7950 81
7844 7731 54
7845 7838 44
7845 7847 43
7845 8080 147
7846 7626 154
7846 7853 7
7846 7868 101
7847 7845 43
7847 7610 138
7847 7852 45
7847 8087 147
7848 7834 195
7848 7867 216
7848 7920 63
7849 7719 71
7849 7859 69
7849 8028 148
7850 7695 93
7850 7833 48
7850 7871 45
7851 7824 80
7851 7778 43
7851 8085 148
7852 7847 45
7852 7738 58
7852 7857 42
7852 8092 147
7853 7828 77
7853 7846 7
7853 8077 145
7854 7745 156
7854 7759 48
7854 7885 298
7854 7931 45
7855 7748 59
7855 7861 13
7855 7982 73
7856 7792 46
7856 7891 25
7856 7933 139
7857 7852 42
7857 7743 57
7857 7860 44
7857 8099 147
7858 7818 23
7858 7886 22
7859 7849 69
7860 7857 44
7860 7785 44
7860 7869 98
7860 7941 47
7861 7855 13
7861 7751 60
7861 7922 102
7861 7985 73
7862 7863 86
7863 7862 86
7863 7876 50
7863 7807 140
7864 7796 46
7864 7865 53
7864 7910 28
7865 7864 53
7866 7799 49
7867 7848 216
7867 7709 91
7867 8004 73
7868 7711 89
7868 7846 101
7868 7878 11
7869 7860 98
7869 7817 32
7869 7960 47
7870 7744 102
7870 7951 63
7870 7969 80
7871 7706 94
7871 7850 45
7871 7881 42
7872 7747 95
7872 7684 178
7872 7908 73
7872 8055 144
7873 7807 46
7874 7875 69
7874 7878 61
7874 8089 181
7875 7874 69
7876 7863 50
7876 7889 91
7877 7837 69
7877 7550 188
7877 7912 103
7878 7868 11
7878 7874 61
7878 7943 34
7879 7676 230
7879 7705 119
7879 7895 8
7879 8267 415
7880 7814 213
7880 7816 42
7880 7970 44
7880 7993 279
7881 7715 96
7881 7871 42
7881 7911 60
7882 7883 207
7883 7882 207
7883 7992 57
7883 7999 113
7884 7841 32
7884 7970 210
7884 7974 43
7885 7854 298
7885 7813 47
7885 7983 48
7886 7858 22
7886 7913 66
7886 7923 31
7887 7777 181
7887 7696 133
7887 7897 14
7887 7957 37
7888 7510 237
7888 7889 36
7888 8116 156
7889 7876 91
7889 7888 36
7889 8200 256
7890 7891 68
7891 7890 68
7891 7856 25
7891 7919 16
7892 7799 302
7892 7265 388
7892 8075 114
7893 7819 81
7893 7949 48
7893 8033 87
7894 7821 74
7895 7685 229
7895 7879 8
7895 7997 62
7895 8129 265
7896 7800 66
7896 8022 65
7897 7887 14
7897 7683 154
7897 7964 37
7898 7810 84
7898 7755 79
7898 7925 46
7899 7498 251
7899 7463 250
7899 7999 56
7900 7816 279
7900 7815 53
7900 7904 129
7900 7993 46
7901 7703 122
7901 7917 41
7901 8012 58
7902 7903 129
7903 7902 129
7903 7494 264
7903 8047 95
7904 7834 47
7904 7909 45
7904 7900 129
7905 7742 90
7905 7914 11
7905 7927 14
7906 7907 168
7906 7592 185
7906 8325 272
7907 7906 168
7907 8271 349
7908 7747 95
7908 7872 73
7908 7918 31
7909 7904 45
7909 7920 114
7909 8027 60
7910 7864 28
7910 7805 136
7910 7912 192
7911 7733 99
7911 7881 60
7911 7924 44
7911 7989 40
7912 7877 103
7912 7602 189
7912 7910 192
7913 7886 66
7914 7905 11
7914 7917 3
7915 7525 223
7915 7480 414
7916 7826 169
7916 7989 156
7916 8003 44
7917 7914 3
7917 7901 41
7917 7946 16
7918 7908 31
7918 7922 43
7918 8055 100
7919 7891 16
7919 7968 22
7919 8005 137
7920 7909 114
7920 7848 63
7920 8027 130
7921 7700 220
7921 7947 109
7921 8121 125
7922 7861 102
7922 7832 62
7922 7918 43
7922 8044 75
7923 7886 31
7923 7938 93
7923 7973 24
7924 7746 98
7924 7911 44
7924 7934 44
7925 7898 46
7925 7773 86
7925 7945 50
7926 7705 220
7927 7905 14
7927 7944 43
7927 7946 16
7928 7811 76
7928 7937 35
7928 7971 19
7929 7798 84
7930 7931 36
7931 7930 36
7931 7854 45
7931 7983 298
7931 8040 275
7932 7825 80
7932 7936 22
7932 7966 14
7933 7856 139
7933 7828 71
7933 8005 39
7934 7753 97
7934 7924 44
7934 7942 47
7935 7831 240
7935 7947 91
7935 7965 13
7936 7932 22
7937 7928 35
7938 7923 93
7938 7939 16
7938 8126 124
7939 7938 16
7939 7940 23
7939 7953 21
7940 7939 23
7941 7860 47
7941 7960 95
7941 8024 43
7942 7763 96
7942 7934 47
7943 7878 34
7943 7994 25
7943 7996 74
7944 7927 43
7944 7826 80
7944 7972 12
7945 7925 50
7945 7776 93
7945 7956 45
7946 7917 16
7946 7927 16
7946 8032 47
7947 7935 91
7947 7921 109
7947 7965 111
7948 7802 110
7948 7809 142
7948 8252 284
7949 7893 48
7949 7997 45
7949 8048 76
7950 7843 81
7950 8011 115
7950 8019 44
7951 7870 63
7951 7981 19
7951 7988 31
7952 7827 159
7953 7939 21
7953 7954 29
7953 7971 29
7954 7953 29
7955 7726 179
7955 7981 20
7955 7986 26
7956 7945 45
7956 7775 97
7956 8021 38
7957 7887 37
7957 7964 13
7957 8066 85
7958 7959 17
7958 7987 16
7958 7995 56
7959 7958 17
7959 7987 343
7960 7941 95
7960 7869 47
7960 8024 135
7961 6565 1087
7961 8170 656
7961 9310 1210
7962 7963 6
7962 7966 16
7963 7962 6
7964 7957 13
7964 7897 37
7964 7979 332
7964 8072 87
7965 7935 13
7965 7947 111
7965 8014 79
7965 8104 92
7966 7932 14
7966 7962 16
7966 7998 19
7967 7968 138
7968 7967 138
7968 7919 22
7968 8006 24
7969 7870 80
7969 7819 106
7969 8033 93
7970 7884 210
7970 7880 44
7970 8036 45
7970 8049 279
7971 7953 29
7971 7928 19
7971 8031 53
7972 7944 12
7972 7991 50
7972 8032 96
7973 7923 24
7973 7984 10
7974 7884 43
7974 8036 207
7974 8038 45
7975 7831 93
7975 7976 29
7975 7979 21
7976 7975 29
7976 8302 222
7977 7978 117
7977 8009 91
7977 8039 44
7978 7977 117
7978 7980 112
7978 8009 41
7979 7975 21
7979 7964 332
7979 8213 165
7980 7978 112
7981 7951 19
7981 7955 20
7981 8002 21
7982 7855 73
7982 7985 10
7982 8143 123
7983 7931 298
7983 7885 48
7983 8050 47
7984 7973 10
7985 7982 10
7985 7861 73
7985 8044 108
7985 8143 128
7985 15287 128
7986 7955 26
7986 8002 27
7986 8089 108
7987 7959 343
7987 7958 16
7987 8227 262
7988 7951 31
7988 8051 70
7988 8119 96
7989 7911 40
7989 7916 156
7989 8010 65
7990 7991 111
7990 8003 45
7990 8118 97
7991 7990 111
7991 7972 50
7991 8096 75
7992 7883 57
7992 8037 134
7992 8113 114
7993 7880 279
7993 7900 46
7993 8035 155
7993 8049 43
7994 7943 25
7994 8007 37
7994 8052 132
7995 7958 56
7995 7777 121
7995 8066 144
7996 7943 74
7997 7949 45
7997 7895 62
7997 8053 70
7998 7966 19
7999 7899 56
7999 7883 113
7999 8113 86
8000 8001 41
8000 8031 24
8000 8045 63
8001 8000 41
8002 7986 27
8002 7981 21
8002 8081 89
8003 7916 44
8003 7990 45
8003 8029 49
8004 7867 73
8004 8018 70
8004 8395 324
8005 7919 137
8005 7933 39
8005 8056 44
8006 7968 24
8006 8026 12
8006 8056 136
8007 7994 37
8008 7432 340
8009 7977 91
8009 7978 41
8009 8115 214
8010 7989 65
8010 8020 124
8010 8063 45
8011 7950 115
8011 8021 75
8011 8065 43
8012 7901 58
8012 8032 50
8012 8239 155
8013 7593 239
8013 8110 71
8013 8136 149
8014 8015 41
8014 7965 79
8014 8102 61
8015 8014 41
8015 8088 125
8015 8090 56
8016 8017 48
8017 8016 48
8017 8034 76
8017 8106 64
8018 8004 70
8018 8097 314
8018 8164 120
8019 7950 44
8019 8037 17
8019 8065 125
8020 7771 136
8020 8010 124
8020 8021 34
8021 8011 75
8021 7956 38
8021 8020 34
8022 7896 65
8022 8067 39
8023 7481 324
8023 8042 78
8024 7941 43
8024 7960 135
8024 8074 44
8025 8026 139
8026 8025 139
8026 8006 12
8026 8071 43
8027 7909 60
8027 7920 130
8027 8035 13
8028 7849 148
8028 8061 32
8029 8003 49
8029 8060 150
8029 8145 95
8030 7824 122
8030 7842 231
8030 8093 54
8031 7971 53
8031 8000 24
8031 8120 81
8032 7946 47
8032 8012 50
8032 7972 96
8033 7969 93
8033 7893 87
8033 8048 45
8034 8017 76
8034 8043 17
8034 8057 28
8035 7993 155
8035 8027 13
8035 8091 45
8036 7974 207
8036 7970 45
8036 8100 43
8036 8117 279
8037 7992 134
8037 8019 17
8037 8122 65
8038 7974 45
8038 8095 36
8038 8100 202
8039 7977 44
8039 8108 47
8039 8115 253
8040 7931 275
8041 8042 74
8042 8041 74
8042 8023 78
8042 8210 120
8043 8034 17
8044 7985 108
8044 7922 75
8044 8201 123
8045 8000 63
8046 8047 277
8047 8046 277
8047 7903 95
8047 8069 22
8048 8033 45
8048 7949 76
8048 8064 55
8049 7970 279
8049 7993 43
8049 8091 142
8049 8117 46
8050 7983 47
8051 7988 70
8051 8107 71
8051 8133 66
8052 7994 132
8053 7997 70
8053 8114 49
8053 8154 126
8054 7566 293
8054 8169 93
8054 8395 238
8055 7918 100
8055 7872 144
8055 8266 153
8056 8006 136
8056 8005 44
8056 8128 54
8057 8034 28
8058 7665 426
8058 8069 72
8058 8105 67
8059 7823 147
8060 8029 150
8060 8063 21
8060 8378 217
8061 8028 32
8061 8062 84
8062 7741 198
8062 8061 84
8062 8211 110
8063 8010 45
8063 8060 21
8063 8078 112
8064 8048 55
8064 8114 63
8064 8144 59
8065 8019 125
8065 8011 43
8065 8078 139
8066 7995 144
8066 7957 85
8066 8072 12
8066 8227 121
8067 8068 49
8067 8022 39
8067 8085 58
8068 8067 49
8068 8121 154
8068 8401 285
8069 8047 22
8069 8058 72
8069 8105 23
8070 7664 451
8070 8123 60
8070 8139 61
8071 8026 43
8071 8083 6
8071 8128 133
8072 8066 12
8072 7964 87
8072 8241 119
8073 7830 155
8073 8086 42
8073 8094 10
8074 8024 44
8074 8094 135
8074 8103 14
8075 7892 114
8075 8076 234
8075 8112 64
8075 9220 1494
8076 8075 234
8077 7853 145
8077 8082 173
8077 8130 40
8078 8063 112
8078 8065 139
8078 8226 98
8079 7829 157
8080 7845 147
8080 8087 44
8080 8180 69
8081 8002 89
8081 8119 90
8081 8124 47
8082 8077 173
8083 8084 136
8083 8071 6
8083 8131 39
8084 8083 136
8085 8067 58
8085 7851 148
8085 8101 20
8086 8073 42
8086 7836 156
8086 8095 45
8086 8247 106
8087 8080 44
8087 7847 147
8087 8092 45
8087 8183 70
8088 8015 125
8088 8090 14
8088 8282 130
8089 7874 181
8089 7986 108
8089 8214 135
8090 8088 14
8090 8015 56
8090 8102 42
8091 8049 142
8091 8035 45
8091 8148 45
8092 8087 45
8092 7852 147
8092 8099 43
8092 8186 72
8093 8030 54
8093 8101 105
8093 8431 262
8094 8074 135
8094 8073 10
8094 8135 176
8095 8086 45
8095 8038 36
8095 8134 34
8096 7991 75
8096 8118 80
8096 8239 197
8097 8098 19
8097 8018 314
8097 8235 235
8098 8097 19
8099 8092 43
8099 7857 147
8099 8103 45
8099 8188 71
8100 8038 202
8100 8036 43
8100 8157 170
8100 8173 280
8101 8085 20
8101 8093 105
8102 8090 42
8102 8014 61
8102 8104 46
8103 8099 45
8103 8074 14
8103 8135 29
8104 8102 46
8104 7965 92
8104 8257 105
8105 8058 67
8105 8069 23
8105 8109 6
8105 8123 19
8106 8017 64
8107 8051 71
8107 8144 132
8107 8171 54
8108 8039 47
8108 8166 228
8108 8172 59
8109 8105 6
8109 7802 216
8109 8127 21
8109 8176 184
8110 8111 338
8110 8013 71
8110 8136 48
8110 8267 120
8111 8110 338
8112 8075 64
8112 8125 42
8112 8350 173
8113 7999 86
8113 7992 114
8113 8116 12
8113 8342 177
8114 8064 63
8114 8053 49
8114 8150 35
8115 8039 253
8115 8009 214
8115 8166 42
8115 8167 190
8116 7888 156
8116 8113 12
8116 8380 204
8117 8036 279
8117 8049 46
8117 8148 136
8117 8173 44
8118 7990 97
8118 8096 80
8118 8145 90
8118 8289 138
8119 8081 90
8119 7988 96
8119 8133 64
8120 8031 81
8120 8174 75
8120 8196 64
8121 7921 125
8121 8068 154
8121 8264 96
8122 8037 65
8122 8155 29
8122 8191 150
8123 8070 60
8123 8105 19
8123 8127 10
8123 8146 18
8124 8081 47
8124 8224 185
8124 8255 127
8125 8112 42
8125 8352 173
8125 8751 948
8126 7938 124
8126 8138 39
8126 8147 14
8127 8123 10
8127 8109 21
8127 8137 13
8127 8149 17
8128 8071 133
8128 8056 54
8128 8168 108
8128 8184 49
8129 7895 265
8129 8205 63
8129 8275 150
8130 8077 40
8130 8132 105
8130 8168 25
8131 8083 39
8131 8142 6
8131 8184 118
8132 8130 105
8133 8119 64
8133 8051 66
8133 8224 58
8134 8095 34
8134 8193 43
8134 8212 194
8135 8103 29
8135 8094 176
8135 8195 44
8136 8110 48
8136 8013 149
8136 8355 239
8137 8127 13
8137 8251 132
8138 8126 39
8138 8140 4
8138 8153 9
8139 8070 61
8139 8146 5
8139 8152 437
8139 8156 10
8140 8138 4
8141 8142 183
8142 8141 183
8142 8131 6
8142 8194 41
8143 7982 123
8143 7985 128
8143 15287 128
8143 8185 31
8143 8192 102
8144 8107 132
8144 8064 59
8144 8177 24
8145 8029 95
8145 8118 90
8145 8175 99
8145 8219 49
8146 8139 5
8146 8123 18
8146 8149 8
8146 8156 9
8147 8126 14
8147 8151 20
8147 8252 106
8148 8117 136
8148 8091 45
8148 8209 45
8149 8146 8
8149 8127 17
8149 8392 185
8150 8114 35
8150 8182 75
8150 8197 39
8151 8147 20
8152 8139 437
8153 8138 9
8154 8053 126
8154 8205 65
8154 8215 44
8155 8122 29
8155 8191 31
8155 8202 144
8156 8139 10
8156 8146 9
8156 8383 175
8157 8100 170
8158 8159 27
8158 8167 232
8158 8222 40
8159 8158 27
8160 8161 60
8161 8160 60
8161 8162 74
8161 8165 27
8162 8161 74
8163 8164 161
8164 8163 161
8164 8018 120
8164 8225 43
8165 8161 27
8166 8108 228
8166 8115 42
8166 8229 189
8166 8242 44
8167 8115 190
8167 8158 232
8167 8222 188
8167 8229 38
8168 8128 108
8168 8130 25
8168 8262 55
8169 8054 93
8169 8232 151
8169 8234 42
8170 7961 656
8170 8248 874
8170 8335 109
8171 8107 54
8171 8189 63
8171 8256 50
8172 8108 59
8172 8242 189
8172 8259 58
8173 8100 280
8173 8117 44
8173 8209 128
8173 8261 51
8174 8120 75
8174 8178 4
8174 8263 55
8175 8145 99
8176 8109 184
8176 8251 84
8176 8253 96
8177 8144 24
8177 8197 54
8177 8189 99
8178 8174 4
8178 8179 76
8178 8230 82
8179 8178 76
8180 8080 69
8181 7838 223
8182 8150 75
8182 8215 61
8182 8281 67
8183 8087 70
8184 8131 118
8184 8128 49
8184 8190 7
8185 8143 31
8185 8221 70
8185 8429 183
8186 8092 72
8187 6914 1215
8187 7158 2247
8187 9089 924
8187 9228 1436
8188 8099 71
8189 8171 63
8189 8177 99
8189 8356 108
8190 8184 7
8190 8262 132
8190 8273 54
8191 8122 150
8191 8155 31
8191 8283 60
8192 8143 102
8192 8201 17
8192 8221 54
8193 8134 43
8193 8265 38
8193 8276 190
8194 8142 41
8195 8135 44
8195 8218 83
8195 8258 30
8196 8120 64
8196 8243 22
8197 8177 54
8197 8150 39
8197 8291 55
8198 8199 25
8199 8198 25
8199 8200 62
8199 8345 151
8200 7889 256
8200 8199 62
8200 8203 72
8201 8192 17
8201 8044 123
8201 8266 103
8202 8155 144
8202 8231 124
8202 8277 44
8203 8200 72
8203 8204 36
8203 8223 6
8204 8203 36
8205 8154 65
8205 8129 63
8205 8314 114
8205 8330 89
8206 8207 62
8206 8208 6
8207 8206 62
8208 8206 6
8208 8216 29
8208 8290 48
8209 8173 128
8209 8148 45
8209 8261 153
8210 8042 120
8211 8062 110
8211 8220 70
8211 8373 119
8212 8134 194
8212 8274 148
8212 8276 40
8213 7979 165
8213 8315 66
8214 8089 135
8214 8255 26
8214 8507 328
8215 8182 61
8215 8154 44
8215 8324 77
8216 8208 29
8216 7768 276
8216 8217 1
8216 8297 51
8217 8216 1
8217 7767 277
8217 8220 26
8217 8298 51
8218 8195 83
8218 8236 45
8218 8296 50
8219 8145 49
8219 8289 122
8219 8518 257
8220 8217 26
8220 8211 70
8220 8299 50
8221 8185 70
8221 8192 54
8221 8414 147
8222 8167 188
8222 8158 40
8222 8278 189
8222 8284 42
8223 8203 6
8223 8228 25
8223 8244 9
8224 8124 185
8224 8133 58
8224 8256 72
8225 8164 43
8225 8235 3
8225 8245 42
8226 8078 98
8226 8231 49
8226 8285 127
8226 8387 111
8227 7987 262
8227 8066 121
8227 8355 100
8228 8223 25
8229 8166 189
8229 8167 38
8229 8284 188
8229 8295 44
8230 8178 82
8230 8233 16
8230 8470 174
8231 8226 49
8231 8202 124
8231 8277 182
8232 8169 151
8232 8234 101
8232 8273 142
8233 8230 16
8233 7820 260
8233 8280 118
8234 8169 42
8234 8232 101
8234 8240 4
8235 8097 235
8235 8225 3
8235 8260 18
8236 8218 45
8236 8247 43
8236 8308 49
8237 8238 127
8238 8237 127
8239 8096 197
8239 8012 155
8239 8317 98
8239 8317 93
8240 8234 4
8240 8254 83
8240 8279 35
8241 8072 119
8241 8270 89
8241 8313 59
8242 8172 189
8242 8166 44
8242 8295 189
8242 8303 43
8243 8196 22
8243 8310 152
8243 8406 134
8244 8223 9
8245 8225 42
8245 8246 17
8245 8268 20
8246 8245 17
8247 8236 43
8247 8086 106
8247 8265 51
8247 8320 54
8248 6555 1311
8248 8170 874
8248 8403 142
8249 8250 141
8249 8272 106
8249 8382 97
8250 8249 141
8250 8270 76
8251 8137 132
8251 8176 84
8251 8488 188
8252 8253 88
8252 7948 284
8252 8147 106
8252 8871 523
8252 8914 841
8253 8252 88
8253 8176 96
8254 8240 83
8255 8214 26
8255 8124 127
8255 8418 139
8255 8525 315
8256 8224 72
8256 8171 50
8256 8326 55
8257 8104 105
8257 8282 108
8257 8433 135
8258 8195 30
8259 8172 58
8259 8303 150
8259 8322 53
8260 8235 18
8260 8268 48
8260 8287 24
8261 8173 51
8261 8209 153
8261 8274 156
8262 8190 132
8262 8168 55
8262 8340 59
8263 8174 55
8263 8269 26
8263 8316 79
8264 8121 96
8264 8443 266
8264 8472 166
8265 8247 51
8265 8193 38
8265 8327 45
8265 8328 181
8266 8201 103
8266 8055 153
8266 8409 100
8267 7879 415
8267 8110 120
8267 8481 278
8268 8260 48
8268 8245 20
8268 8344 124
8269 8263 26
8270 8241 89
8270 8250 76
8270 8362 64
8271 7907 349
8272 8249 106
8273 8232 142
8273 8190 54
8273 8300 17
8274 8212 148
8274 8261 156
8274 8321 44
8275 8129 150
8275 8338 54
8275 8487 278
8276 8193 190
8276 8212 40
8276 8321 124
8276 8328 38
8277 8202 44
8277 8231 182
8277 8468 194
8278 8222 189
8278 8334 186
8278 8337 42
8279 8240 35
8279 8288 86
8279 8311 22
8280 8233 118
8280 8345 228
8280 8595 254
8281 8182 67
8281 8312 20
8282 8088 130
8282 8257 108
8282 8302 48
8282 8434 120
8283 8191 60
8283 8342 58
8283 8343 46
8284 8229 188
8284 8222 42
8284 8337 189
8284 8346 44
8285 8226 127
8286 8287 250
8287 8286 250
8287 8260 24
8287 8309 15
8288 8279 86
8288 8339 148
8288 8351 45
8289 8118 138
8289 8219 122
8289 8583 239
8290 8208 48
8290 8297 31
8291 8197 55
8291 8312 68
8291 8370 60
8292 8293 261
8293 8292 261
8293 8294 496
8293 8371 61
8294 8293 496
8295 8242 189
8295 8229 44
8295 8346 188
8295 8354 43
8296 8218 50
8297 8290 31
8297 8216 51
8297 8298 1
8297 8301 35
8298 8297 1
8298 8217 51
8298 8301 2
8298 8301 3
8299 8220 50
8300 8273 17
8300 8339 29
8300 8340 135
8301 8298 2
8301 8298 3
8301 8297 35
8301 8381 60
8302 7976 222
8302 8282 48
8302 8315 65
8302 8434 155
8303 8259 150
8303 8242 43
8303 8354 188
8303 8359 40
8304 8305 29
8305 8304 29
8305 8311 89
8305 8456 117
8306 8307 32
8307 8306 32
8307 8375 55
8308 8236 49
8309 8287 15
8309 8331 116
8309 8333 24
8310 8243 152
8311 8305 89
8311 8279 22
8311 8441 115
8312 8291 68
8312 8281 20
8312 8324 71
8313 8241 59
8313 8362 109
8313 8489 163
8314 8205 114
8314 8338 34
8314 8341 65
8315 8213 66
8315 8302 65
8315 8382 253
8316 8263 79
8317 8239 98
8317 8239 93
8317 8323 93
8317 8427 89
8318 8319 65
8319 8318 65
8319 8326 64
8319 8384 50
8320 8247 54
8321 8276 124
8321 8274 44
8321 8372 42
8322 8259 53
8322 8359 116
8322 8394 66
8323 8317 93
8324 8312 71
8324 8215 77
8324 8329 32
8325 7906 272
8325 8336 89
8326 8319 64
8326 8256 55
8326 8356 66
8326 8397 54
8327 8265 45
8328 8265 181
8328 8276 38
8328 8372 123
8329 8324 32
8329 8330 26
8329 8419 67
8330 8329 26
8330 8205 89
8330 8341 72
8331 8309 116
8331 8344 38
8331 8411 59
8332 8333 234
8333 8332 234
8333 8309 24
8333 8385 40
8333 8411 119
8334 8278 186
8334 8388 168
8334 8391 39
8335 8170 109
8335 8403 797
8335 9282 837
8336 8325 89
8336 7598 460
8336 8353 11
8337 8284 189
8337 8278 42
8337 8391 187
8337 8396 45
8338 8314 34
8338 8275 54
8338 8368 32
8339 8288 148
8339 8300 29
8339 8393 40
8340 8300 135
8340 8262 59
8340 8528 161
8341 8330 72
8341 8314 65
8341 8426 71
8342 8113 177
8342 8283 58
8342 8413 59
8343 8283 46
8343 8360 40
8343 8366 17
8344 8331 38
8344 8268 124
8344 8475 107
8345 8280 228
8345 7827 366
8345 8199 151
8345 8457 85
8346 8295 188
8346 8284 44
8346 8396 188
8346 8404 43
8347 8348 57
8348 8347 57
8348 8349 42
8348 8405 54
8348 8428 178
8349 8348 42
8349 8376 176
8349 8385 173
8350 8112 173
8350 8352 126
8350 9319 867
8351 8288 45
8351 8393 142
8351 8398 37
8352 8125 173
8352 8350 126
8352 9407 1024
8353 8336 11
8353 8357 45
8353 8451 78
8354 8303 188
8354 8295 43
8354 8404 189
8354 8408 40
8355 8136 239
8355 8227 100
8355 8481 117
8356 8326 66
8356 8189 108
8356 8416 49
8357 8353 45
8357 8358 342
8357 8361 92
8357 8448 73
8358 8357 342
8359 8322 116
8359 8303 40
8359 8408 188
8359 8410 40
8360 8343 40
8360 8366 17
8360 8369 65
8361 8357 92
8362 8313 109
8362 8270 64
8362 8382 159
8363 8364 68
8364 8363 68
8364 8365 39
8364 8367 7
8365 8364 39
8366 8343 17
8366 8360 17
8366 8386 17
8367 8364 7
8367 8376 77
8367 8423 51
8368 8338 32
8368 8420 77
8368 8435 66
8369 8360 65
8370 8291 60
8370 8415 138
8370 8447 61
8371 8293 61
8371 8497 230
8371 8502 113
8372 8328 123
8372 8321 42
8373 8211 119
8373 8381 46
8373 8548 142
8374 8375 45
8375 8374 45
8375 8307 55
8375 8414 67
8376 8367 77
8376 8349 176
8376 8377 0
8376 8379 6
8377 8376 0
8378 8060 217
8379 8376 6
8379 8405 66
8379 8445 51
8380 8116 204
8380 8554 145
8380 8574 197
8381 8301 60
8381 8373 46
8381 8390 34
8382 8249 97
8382 8315 253
8382 8362 159
8383 8156 175
8383 8421 235
8383 8611 198
8384 8319 50
8384 8397 57
8384 8442 49
8385 8349 173
8385 8333 40
8385 8428 41
8385 8458 123
8386 8366 17
8386 8413 57
8386 8468 63
8387 8226 111
8387 8417 63
8387 8473 83
8388 8334 168
8388 8389 19
8388 8425 36
8389 8388 19
8390 8381 34
8390 8412 73
8391 8337 187
8391 8334 39
8391 8425 168
8391 8444 45
8392 8149 185
8392 8531 156
8392 8621 194
8393 8351 142
8393 8339 40
8393 8438 39
8394 8322 66
8394 8410 66
8394 8459 68
8395 8004 324
8395 8054 238
8395 8469 59
8396 8346 188
8396 8337 45
8396 8444 187
8396 8450 44
8397 8384 57
8397 8326 54
8397 8416 67
8397 8465 52
8398 8351 37
8398 8438 138
8398 8440 35
8399 8400 134
8400 8399 134
8400 8432 30
8400 8457 239
8401 8402 278
8401 8068 285
8401 8558 120
8402 8401 278
8403 8248 142
8403 8335 797
8403 9072 701
8403 9282 1265
8404 8354 189
8404 8346 43
8404 8450 188
8404 8452 40
8405 8379 66
8405 8348 54
8405 8439 146
8406 8407 114
8406 8243 134
8407 8406 114
8408 8359 188
8408 8354 40
8408 8452 189
8408 8460 42
8409 8266 100
8409 8453 186
8409 8506 84
8410 8394 66
8410 8359 40
8410 8460 187
8411 8333 119
8411 8331 59
8411 8458 41
8412 8390 73
8412 8431 54
8413 8342 59
8413 8386 57
8413 8480 61
8414 8375 67
8414 8221 147
8414 8453 32
8415 8370 138
8415 8419 34
8415 8477 50
8416 8397 67
8416 8356 49
8416 8478 54
8417 8387 63
8417 8446 36
8417 8510 88
8418 8255 139
8418 8464 99
8418 8513 85
8419 8415 34
8419 8329 67
8419 8424 62
8420 8368 77
8420 8471 60
8420 8508 88
8421 8383 235
8421 8497 83
8421 8622 195
8422 8423 75
8423 8422 75
8423 8367 51
8423 8445 81
8424 8419 62
8424 8426 40
8424 8617 177
8425 8391 168
8425 8388 36
8425 8463 22
8426 8424 40
8426 8341 71
8426 8430 27
8427 8317 89
8428 8348 178
8428 8385 41
8428 8461 18
8428 8498 115
8429 8185 183
8429 8453 111
8429 8757 265
8429 15227 27
8429 15228 27
8430 8426 27
8430 8435 62
8430 8699 208
8431 8093 262
8431 8412 54
8431 8589 125
8432 8400 30
8433 8257 135
8433 8434 66
8433 8443 75
8434 8282 120
8434 8433 66
8434 8302 155
8434 8721 365
8435 8430 62
8435 8368 66
8435 8567 99
8436 8437 8
8437 8436 8
8437 8449 30
8437 8455 14
8438 8398 138
8438 8393 39
8438 8535 79
8439 8405 146
8439 8461 59
8439 8479 32
8440 8398 35
8440 8441 9
8440 8535 151
8441 8311 115
8441 8440 9
8441 8456 156
8442 8384 49
8442 8465 54
8442 8494 45
8443 8433 75
8443 8264 266
8443 8466 116
8444 8396 187
8444 8391 45
8444 8485 168
8444 8492 44
8445 8423 81
8445 8379 51
8445 8462 10
8446 8417 36
8446 8484 90
8446 8484 47
8446 8484 80
8447 8370 61
8447 8467 55
8447 8572 97
8448 8357 73
8448 8451 58
8448 8911 570
8449 8437 30
8449 8470 106
8450 8404 188
8450 8396 44
8450 8492 187
8450 8496 40
8451 8353 78
8451 8448 58
8451 8805 270
8452 8408 189
8452 8404 40
8452 8496 188
8452 8500 42
8453 8414 32
8453 8409 186
8453 8429 111
8453 8519 60
8454 8455 84
8455 8454 84
8455 8437 14
8455 8545 82
8456 8305 117
8456 8441 156
8456 8469 74
8457 8345 85
8457 8400 239
8457 8501 40
8458 8385 123
8458 8411 41
8458 8475 47
8458 8498 40
8459 8394 68
8459 8476 84
8459 8520 76
8460 8410 187
8460 8408 42
8460 8500 189
8461 8439 59
8461 8428 18
8461 8495 35
8462 8445 10
8462 8479 214
8462 8491 31
8463 8425 22
8463 8485 24
8463 8620 379
8464 8418 99
8464 8474 37
8464 8569 86
8465 8442 54
8465 8397 52
8465 8478 69
8465 8511 49
8466 8443 116
8466 8472 26
8467 8447 55
8467 8477 98
8467 8524 56
8468 8386 63
8468 8277 194
8468 8480 43
8469 8395 59
8469 8456 74
8469 8557 124
8470 8449 106
8470 8230 174
8470 8512 46
8471 8420 60
8471 8544 78
8471 8556 114
8472 8466 26
8472 8264 166
8472 8601 104
8473 8387 83
8473 8517 51
8473 8575 122
8474 8464 37
8474 8483 37
8474 8578 88
8475 8458 47
8475 8344 107
8475 8482 18
8476 8459 84
8476 8527 43
8476 8564 303
8477 8467 98
8477 8415 50
8477 8553 55
8478 8465 69
8478 8416 54
8478 8516 36
8479 8462 214
8479 8439 32
8479 8486 9
8480 8413 61
8480 8468 43
8480 8648 137
8481 8267 278
8481 8355 117
8481 8487 9
8481 8489 16
8482 8475 18
8482 8498 108
8482 8557 98
8483 8474 37
8483 8494 45
8483 8536 43
8484 8446 90
8484 8446 47
8484 8446 80
8485 8444 168
8485 8463 24
8485 8493 9
8486 8479 9
8486 8495 63
8486 8530 33
8487 8275 278
8487 8481 9
8487 8499 17
8487 8556 51
8488 8251 188
8488 8588 96
8489 8481 16
8489 8313 163
8489 8499 8
8490 8491 129
8491 8490 129
8491 8462 31
8491 8505 10
8492 8450 187
8492 8444 44
8492 8542 168
8492 8561 40
8493 8485 9
8493 8542 34
8493 8673 367
8494 8483 45
8494 8442 45
8494 8511 49
8495 8486 63
8495 8461 35
8495 8560 89
8496 8452 188
8496 8450 40
8496 8561 188
8496 8563 41
8497 8371 230
8497 8421 83
8497 8607 82
8498 8428 115
8498 8458 40
8498 8482 108
8499 8487 17
8499 8489 8
8499 8629 104
8500 8460 189
8500 8452 42
8500 8563 187
8500 8564 40
8501 8457 40
8501 8546 91
8501 8600 73
8502 8371 113
8502 8506 42
8502 8579 73
8503 8504 3
8503 8504 3
8503 8550 80
8504 8503 3
8504 8503 3
8504 8550 156
8504 8552 169
8505 8491 10
8505 8530 219
8505 8547 30
8506 8409 84
8506 8502 42
8506 8598 76
8507 8214 328
8507 8509 18
8507 8526 18
8508 8420 88
8508 8544 44
8508 8573 42
8509 8507 18
8509 8528 54
8509 8663 137
8510 8417 88
8510 8517 70
8510 8577 82
8511 8494 49
8511 8465 49
8511 8555 70
8512 8470 46
8512 8599 182
8512 8664 102
8513 8418 85
8513 8543 17
8513 8569 103
8514 8515 13
8515 8514 13
8515 8547 119
8515 8656 193
8516 8478 36
8516 8529 37
8516 8555 19
8517 8473 51
8517 8510 70
8517 8671 104
8518 8219 257
8519 8453 60
8519 8523 2
8519 8523 2
8519 8614 89
8520 8459 76
8520 8527 21
8520 8596 68
8521 8522 23
8521 8601 106
8522 8521 23
8523 8519 2
8523 8519 2
8523 8691 147
8524 8467 56
8524 8553 96
8524 8587 42
8525 8255 315
8525 8580 62
8526 8507 18
8526 8662 144
8527 8520 21
8527 8476 43
8527 8612 304
8528 8340 161
8528 8509 54
8528 8635 102
8529 8516 37
8529 8540 28
8529 8719 151
8530 8505 219
8530 8486 33
8530 8541 5
8531 8392 156
8531 8532 154
8531 8630 193
8531 8655 89
8532 8531 154
8533 8534 31
8534 8533 31
8535 8440 151
8535 8438 79
8535 8635 81
8536 8483 43
8536 8593 44
8536 8603 162
8537 8538 37
8537 8539 63
8537 8636 66
8538 8537 37
8539 8537 63
8540 8529 28
8540 8572 71
8540 8625 64
8541 8530 5
8541 8549 41
8541 8592 37
8542 8492 168
8542 8493 34
8542 8551 3
8543 8513 17
8543 8580 231
8543 8582 33
8544 8508 44
8544 8471 78
8544 8568 34
8545 8455 82
8546 8501 91
8547 8515 119
8547 8505 30
8547 8565 13
8548 8373 142
8548 8628 94
8548 8737 160
8549 8541 41
8549 8562 35
8549 8624 56
8550 8503 80
8550 8504 156
8550 8552 2
8551 8542 3
8551 8594 37
8551 8705 356
8552 8550 2
8552 8504 169
8552 8576 240
8552 8637 119
8553 8524 96
8553 8477 55
8553 8610 48
8554 8380 145
8554 8581 79
8554 8659 86
8555 8511 70
8555 8516 19
8555 8603 44
8556 8471 114
8556 8487 51
8556 8638 68
8557 8482 98
8557 8469 124
8557 8760 260
8558 8559 22
8558 8401 120
8558 8783 195
8559 8558 22
8559 8566 47
8559 8605 54
8560 8495 89
8561 8496 188
8561 8492 40
8561 8594 168
8561 8602 41
8562 8549 35
8563 8500 187
8563 8496 41
8563 8602 188
8563 8606 40
8564 8476 303
8564 8500 40
8564 8606 187
8564 8612 43
8565 8547 13
8565 8592 225
8565 8623 42
8566 8559 47
8567 8435 99
8567 8573 63
8567 8703 109
8568 8544 34
8568 8638 92
8568 8668 78
8569 8513 103
8569 8464 86
8569 8578 32
8570 8571 43
8570 8576 280
8571 8570 43
8572 8540 71
8572 8447 97
8572 8587 60
8573 8567 63
8573 8508 42
8573 8640 46
8574 8380 197
8574 8581 8
8574 8627 175
8575 8473 122
8576 8552 240
8576 8570 280
8576 8784 154
8577 8510 82
8578 8569 32
8578 8474 88
8578 8646 49
8579 8502 73
8579 8607 216
8580 8525 62
8580 8543 231
8580 8650 75
8581 8574 8
8581 8554 79
8581 8659 150
8582 8543 33
8582 8646 132
8582 8647 45
8583 8584 76
8583 8289 239
8583 8751 126
8584 8583 76
8585 8586 131
8586 8585 131
8587 8572 60
8587 8524 42
8587 8597 51
8588 8488 96
8588 8661 53
8589 8431 125
8589 8626 30
8589 8657 59
8590 8591 173
8591 8590 173
8591 8667 61
8592 8565 225
8592 8541 37
8592 8616 18
8593 8536 44
8593 8645 39
8593 8666 162
8594 8561 168
8594 8551 37
8594 8649 39
8594 8752 346
8595 8280 254
8596 8520 68
8596 8672 61
8596 8677 272
8597 8587 51
8597 8610 44
8597 8680 62
8598 8506 76
8598 8660 79
8598 9040 364
8599 8512 182
8600 8501 73
8600 8613 72
8600 8681 59
8601 8521 106
8601 8472 104
8601 8604 2
8602 8563 188
8602 8561 41
8602 8649 168
8602 8665 41
8603 8536 162
8603 8555 44
8603 8666 43
8604 8601 2
8604 8608 31
8604 8669 42
8605 8559 54
8605 8697 75
8606 8564 187
8606 8563 40
8606 8665 188
8606 8670 43
8607 8579 216
8607 8497 82
8607 8639 187
8607 8709 79
8608 8604 31
8608 8609 86
8608 8615 29
8609 8608 86
8610 8597 44
8610 8553 48
8610 8617 69
8611 8383 198
8611 8621 17
8611 8622 10
8612 8527 304
8612 8564 43
8612 8670 187
8612 8677 44
8613 8600 72
8613 8631 141
8613 8631 141
8614 8519 89
8614 8714 82
8615 8608 29
8616 8592 18
8616 8624 39
8616 8653 26
8617 8610 69
8617 8424 177
8617 8692 61
8618 8619 235
8619 8618 235
8619 8667 113
8619 8686 57
8620 8463 379
8620 8673 43
8621 8611 17
8621 8392 194
8621 8630 6
8622 8421 195
8622 8611 10
8622 8639 11
8623 8565 42
8623 8642 116
8623 8656 25
8624 8616 39
8624 8549 56
8624 8634 37
8624 8702 66
8625 8540 64
8625 8654 85
8625 8731 91
8626 8589 30
8626 8628 20
8626 8765 113
8627 8574 175
8627 8636 37
8627 8882 203
8628 8626 20
8628 8548 94
8628 8737 101
8629 8499 104
8629 8632 19
8629 8708 79
8630 8621 6
8630 8531 193
8630 8652 20
8631 8613 141
8631 8613 141
8631 8636 26
8632 8629 19
8632 8633 246
8632 8643 101
8633 8632 246
8634 8624 37
8635 8535 81
8635 8528 102
8635 8663 42
8635 8792 158
8636 8631 26
8636 8537 66
8636 8627 37
8637 8552 119
8638 8568 92
8638 8556 68
8638 8718 85
8639 8607 187
8639 8622 11
8639 8644 4
8640 8573 46
8640 8641 0
8640 8716 70
8641 8640 0
8641 8668 53
8642 8623 116
8642 8653 114
8642 8687 42
8643 8632 101
8644 8639 4
8644 8651 9
8645 8593 39
8645 8689 41
8645 8710 162
8646 8582 132
8646 8578 49
8646 8694 47
8647 8582 45
8647 8690 43
8647 8694 131
8648 8480 137
8648 8924 235
8649 8602 168
8649 8594 39
8649 8688 35
8649 8797 334
8650 8580 75
8650 8662 7
8650 8704 84
8651 8644 9
8651 8658 15
8651 8865 171
8652 8630 20
8652 8658 6
8652 8655 210
8653 8642 114
8653 8616 26
8653 8698 42
8654 8625 85
8654 8680 107
8654 8731 164
8655 8531 89
8655 8652 210
8655 8742 75
8656 8515 193
8656 8623 25
8656 8679 18
8657 8589 59
8658 8652 6
8658 8651 15
8658 8864 167
8659 8554 86
8659 8581 150
8659 8693 39
8660 8598 79
8660 8685 68
8661 8588 53
8661 9187 654
8661 15237 654
8662 8526 144
8662 8650 7
8662 8711 84
8662 8762 88
8663 8635 42
8663 8509 137
8663 8683 45
8663 8720 68
8664 8512 102
8664 8734 294
8664 8753 77
8665 8606 188
8665 8602 41
8665 8695 169
8665 8706 43
8666 8593 162
8666 8603 43
8666 8710 45
8667 8619 113
8667 8591 61
8667 8707 42
8668 8641 53
8668 8568 78
8668 8718 83
8669 8604 42
8669 8684 42
8669 8738 64
8670 8612 187
8670 8606 43
8670 8706 187
8670 8712 43
8671 8517 104
8672 8596 61
8672 8717 231
8672 8726 75
8673 8493 367
8673 8620 43
8673 8705 37
8673 8898 295
8674 8675 1
8675 8674 1
8675 8676 86
8675 8678 33
8675 8721 46
8676 8675 86
8677 8596 272
8677 8612 44
8677 8712 187
8677 8717 42
8678 8675 33
8679 8656 18
8679 8687 119
8679 8701 26
8680 8654 107
8680 8597 62
8680 8692 120
8681 8600 59
8681 8682 81
8681 8894 162
8682 8681 81
8683 8663 45
8683 8739 59
8683 8762 155
8684 8669 42
8685 8660 68
8685 8691 18
8686 8619 57
8686 8707 108
8686 8746 48
8687 8679 119
8687 8642 42
8687 8698 116
8688 8649 35
8688 8695 7
8688 8842 324
8689 8645 41
8689 8713 21
8689 8761 161
8690 8647 43
8690 8704 11
8690 8771 172
8691 8523 147
8691 8685 18
8691 8714 58
8692 8680 120
8692 8617 61
8692 8696 48
8693 8659 39
8693 8715 50
8693 8740 42
8694 8647 131
8694 8646 47
8694 8713 40
8695 8665 169
8695 8688 7
8695 8745 37
8696 8692 48
8696 8699 51
8696 8733 295
8697 8605 75
8697 8768 51
8698 8687 116
8698 8653 42
8698 8758 44
8699 8696 51
8699 8430 208
8699 8703 56
8700 8701 78
8701 8700 78
8701 8679 26
8701 8722 17
8702 8624 66
8703 8699 56
8703 8567 109
8703 8716 55
8704 8650 84
8704 8690 11
8704 8711 7
8704 8830 172
8705 8551 356
8705 8673 37
8705 8723 32
8705 8752 37
8706 8670 187
8706 8665 43
8706 8754 170
8706 8766 43
8707 8686 108
8707 8667 42
8707 8769 45
8708 8629 79
8708 8727 49
8708 8732 21
8709 8607 79
8709 8725 137
8709 8913 145
8710 8645 162
8710 8666 45
8710 8719 38
8710 8761 39
8711 8662 84
8711 8704 7
8711 8781 93
8712 8677 187
8712 8670 43
8712 8766 187
8712 8772 43
8713 8694 40
8713 8689 21
8713 8749 25
8714 8614 82
8714 8691 58
8714 8748 67
8715 8693 50
8716 8703 55
8716 8640 70
8716 8733 27
8717 8672 231
8717 8677 42
8717 8772 188
8717 8774 41
8718 8668 83
8718 8638 85
8718 8735 12
8718 8744 22
8719 8710 38
8719 8529 151
8719 8731 30
8719 8835 81
8720 8663 68
8720 9018 274
8721 8434 365
8721 8675 46
8721 8724 10
8722 8701 17
8722 8741 13
8722 8758 241
8723 8705 32
8724 8721 10
8724 8738 95
8724 8799 50
8725 8709 137
8726 8672 75
8727 8708 49
8727 8732 50
8727 8763 285
8728 8729 81
8728 8730 69
8728 8777 32
8729 8728 81
8730 8728 69
8731 8719 30
8731 8625 91
8731 8654 164
8732 8708 21
8732 8727 50
8732 8735 14
8732 8750 15
8733 8716 27
8733 8793 86
8733 8696 295
8734 8664 294
8735 8718 12
8735 8732 14
8735 8744 16
8735 8750 10
8736 7579 882
8736 6876 2456
8736 9348 577
8737 8628 101
8737 8548 160
8737 8765 17
8738 8724 95
8738 8669 64
8738 8755 9
8738 8768 183
8739 8683 59
8739 8759 40
8739 8889 130
8740 8693 42
8740 8776 26
8740 8789 122
8741 8722 13
8741 8813 189
8742 8655 75
8742 8743 118
8742 8841 67
8743 8742 118
8744 8718 22
8744 8735 16
8744 8793 39
8745 8695 37
8745 8754 5
8745 8876 314
8746 8747 60
8746 8686 48
8746 8769 113
8746 8800 37
8747 8746 60
8748 8714 67
8748 8840 97
8749 8713 25
8749 8771 19
8749 8825 161
8750 8735 10
8750 8732 15
8750 8773 89
8750 8786 30
8751 8583 126
8751 8125 948
8751 9003 440
8752 8594 346
8752 8705 37
8752 8797 37
8752 8811 94
8753 8664 77
8753 8764 73
8753 8900 110
8754 8706 170
8754 8745 5
8754 8812 42
8755 8756 13
8755 8738 9
8755 8817 456
8756 8755 13
8756 8782 60
8756 8854 89
8757 8429 265
8757 8770 12
8757 8840 62
8758 8722 241
8758 8698 44
8758 8815 43
8759 8739 40
8759 8816 43
8759 8819 130
8760 8557 260
8760 8873 126
8760 8916 416
8761 8689 161
8761 8710 39
8761 8825 46
8762 8683 155
8762 8662 88
8762 8819 44
8763 8727 285
8763 8767 39
8763 8806 40
8764 8753 73
8764 8779 65
8764 8884 93
8765 8626 113
8765 8737 17
8765 8836 50
8766 8712 187
8766 8706 43
8766 8812 170
8766 8828 43
8767 8763 39
8767 8784 147
8767 8807 40
8768 8738 183
8768 8697 51
8768 8783 67
8769 8746 113
8769 8707 45
8769 8792 102
8769 8838 45
8770 8757 12
8770 8912 105
8770 8912 121
8771 8690 172
8771 8749 19
8771 8830 42
8772 8717 188
8772 8712 43
8772 8828 186
8772 8831 40
8773 8750 89
8773 8786 104
8773 8806 267
8774 8775 41
8774 8717 41
8774 8831 189
8775 8774 41
8776 8740 26
8776 8803 70
8776 8944 131
8777 8778 42
8777 8728 32
8777 8785 22
8778 8777 42
8779 8764 65
8779 8780 67
8779 8823 35
8780 8779 67
8780 8788 18
8781 8711 93
8781 8808 44
8781 8845 52
8782 8756 60
8782 8799 22
8782 8849 87
8783 8768 67
8783 8558 195
8783 8801 203
8784 8767 147
8784 8576 154
8784 8787 47
8785 8777 22
8785 8798 55
8785 8833 33
8786 8750 30
8786 8773 104
8786 9001 208
8787 8784 47
8787 8796 32
8787 8837 39
8788 8780 18
8788 8791 37
8788 8814 17
8789 8790 103
8789 8740 122
8789 8827 179
8790 8789 103
8791 8788 37
8791 8917 92
8792 8769 102
8792 8635 158
8792 8844 42
8793 8733 86
8793 8744 39
8793 8959 155
8794 8795 91
8795 8794 91
8796 8787 32
8796 8822 48
8796 8804 349
8797 8649 334
8797 8752 37
8797 8824 40
8797 8842 36
8798 8785 55
8798 8800 83
8798 8843 32
8799 8724 50
8799 8782 22
8799 8804 5
8800 8746 37
8800 8798 83
8800 8829 89
8801 8783 203
8801 8802 207
8801 8817 12
8802 8801 207
8803 8776 70
8804 8799 5
8804 8796 349
8804 8834 18
8805 8451 270
8805 8945 100
8806 8773 267
8806 8763 40
8806 8807 27
8807 8806 27
8807 8767 40
8807 8837 196
8808 8781 44
8808 8867 91
8808 8934 95
8809 8810 30
8810 8809 30
8810 8826 40
8810 8874 53
8811 8752 94
8812 8766 170
8812 8754 42
8812 8861 42
8812 8928 300
8813 8741 189
8813 8815 52
8813 8863 100
8814 8788 17
8814 8823 61
8814 8914 71
8815 8813 52
8815 8758 43
8815 8818 1
8815 8873 71
8816 8759 43
8816 8866 128
8816 8869 45
8817 8755 456
8817 8801 12
8817 8836 108
8818 8815 1
8819 8759 130
8819 8762 44
8819 8866 43
8820 8821 31
8820 8826 55
8820 8906 60
8821 8820 31
8822 8796 48
8822 8837 37
8822 8847 357
8823 8779 35
8823 8814 61
8824 8797 40
8825 8749 161
8825 8761 46
8825 8940 88
8826 8810 40
8826 8820 55
8826 8897 69
8827 8789 179
8828 8772 186
8828 8766 43
8828 8861 169
8828 8872 42
8829 8800 89
8829 8838 31
8829 8858 32
8830 8704 172
8830 8771 42
8830 8855 58
8831 8774 189
8831 8772 40
8831 8872 187
8832 8833 136
8833 8832 136
8833 8785 33
8833 8843 55
8834 8804 18
8834 8847 23
8835 8719 81
8836 8817 108
8836 8765 50
8836 8926 74
8837 8807 196
8837 8787 39
8837 8822 37
8838 8829 31
8838 8769 45
8838 8839 7
8839 8838 7
8839 8844 73
8839 8868 31
8840 8757 62
8840 8748 97
8840 8927 96
8840 9192 418
8841 8742 67
8841 8864 211
8841 8883 165
8841 9000 142
8842 8688 324
8842 8797 36
8842 8853 38
8842 8876 37
8843 8833 55
8843 8798 32
8843 8846 65
8844 8839 73
8844 8792 42
8844 8890 41
8845 8781 52
8845 8915 51
8845 9041 383
8846 8843 65
8846 8916 43
8847 8822 357
8847 8834 23
8847 8848 2
8848 8847 2
8848 8850 14
8848 9185 314
8849 8782 87
8849 8850 1
8849 8854 28
8850 8849 1
8850 8848 14
8850 8903 34
8851 8852 21
8852 8851 21
8853 8842 38
8854 8849 28
8854 8756 89
8854 8862 36
8855 8830 58
8855 8867 9
8855 8885 38
8856 8857 27
8857 8856 27
8858 8829 32
8858 8868 38
8858 9031 148
8859 8860 22
8859 8870 31
8859 8877 18
8860 8859 22
8861 8828 169
8861 8812 42
8861 8921 42
8861 8957 288
8862 8854 36
8862 8875 14
8862 8926 535
8863 8813 100
8864 8658 167
8864 8841 211
8864 9026 143
8865 8651 171
8865 8913 200
8865 9029 143
8866 8816 128
8866 8819 43
8866 8938 47
8867 8808 91
8867 8855 9
8867 8907 42
8868 8858 38
8868 8839 31
8868 8890 60
8869 8816 45
8869 8933 39
8869 8938 127
8870 8859 31
8871 8252 523
8871 8923 108
8871 8923 106
8872 8831 187
8872 8828 42
8872 8921 168
8872 8942 43
8873 8815 71
8873 8760 126
8873 8952 90
8874 8810 53
8874 8881 5
8874 8897 59
8875 8862 14
8875 8903 67
8875 8948 547
8876 8745 314
8876 8842 37
8876 8928 37
8876 8932 71
8877 8859 18
8878 8879 154
8879 8878 154
8880 8881 17
8881 8880 17
8881 8874 5
8881 8908 13
8882 8627 203
8882 8888 42
8882 8920 24
8883 8841 165
8883 8901 62
8883 8975 82
8884 8764 93
8885 8855 38
8885 8907 9
8885 8940 72
8886 8887 18
8887 8886 18
8887 8955 357
8888 8882 42
8888 8895 119
8888 8920 49
8889 8739 130
8889 8933 78
8889 8947 46
8890 8868 60
8890 8844 41
8890 9014 116
8891 8892 46
8892 8891 46
8892 8893 73
8892 8922 106
8892 8960 147
8893 8892 73
8894 8681 162
8894 8908 69
8894 9092 200
8895 8888 119
8895 8896 40
8895 8902 30
8896 8895 40
8897 8874 59
8897 8826 69
8897 8906 38
8897 8925 20
8898 8673 295
8898 8899 40
8898 9078 216
8899 8898 40
8900 8753 110
8901 8883 62
8902 8895 30
8902 8944 213
8902 8973 69
8903 8850 34
8903 8875 67
8903 9008 101
8904 8905 9
8905 8904 9
8905 8918 12
8905 8910 33
8906 8820 60
8906 8897 38
8906 8939 24
8907 8867 42
8907 8885 9
8907 8958 158
8907 8967 66
8908 8894 69
8908 8881 13
8908 8925 61
8909 8910 9
8910 8909 9
8910 8919 12
8910 8905 33
8911 8448 570
8911 8945 268
8911 8951 35
8912 8770 105
8912 8770 121
8912 8927 14
8913 8709 145
8913 8865 200
8913 8936 147
8914 8814 71
8914 8252 841
8914 9103 276
8915 8845 51
8915 8934 42
8915 9002 94
8916 8760 416
8916 8846 43
8916 8955 44
8917 8791 92
8918 8905 12
8919 8910 12
8920 8882 24
8920 8888 49
8920 8937 13
8921 8872 168
8921 8861 42
8921 8964 44
8921 8989 285
8922 8892 106
8922 8960 40
8922 8972 243
8923 8871 108
8923 8871 106
8923 9073 430
8924 8648 235
8924 8946 18
8925 8908 61
8925 8897 20
8925 8935 10
8926 8862 535
8926 8836 74
8926 8927 13
8926 8948 18
8927 8926 13
8927 8912 14
8927 8840 96
8927 9242 320
8928 8812 300
8928 8876 37
8928 8957 39
8928 8968 92
8929 8930 42
8930 8929 42
8930 8931 8
8930 8943 9
8930 8949 36
8931 8930 8
8932 8876 71
8933 8889 78
8933 8869 39
8933 8966 119
8934 8915 42
8934 8808 95
8934 8967 135
8934 8969 46
8935 8925 10
8935 8939 29
8935 8954 27
8936 8913 147
8937 8920 13
8937 8939 66
8937 8950 86
8937 8956 56
8937 8963 34
8938 8869 127
8938 8866 47
8938 8966 39
8939 8935 29
8939 8906 24
8939 8937 66
8940 8885 72
8940 8825 88
8940 8983 457
8941 8942 164
8942 8941 164
8942 8872 43
8942 8964 169
8942 8972 41
8943 8930 9
8944 8902 213
8944 8776 131
8944 9133 226
8945 8805 100
8945 8911 268
8945 8965 32
8946 8924 18
8946 9003 191
8946 9140 223
8947 8889 46
8947 8980 51
8947 9012 200
8948 8875 547
8948 8926 18
8948 9053 117
8949 8930 36
8949 8961 46
8950 8937 86
8951 8911 35
8951 8965 263
8951 8984 41
8952 8873 90
8952 8994 191
8952 9078 197
8953 8954 22
8954 8953 22
8954 8935 27
8954 8956 50
8955 8887 357
8955 8916 44
8955 8990 36
8956 8954 50
8956 8937 56
8956 8963 51
8956 9092 270
8957 8861 288
8957 8928 39
8957 8989 37
8958 8907 158
8958 8970 70
8958 9022 62
8959 8793 155
8959 8974 15
8959 8974 15
8960 8892 147
8960 8922 40
8960 8998 176
8960 9005 41
8961 8949 46
8961 8962 57
8961 8992 62
8962 8961 57
8963 8956 51
8963 8937 34
8963 9153 187
8964 8942 169
8964 8921 44
8964 8971 5
8965 8945 32
8965 8951 263
8965 9007 40
8966 8933 119
8966 8938 39
8966 9012 47
8967 8934 135
8967 8907 66
8967 8997 91
8967 9013 46
8968 8928 92
8969 8934 46
8969 9013 136
8969 9016 47
8970 8958 70
8970 8993 304
8970 9050 90
8971 8964 5
8971 8979 22
8971 9006 34
8972 8922 243
8972 8942 41
8972 9006 169
8972 9011 39
8973 8902 69
8973 9017 44
8974 8959 15
8974 8959 15
8974 8985 90
8974 8988 19
8975 8883 82
8975 8976 143
8975 9000 138
8976 8975 143
8977 8978 65
8978 8977 65
8979 8971 22
8979 9047 267
8979 9085 228
8980 8947 51
8980 9021 40
8980 9049 211
8981 8982 24
8981 15235 24
8982 8981 24
8982 15235 24
8983 8940 457
8983 8985 138
8983 8993 10
8984 8951 41
8984 9007 259
8984 9023 36
8985 8983 138
8985 8974 90
8985 8988 78
8986 8987 23
8986 15236 23
8987 8986 23
8987 15236 23
8988 8985 78
8988 8974 19
8988 8999 9
8988 9001 15
8989 8921 285
8989 8957 37
8989 9025 37
8989 9038 98
8990 8991 305
8990 8955 36
8990 9031 100
8990 9036 42
8991 8990 305
8992 8961 62
8992 8994 73
8992 9036 273
8993 8970 304
8993 8983 10
8993 8995 74
8993 9076 80
8994 8952 191
8994 8992 73
8994 9010 154
8995 8993 74
8995 8996 75
8995 9124 158
8996 8995 75
8996 8999 63
8996 9037 63
8997 8967 91
8997 9022 71
8997 9083 88
8998 8960 176
8998 9011 67
8998 9039 40
8999 8996 63
8999 8988 9
8999 9001 15
8999 9037 42
9000 8841 142
9000 8975 138
9000 9026 197
9000 9148 147
9001 8999 15
9001 8988 15
9001 8786 208
9001 9066 74
9002 8915 94
9002 9016 42
9002 9117 133
9003 8946 191
9003 8751 440
9003 9020 21
9004 9005 136
9005 9004 136
9005 8960 41
9005 9039 176
9005 9043 43
9006 8972 169
9006 8971 34
9006 9009 3
9007 8965 40
9007 8984 259
9007 9045 41
9008 8903 101
9008 9015 52
9008 9152 143
9009 9006 3
9009 9042 36
9009 9114 239
9010 8994 154
9011 8998 67
9011 8972 39
9011 9042 170
9012 8947 200
9012 8966 47
9012 9034 20
9013 8969 136
9013 8967 46
9013 9048 45
9014 8890 116
9014 9018 29
9014 9046 35
9015 9008 52
9015 9019 53
9015 9051 68
9016 9002 42
9016 8969 47
9016 9048 137
9017 8973 44
9017 9028 11
9018 9014 29
9018 8720 274
9018 9030 40
9019 9015 53
9019 9035 153
9019 9064 44
9020 9003 21
9020 9054 99
9020 9055 44
9021 8980 40
9021 9030 8
9021 9094 212
9022 8997 71
9022 8958 62
9022 9099 88
9023 8984 36
9023 9045 263
9023 9067 43
9024 9025 83
9025 9024 83
9025 8989 37
9025 9047 35
9025 9168 308
9026 8864 143
9026 9000 197
9026 9172 144
9027 9028 27
9028 9027 27
9028 9017 11
9028 9058 65
9029 8865 143
9029 9081 385
9029 9177 146
9030 9018 40
9030 9021 8
9030 9065 36
9031 8990 100
9031 8858 148
9031 9060 92
9032 9033 122
9032 9061 78
9033 9032 122
9033 9079 50
9034 9012 20
9034 9041 39
9034 9049 26
9035 9019 153
9035 9053 323
9035 9131 103
9036 8992 273
9036 8990 42
9036 9069 33
9036 9093 202
9037 8996 63
9037 8999 42
9037 9062 30
9038 8989 98
9038 9134 206
9038 9137 304
9039 9005 176
9039 8998 40
9039 9082 46
9039 9084 237
9040 8598 364
9040 9305 267
9041 9034 39
9041 8845 383
9041 9080 41
9042 9011 170
9042 9009 36
9042 9084 42
9042 9125 187
9043 9044 109
9043 9005 43
9043 9082 176
9043 9121 84
9044 9043 109
9045 9007 41
9045 9023 263
9045 9087 42
9046 9014 35
9046 9060 12
9046 9065 60
9047 8979 267
9047 9025 35
9047 9085 37
9047 9225 354
9048 9016 137
9048 9013 45
9048 9083 96
9048 9303 261
9049 8980 211
9049 9034 26
9049 9094 42
9050 8970 90
9050 9071 132
9050 9181 132
9051 9015 68
9051 9052 14
9051 9064 24
9052 9051 14
9052 9162 110
9053 9035 323
9053 8948 117
9053 9135 85
9054 9020 99
9055 9056 69
9055 9020 44
9055 9063 2
9056 9055 69
9057 9058 71
9058 9057 71
9058 9028 65
9058 9059 14
9058 9097 44
9059 9058 14
9059 9107 56
9060 9031 92
9060 9046 12
9060 9093 34
9061 9032 78
9062 9037 30
9062 9066 15
9062 9124 80
9063 9055 2
9063 9142 82
9064 9051 24
9064 9019 44
9064 9131 193
9065 9046 60
9065 9030 36
9065 9077 45
9066 9062 15
9066 9001 74
9066 9113 496
9066 9375 347
9067 9023 43
9067 9068 232
9067 9087 264
9067 9102 43
9068 9067 232
9069 9070 212
9069 9036 33
9069 9095 38
9069 9126 208
9070 9069 212
9071 9050 132
9071 9074 60
9071 9224 167
9072 8403 701
9073 8923 430
9073 9265 106
9074 9071 60
9074 9075 63
9074 9249 182
9075 9074 63
9075 9076 80
9075 9194 127
9076 9075 80
9076 8993 80
9076 9130 67
9077 9065 45
9077 9091 43
9077 9171 94
9078 8898 216
9078 8952 197
9078 9137 94
9079 9033 50
9079 9105 37
9079 9133 99
9080 9041 41
9080 9115 44
9080 9117 129
9081 9029 385
9081 9086 26
9081 9236 151
9082 9043 176
9082 9039 46
9082 9109 36
9082 9116 237
9083 9048 96
9083 8997 88
9083 9099 68
9083 9213 170
9084 9039 237
9084 9042 42
9084 9088 35
9084 9116 41
9085 8979 228
9085 9047 37
9085 9114 37
9085 9256 346
9086 9081 26
9087 9045 42
9087 9067 264
9087 9120 38
9088 9084 35
9089 8187 924
9089 9090 17
9089 9102 230
9089 9127 57
9090 9089 17
9091 9077 43
9091 9101 44
9091 9180 92
9092 8894 200
9092 8956 270
9092 9103 48
9093 9036 202
9093 9060 34
9093 9126 39
9094 9021 212
9094 9049 42
9094 9123 39
9095 9096 308
9095 9069 38
9095 9136 42
9095 9173 215
9096 9095 308
9097 9098 68
9097 9058 44
9097 9100 8
9097 9104 11
9098 9097 68
9099 9083 68
9099 9022 88
9099 9215 116
9100 9097 8
9101 9091 44
9101 9123 77
9101 9144 40
9102 9067 43
9102 9089 230
9102 9120 265
9102 9151 41
9103 8914 276
9103 9092 48
9103 9122 62
9103 9179 67
9104 9097 11
9105 9106 41
9105 9079 37
9105 9156 41
9106 9105 41
9107 9059 56
9108 9109 142
9109 9108 142
9109 9082 36
9109 9160 42
9109 9167 237
9110 9111 227
9111 9110 227
9111 9112 151
9111 9141 137
9111 9161 44
9112 9111 151
9113 9066 496
9113 9143 1084
9113 9143 462
9114 9009 239
9114 9085 37
9114 9155 37
9114 9278 339
9115 9080 44
9115 9132 42
9115 9250 128
9116 9082 237
9116 9084 41
9116 9125 203
9116 9167 42
9117 9080 129
9117 9002 133
9117 9169 41
9118 9119 40
9118 9158 183
9118 9231 113
9119 9118 40
9119 9129 37
9119 9499 418
9120 9087 38
9120 9102 265
9120 9170 39
9121 9043 84
9121 9160 176
9121 9163 35
9122 9103 62
9122 9263 191
9123 9101 77
9123 9094 39
9123 9175 41
9124 8995 158
9124 9062 80
9124 9206 80
9125 9042 187
9125 9155 42
9125 9116 203
9126 9069 208
9126 9093 39
9126 9173 36
9127 9089 57
9127 9128 137
9127 9151 189
9127 9183 68
9128 9127 137
9129 9119 37
9129 9136 24
9129 9475 380
9130 9076 67
9130 9206 99
9130 9230 106
9131 9064 193
9131 9035 103
9131 9268 379
9132 9115 42
9132 9169 88
9132 9222 87
9133 9079 99
9133 8944 226
9133 9229 101
9134 9038 206
9135 9053 85
9135 9147 197
9135 9268 126
9136 9129 24
9136 9095 42
9136 9150 19
9137 9038 304
9137 9078 94
9137 9176 46
9138 9139 16
9139 9138 16
9140 8946 223
9140 9142 49
9140 9614 604
9141 9111 137
9142 9140 49
9142 9063 82
9142 9190 217
9143 9113 1084
9143 9185 380
9143 9113 462
9144 9101 40
9144 9175 77
9144 9193 53
9145 9146 297
9145 9161 231
9145 9188 43
9146 9145 297
9147 9135 197
9148 9000 147
9148 9149 280
9148 9172 193
9148 9296 145
9149 9148 280
9149 9259 137
9150 9136 19
9150 9159 39
9150 9486 379
9151 9102 41
9151 9127 189
9151 9170 270
9151 9195 47
9152 9008 143
9152 9162 49
9152 9487 362
9153 8963 187
9153 9154 73
9153 9164 13
9154 9153 73
9155 9125 42
9155 9114 37
9155 9233 163
9156 9157 63
9156 9105 41
9156 9267 113
9157 9156 63
9158 9118 183
9158 9216 165
9159 9150 39
9159 9174 40
9159 9497 382
9160 9121 176
9160 9109 42
9160 9198 40
9160 9209 237
9161 9111 44
9161 9145 231
9161 9186 138
9161 9208 44
9162 9152 49
9162 9052 110
9162 9239 90
9163 9121 35
9164 9153 13
9164 9166 57
9165 9166 25
9166 9165 25
9166 9164 57
9166 9189 26
9167 9109 237
9167 9116 42
9167 9202 169
9167 9209 42
9168 9025 308
9169 9132 88
9169 9117 41
9169 9240 75
9170 9120 39
9170 9151 270
9170 9210 130
9171 9077 94
9171 9180 42
9172 9026 144
9172 9148 193
9172 9316 148
9173 9095 215
9173 9126 36
9173 9212 44
9174 9159 40
9174 9182 41
9174 9461 319
9175 9144 77
9175 9123 41
9175 9281 120
9176 9137 46
9176 9178 17
9176 9225 73
9177 9029 146
9177 9236 384
9177 9320 148
9178 9176 17
9178 9227 67
9178 9245 240
9179 9103 67
9179 9264 81
9180 9171 42
9180 9091 92
9180 9193 43
9181 9050 132
9181 9224 119
9181 9235 52
9182 9174 41
9182 9212 92
9182 9376 199
9183 9127 68
9183 9184 188
9183 9195 140
9183 9386 239
9184 9183 188
9185 9143 380
9185 8848 314
9185 9529 379
9186 9161 138
9187 8661 654
9187 15237 654
9187 9262 89
9188 9145 43
9188 9208 228
9188 9238 45
9189 9166 26
9190 9142 217
9190 9191 97
9190 9223 218
9190 9331 141
9191 9190 97
9192 8840 418
9192 9308 151
9192 9335 144
9193 9180 43
9193 9144 53
9194 9075 127
9194 9230 106
9194 9261 65
9195 9151 47
9195 9183 140
9195 9210 182
9195 9246 46
9196 9197 49
9197 9196 49
9198 9199 77
9198 9160 40
9198 9247 45
9198 9251 237
9199 9198 77
9200 9201 48
9201 9200 48
9202 9167 169
9202 9243 40
9202 9252 202
9203 9204 41
9203 9211 140
9204 9203 41
9204 9205 151
9204 9253 47
9204 9260 147
9205 9204 151
9205 9207 46
9206 9130 99
9206 9124 80
9206 9367 187
9207 9205 46
9207 9253 148
9207 9257 49
9208 9161 44
9208 9188 228
9208 9234 140
9208 9255 46
9209 9160 237
9209 9167 42
9209 9214 43
9209 9251 40
9210 9195 182
9210 9170 130
9210 9258 46
9211 9203 140
9212 9182 92
9212 9173 44
9212 9221 21
9212 9509 327
9213 9083 170
9213 9215 17
9213 9280 70
9214 9209 43
9215 9213 17
9215 9099 116
9215 9235 57
9216 9217 100
9216 9158 165
9216 9245 66
9217 9216 100
9218 9219 86
9219 9218 86
9220 8075 1494
9220 9238 221
9220 9277 215
9221 9212 21
9221 9226 19
9221 9241 21
9222 9132 87
9222 9240 86
9222 9266 45
9223 9190 218
9224 9181 119
9224 9071 167
9224 9249 69
9225 9047 354
9225 9176 73
9225 9256 38
9226 9221 19
9226 9237 27
9226 9241 25
9227 9178 67
9227 9283 77
9227 9300 247
9228 8187 1436
9229 9133 101
9229 9351 139
9229 9406 192
9230 9194 106
9230 9130 106
9230 9288 66
9231 9232 121
9231 9118 113
9231 9273 47
9232 9231 121
9233 9155 163
9233 9252 19
9233 9314 171
9234 9208 140
9235 9215 57
9235 9181 52
9235 9295 187
9236 9081 151
9236 9177 384
9236 9371 139
9237 9226 27
9237 9281 157
9237 9291 57
9238 9188 45
9238 9220 221
9238 9255 225
9238 9275 44
9239 9162 90
9240 9222 86
9240 9169 75
9240 9289 53
9240 9303 178
9241 9221 21
9241 9226 25
9241 9514 306
9242 8927 320
9242 9311 72
9242 9313 233
9243 9244 54
9243 9202 40
9243 9279 201
9244 9243 54
9245 9178 240
9245 9216 66
9245 9271 45
9246 9195 46
9246 9254 97
9246 9386 142
9247 9248 156
9247 9198 45
9247 9269 126
9247 9287 43
9248 9247 156
9249 9224 69
9249 9074 182
9249 9295 51
9250 9115 128
9250 9266 42
9250 9301 58
9251 9198 237
9251 9209 40
9251 9292 44
9251 9321 369
9252 9202 202
9252 9233 19
9252 9279 35
9253 9204 47
9253 9207 148
9253 9293 46
9253 9340 255
9254 9246 97
9254 9258 84
9254 9389 145
9255 9208 46
9255 9238 225
9255 9298 44
9255 9302 317
9256 9085 346
9256 9225 38
9256 9278 38
9257 9207 49
9257 9290 38
9257 9293 144
9258 9210 46
9258 9254 84
9258 9277 26
9259 9149 137
9259 9296 279
9259 9364 308
9259 9402 145
9260 9204 147
9261 9194 65
9261 9288 99
9261 9309 57
9262 9187 89
9262 9263 51
9262 9659 596
9262 15238 596
9263 9262 51
9263 9122 191
9264 9265 89
9264 9179 81
9264 9581 401
9265 9264 89
9265 9073 106
9266 9250 42
9266 9222 45
9266 9289 87
9267 9156 113
9267 9270 104
9267 9307 84
9267 9406 221
9268 9131 379
9268 9135 126
9268 9325 63
9269 9247 126
9269 9292 111
9269 9312 44
9270 9267 104
9271 9272 161
9271 9245 45
9271 9300 27
9272 9271 161
9273 9274 115
9273 9231 47
9273 9353 86
9274 9273 115
9275 9238 44
9275 9276 177
9275 9298 222
9275 9323 47
9276 9275 177
9277 9220 215
9277 9258 26
9277 9401 119
9278 9114 339
9278 9256 38
9278 9314 37
9279 9243 201
9279 9252 35
9279 9299 79
9279 9321 40
9280 9213 70
9280 9294 25
9280 9438 487
9281 9237 157
9281 9175 120
9281 9301 44
9282 8403 1265
9282 8335 837
9282 9310 156
9283 9227 77
9283 9306 60
9283 9343 70
9284 9285 75
9285 9284 75
9286 9287 79
9287 9286 79
9287 9247 43
9287 9312 126
9287 9324 41
9288 9261 99
9288 9230 66
9288 9342 59
9289 9266 87
9289 9240 53
9289 9344 56
9290 9257 38
9290 9327 141
9290 9334 45
9291 9237 57
9291 9304 39
9291 9355 71
9292 9269 111
9292 9251 44
9292 9297 13
9293 9253 46
9293 9257 144
9293 9327 40
9293 9380 254
9294 9280 25
9294 9345 57
9295 9235 187
9295 9249 51
9295 9309 52
9296 9148 145
9296 9259 279
9296 9316 194
9296 9430 144
9297 9292 13
9297 9337 44
9297 9338 219
9298 9255 44
9298 9275 222
9298 9341 43
9298 9347 311
9299 9279 79
9300 9227 247
9300 9271 27
9300 9357 68
9301 9281 44
9301 9250 58
9301 9317 45
9301 9349 53
9302 9255 317
9302 9319 83
9302 9347 47
9303 9240 178
9303 9048 261
9303 9345 136
9303 9403 104
9304 9291 39
9304 9339 35
9304 9349 150
9305 9040 267
9305 9404 97
9306 9283 60
9306 9318 48
9306 9365 65
9307 9267 84
9307 9322 100
9307 9370 67
9308 9192 151
9308 9335 75
9308 9404 145
9309 9295 52
9309 9261 57
9309 9342 93
9310 9282 156
9310 7961 1210
9310 9359 718
9311 9242 72
9311 9330 190
9311 9350 41
9312 9287 126
9312 9269 44
9312 9337 124
9312 9352 42
9313 9242 233
9313 9315 62
9313 9330 21
9314 9233 171
9314 9278 37
9314 9336 27
9315 9313 62
9316 9172 148
9316 9296 194
9316 9449 144
9317 9301 45
9317 9344 94
9317 9366 52
9318 9306 48
9318 9357 166
9318 9455 154
9319 8350 867
9319 9302 83
9319 9334 46
9320 9177 148
9320 9371 375
9320 9452 142
9321 9251 369
9321 9279 40
9321 9346 156
9321 9363 44
9322 9307 100
9322 9333 66
9323 9275 47
9323 9341 219
9323 9356 270
9323 9372 46
9324 9287 41
9324 9352 127
9324 9374 45
9325 9326 189
9325 9268 63
9325 9395 68
9326 9325 189
9327 9293 40
9327 9290 141
9327 9378 49
9327 9421 252
9328 9329 297
9329 9328 297
9330 9311 190
9330 9313 21
9330 9360 32
9331 9190 141
9332 9333 44
9333 9332 44
9333 9322 66
9333 9525 448
9334 9290 45
9334 9319 46
9334 9378 138
9335 9192 144
9335 9308 75
9335 9427 256
9335 9562 282
9336 9314 27
9336 9343 20
9336 9346 14
9337 9312 124
9337 9297 44
9337 9379 41
9337 9382 219
9338 9297 219
9338 9363 138
9338 9382 47
9339 9304 35
9339 9368 96
9339 9369 32
9340 9253 255
9340 9380 44
9340 9417 159
9341 9298 43
9341 9323 219
9341 9383 45
9341 9394 304
9342 9309 93
9342 9288 59
9342 9367 93
9343 9336 20
9343 9283 70
9343 9365 86
9343 9381 45
9344 9317 94
9344 9289 56
9344 9385 117
9345 9303 136
9345 9294 57
9345 9440 105
9346 9321 156
9346 9336 14
9346 9377 33
9347 9302 47
9347 9298 311
9347 9394 50
9347 9420 262
9348 8736 577
9348 9354 47
9348 9838 1013
9349 9304 150
9349 9301 53
9349 9384 34
9350 9311 41
9350 9360 192
9350 9454 117
9351 9229 139
9351 9406 144
9351 9656 434
9352 9324 127
9352 9312 42
9352 9379 123
9352 9397 45
9353 9273 86
9353 9358 120
9353 9409 56
9354 9348 47
9354 9359 45
9355 9291 71
9355 9369 36
9355 9396 36
9356 9323 270
9356 9372 221
9356 9412 48
9357 9318 166
9357 9300 68
9357 9437 80
9358 9353 120
9358 9387 24
9358 9387 154
9359 9310 718
9359 9354 45
9360 9350 192
9360 9330 32
9360 9427 62
9361 9362 61
9361 9458 153
9362 9361 61
9362 9370 14
9362 9423 115
9363 9338 138
9363 9321 44
9363 9390 135
9364 9259 308
9364 9443 145
9364 9464 122
9365 9343 86
9365 9306 65
9365 9411 42
9366 9317 52
9366 9408 116
9366 9441 85
9367 9342 93
9367 9206 187
9367 9375 14
9367 9438 81
9368 9339 96
9368 9384 50
9368 9398 30
9369 9355 36
9369 9339 32
9369 9398 91
9370 9362 14
9370 9307 67
9370 9423 54
9371 9236 139
9371 9320 375
9371 9681 418
9372 9323 46
9372 9356 221
9372 9383 216
9372 9426 52
9373 9374 104
9374 9373 104
9374 9324 45
9374 9397 124
9374 9414 41
9375 9367 14
9375 9066 347
9375 9439 81
9376 9182 199
9376 9388 146
9376 9431 60
9377 9346 33
9377 9381 17
9377 9390 23
9378 9327 49
9378 9334 138
9378 9420 44
9378 9451 249
9379 9352 123
9379 9337 41
9379 9422 42
9379 9424 219
9380 9340 44
9380 9293 254
9380 9421 42
9380 9447 159
9381 9377 17
9381 9343 45
9381 9411 104
9381 9415 39
9382 9337 219
9382 9338 47
9382 9424 38
9382 9432 259
9383 9341 45
9383 9372 216
9383 9434 52
9383 9435 300
9384 9368 50
9384 9349 34
9384 9429 49
9385 9344 117
9385 9403 47
9385 9484 129
9386 9246 142
9386 9183 239
9386 9389 94
9387 9358 24
9387 9358 154
9387 9409 90
9388 9376 146
9389 9254 145
9389 9386 94
9389 9401 82
9390 9363 135
9390 9377 23
9390 9410 16
9391 9392 128
9391 9393 29
9391 15239 29
9391 9395 7
9392 9391 128
9393 9391 29
9393 15239 29
9394 9347 50
9394 9341 304
9394 9435 41
9395 9391 7
9395 9325 68
9395 9413 15
9396 9355 36
9396 9433 120
9396 9524 159
9397 9374 124
9397 9352 45
9397 9422 126
9397 9508 144
9398 9369 91
9398 9368 30
9398 9433 38
9399 9400 28
9399 15240 28
9400 9399 28
9400 15240 28
9401 9277 119
9401 9389 82
9401 9412 201
9402 9259 145
9402 9430 271
9402 9443 149
9403 9385 47
9403 9303 104
9403 9425 78
9403 9494 129
9404 9308 145
9404 9305 97
9404 9541 185
9405 6805 2452
9405 9604 1699
9405 9838 2472
9406 9267 221
9406 9229 192
9406 9351 144
9406 9710 473
9407 8352 1024
9407 9417 16
9407 9447 57
9407 9473 116
9408 9366 116
9408 9467 80
9409 9387 90
9409 9353 56
9409 9437 390
9410 9390 16
9410 9415 16
9410 9432 29
9411 9381 104
9411 9365 42
9411 9446 46
9412 9356 48
9412 9401 201
9412 9426 218
9413 9395 15
9413 9416 103
9413 9445 41
9414 9374 41
9415 9410 16
9415 9381 39
9415 9446 120
9416 9413 103
9417 9407 16
9417 9340 159
9418 9419 93
9419 9418 93
9420 9378 44
9420 9347 262
9420 9448 42
9420 9480 248
9421 9380 42
9421 9327 252
9421 9451 47
9421 9505 249
9422 9397 126
9422 9379 42
9422 9436 100
9423 9370 54
9423 9362 115
9423 9462 59
9424 9379 219
9424 9382 38
9424 9450 41
9424 9457 248
9425 9403 78
9425 9440 68
9425 9516 131
9426 9372 52
9426 9412 218
9426 9434 213
9427 9360 62
9427 9335 256
9427 9428 3
9428 9427 3
9428 9472 89
9428 9501 105
9429 9384 49
9429 9441 48
9429 9444 23
9430 9296 144
9430 9402 271
9430 9449 206
9431 9376 60
9432 9382 259
9432 9410 29
9432 9442 17
9433 9396 120
9433 9398 38
9433 9444 45
9434 9383 52
9434 9426 213
9434 9463 294
9435 9394 41
9435 9383 300
9435 9463 43
9436 9422 100
9436 9450 119
9436 9488 76
9437 9357 80
9437 9409 390
9437 9455 257
9438 9280 487
9438 9367 81
9438 9439 11
9438 9556 172
9439 9438 11
9439 9375 81
9439 9538 1273
9439 9626 274
9440 9425 68
9440 9345 105
9440 9563 172
9441 9429 48
9441 9366 85
9441 9453 43
9441 9491 77
9442 9432 17
9442 9457 25
9442 9465 113
9443 9402 149
9443 9364 145
9443 9566 173
9444 9433 45
9444 9429 23
9444 9523 107
9445 9413 41
9445 9476 50
9445 9482 90
9446 9415 120
9446 9411 46
9446 9455 43
9447 9407 57
9447 9380 159
9447 9473 110
9448 9420 42
9448 9474 42
9448 9515 244
9449 9316 144
9449 9430 206
9449 9452 16
9449 9456 17
9449 9647 274
9450 9436 119
9450 9424 41
9450 9483 236
9450 9533 111
9451 9421 47
9451 9378 249
9451 9480 46
9451 9537 246
9452 9320 142
9452 9449 16
9452 9456 8
9452 9469 211
9453 9441 43
9453 9466 49
9453 9504 74
9454 9350 117
9454 9472 141
9454 9477 34
9454 9481 46
9455 9446 43
9455 9318 154
9455 9437 257
9455 9559 163
9456 9452 8
9456 9449 17
9456 9471 213
9456 9652 266
9457 9424 248
9457 9442 25
9457 9468 15
9458 9361 153
9458 9459 47
9458 9600 183
9459 9458 47
9459 9460 47
9459 9596 181
9460 9459 47
9460 9485 53
9460 9590 179
9461 9174 319
9462 9423 59
9463 9435 43
9463 9434 294
9463 9520 258
9464 9364 122
9464 9492 183
9464 9635 244
9465 9442 113
9466 9453 49
9466 9470 22
9466 9519 73
9467 9408 80
9467 9470 7
9467 9484 92
9468 9457 15
9468 9483 26
9468 9490 129
9469 9452 211
9469 9502 546
9470 9466 22
9470 9467 7
9471 9456 213
9471 9513 546
9472 9454 141
9472 9428 89
9472 9493 38
9473 9407 116
9473 9447 110
9473 9548 112
9474 9448 42
9474 9520 53
9474 9539 238
9475 9129 380
9476 9445 50
9476 9477 13
9476 9482 60
9476 9498 23
9477 9476 13
9477 9454 34
9477 9481 26
9477 9495 22
9478 9479 109
9479 9478 109
9479 9503 37
9480 9451 46
9480 9420 248
9480 9515 43
9480 9568 245
9481 9477 26
9481 9454 46
9481 9493 89
9482 9445 90
9482 9476 60
9482 9531 404
9483 9450 236
9483 9468 26
9483 9518 48
9484 9467 92
9484 9385 129
9484 9494 48
9484 9547 87
9485 9460 53
9485 9510 47
9485 9591 144
9486 9150 379
9487 9152 362
9487 9526 48
9487 9531 134
9488 9489 80
9488 9436 76
9488 9517 75
9489 9488 80
9490 9468 129
9491 9441 77
9491 9504 45
9492 9464 183
9493 9481 89
9493 9472 38
9493 9501 77
9494 9484 48
9494 9403 129
9494 9516 73
9495 9477 22
9495 9496 58
9495 9498 12
9495 9528 39
9496 9495 58
9496 9500 51
9496 9528 78
9497 9159 382
9498 9476 23
9498 9495 12
9498 9506 152
9498 9560 81
9499 9119 418
9499 9570 100
9500 9496 51
9500 9512 101
9500 9552 139
9501 9493 77
9501 9428 105
9501 9502 174
9502 9501 174
9502 9469 546
9503 9479 37
9503 9511 163
9503 9534 38
9504 9491 45
9504 9453 74
9504 9519 44
9505 9421 249
9505 9537 47
9505 9548 114
9506 9498 152
9506 9554 365
9506 9560 203
9507 9508 44
9508 9507 44
9508 9397 144
9508 9595 265
9509 9212 327
9509 9514 16
9509 9573 86
9510 9485 47
9510 9532 48
9510 9594 115
9511 9503 163
9512 9513 160
9512 9500 101
9512 9585 282
9513 9512 160
9513 9471 546
9514 9509 16
9514 9241 306
9514 9524 40
9514 9618 150
9515 9480 43
9515 9448 244
9515 9539 39
9515 9592 242
9516 9494 73
9516 9425 131
9516 9546 44
9517 9488 75
9517 9533 48
9517 9544 47
9518 9483 48
9518 9559 188
9518 9579 96
9519 9504 44
9519 9466 73
9519 9530 48
9519 9553 49
9520 9474 53
9520 9463 258
9520 9580 234
9521 9522 401
9521 9569 247
9521 9569 434
9522 9521 401
9522 9527 121
9523 9444 107
9523 9553 140
9523 9555 51
9524 9514 40
9524 9396 159
9524 9535 60
9525 9333 448
9525 9557 69
9525 9561 64
9526 9487 48
9526 9529 13
9526 9531 114
9526 9543 27
9527 9522 121
9527 9556 88
9527 9569 202
9528 9495 39
9528 9496 78
9528 9552 31
9529 9185 379
9529 9526 13
9529 9538 15
9530 9519 48
9530 9542 51
9530 9574 65
9531 9487 134
9531 9482 404
9531 9526 114
9532 9510 48
9532 9558 48
9532 9593 86
9533 9517 48
9533 9450 111
9533 9565 46
9533 9579 198
9534 9503 38
9534 9536 138
9534 9564 39
9535 9524 60
9535 9555 77
9535 9587 84
9536 9534 138
9537 9505 47
9537 9451 246
9537 9568 43
9537 9599 171
9538 9439 1273
9538 9529 15
9538 9540 2
9539 9515 39
9539 9474 238
9539 9580 59
9539 9620 236
9540 9538 2
9540 9543 13
9540 9903 618
9541 9404 185
9542 9530 51
9542 9547 20
9542 9582 63
9543 9540 13
9543 9526 27
9543 9554 60
9543 9606 79
9544 9545 232
9544 9517 47
9544 9565 48
9544 9571 41
9545 9544 232
9546 9516 44
9546 9563 71
9546 9577 47
9547 9542 20
9547 9484 87
9547 9577 121
9548 9473 112
9548 9505 114
9548 9583 69
9549 9550 56
9549 9551 36
9549 9658 160
9550 9549 56
9550 9607 94
9551 9549 36
9551 9570 151
9551 9602 76
9552 9528 31
9552 9500 139
9552 9585 54
9553 9523 140
9553 9519 49
9553 9597 65
9554 9543 60
9554 9506 365
9554 9606 111
9555 9535 77
9555 9523 51
9555 9597 139
9556 9527 88
9556 9438 172
9556 9742 296
9557 9525 69
9558 9532 48
9558 9561 4
9558 9598 54
9559 9518 188
9559 9455 163
9559 9589 51
9560 9506 203
9560 9498 81
9560 9799 364
9561 9525 64
9561 9558 4
9561 9578 47
9562 9335 282
9562 9666 180
9563 9546 71
9563 9440 172
9563 9628 102
9564 9534 39
9564 9567 89
9564 9586 40
9565 9544 48
9565 9533 46
9565 9584 41
9566 9443 173
9566 9603 78
9566 9635 155
9567 9564 89
9568 9537 43
9568 9480 245
9568 9592 43
9568 9619 167
9569 9521 247
9569 9527 202
9569 9521 434
9570 9551 151
9570 9499 100
9570 9609 329
9571 9572 237
9571 9544 41
9571 9584 49
9571 9595 37
9572 9571 237
9573 9509 86
9573 9575 38
9573 9615 65
9574 9530 65
9574 9582 50
9574 9610 48
9575 9576 265
9575 9573 38
9575 9609 48
9576 9575 265
9577 9547 121
9577 9546 47
9577 9623 68
9578 9561 47
9578 9605 56
9578 9633 76
9579 9533 198
9579 9518 96
9579 9883 546
9580 9539 59
9580 9520 234
9580 9654 231
9581 9264 401
9581 9605 34
9581 9709 238
9582 9574 50
9582 9542 63
9582 9623 144
9583 9548 69
9583 9599 16
9583 9614 362
9584 9571 49
9584 9565 41
9584 9613 37
9585 9552 54
9585 9512 282
9585 9679 134
9586 9564 40
9586 9588 55
9586 9616 43
9587 9535 84
9587 9618 108
9587 9671 222
9588 9586 55
9589 9559 51
9590 9460 179
9590 9591 39
9590 9596 46
9590 9777 266
9591 9485 144
9591 9590 39
9591 9594 35
9591 9746 228
9592 9568 43
9592 9515 242
9592 9620 44
9592 9653 164
9593 9532 86
9593 9594 39
9593 9598 37
9593 9694 144
9594 9593 39
9594 9510 115
9594 9591 35
9594 9714 182
9595 9508 265
9595 9571 37
9595 9613 49
9595 9621 47
9596 9590 46
9596 9459 181
9596 9600 48
9596 9744 225
9597 9555 139
9597 9553 65
9597 9610 47
9598 9558 54
9598 9593 37
9598 9662 96
9599 9583 16
9599 9537 171
9599 9619 42
9600 9596 48
9600 9458 183
9600 9601 30
9600 9680 125
9601 9600 30
9602 9551 76
9602 9640 467
9602 9670 110
9603 9566 78
9603 9612 42
9603 9630 52
9604 9405 1699
9604 11040 190
9605 9581 34
9605 9578 56
9605 9730 249
9606 9543 79
9606 9554 111
9606 9908 533
9607 9608 252
9607 9550 94
9607 9658 135
9608 9607 252
9609 9570 329
9609 9575 48
9609 9640 52
9610 9597 47
9610 9574 48
9610 9634 109
9611 9612 14
9612 9611 14
9612 9603 42
9612 9629 266
9612 9699 137
9613 9595 49
9613 9584 37
9613 9617 29
9613 9644 48
9614 9140 604
9614 9583 362
9614 9695 133
9615 9573 65
9615 9618 14
9615 9672 83
9616 9586 43
9616 9627 56
9616 9655 49
9617 9613 29
9618 9615 14
9618 9514 150
9618 9587 108
9618 9673 81
9619 9599 42
9619 9568 167
9619 9653 52
9620 9592 44
9620 9539 236
9620 9654 52
9620 9674 171
9621 9622 230
9621 9595 47
9621 9644 58
9621 9648 41
9622 9621 230
9623 9582 144
9623 9577 68
9623 9657 48
9624 9625 406
9625 9624 406
9625 9639 370
9625 9641 21
9626 9439 274
9626 9743 192
9626 9789 476
9627 9616 56
9628 9563 102
9628 9676 73
9628 9677 214
9629 9612 266
9629 9647 203
9629 9727 148
9630 9603 52
9630 9691 107
9631 9632 104
9632 9631 104
9632 15241 64
9633 9578 76
9634 9610 109
9634 9645 42
9634 9749 186
9635 9566 155
9635 9464 244
9635 9675 101
9635 9691 131
9636 9637 218
9637 9636 218
9637 9646 158
9637 9722 225
9638 9639 253
9639 9638 253
9639 9625 370
9639 9643 129
9639 9651 18
9640 9602 467
9640 9609 52
9640 9660 39
9641 9625 21
9641 9651 369
9641 9669 49
9642 9643 253
9643 9642 253
9643 9639 129
9643 9650 11
9643 9655 363
9644 9621 58
9644 9613 48
9644 9648 123
9645 9634 42
9645 9657 49
9645 9716 122
9646 9637 158
9647 9449 274
9647 9629 203
9647 9652 13
9647 9745 152
9648 9649 146
9648 9621 41
9648 9644 123
9649 9648 146
9650 9643 11
9650 9651 131
9650 9668 364
9650 9692 59
9651 9650 131
9651 9639 18
9651 9641 369
9651 9684 53
9652 9456 266
9652 9647 13
9652 9681 372
9652 9835 294
9653 9619 52
9653 9592 164
9653 9674 39
9654 9620 52
9654 9580 231
9654 9706 166
9655 9616 49
9655 9643 363
9655 9667 1116
9655 9668 22
9656 9351 434
9656 9752 164
9656 9769 278
9657 9645 49
9657 9623 48
9657 9676 68
9658 9607 135
9658 9549 160
9658 9670 44
9659 9262 596
9659 15238 596
9659 9675 359
9659 9724 181
9660 9661 356
9660 9640 39
9660 9682 39
9661 9660 356
9662 9598 96
9663 9664 155
9664 9663 155
9664 9665 234
9664 9759 187
9665 9664 234
9666 9562 180
9667 9655 1116
9667 9863 786
9668 9655 22
9668 9650 364
9668 9678 1117
9668 9701 51
9669 9641 49
9669 9684 371
9669 9700 46
9670 9658 44
9670 9602 110
9670 9697 45
9670 9703 425
9671 9587 222
9671 9687 137
9671 9705 163
9672 9615 83
9672 9673 12
9672 9738 97
9673 9672 12
9673 9618 81
9673 9687 94
9673 9739 98
9674 9653 39
9674 9620 171
9674 9706 58
9675 9635 101
9675 9659 359
9675 9702 68
9676 9657 68
9676 9628 73
9676 9688 27
9677 9628 214
9677 9721 194
9677 9726 79
9678 9668 1117
9678 9733 148
9678 9747 317
9679 9585 134
9679 9689 97
9679 9781 150
9680 9600 125
9681 9371 418
9681 9652 372
9681 9899 402
9682 9683 352
9682 9660 39
9682 9703 42
9683 9682 352
9684 9651 53
9684 9669 371
9684 9708 46
9685 9686 324
9685 9719 211
9685 9720 59
9686 9685 324
9687 9673 94
9687 9671 137
9687 9705 37
9688 9676 27
9688 9726 185
9688 9755 110
9689 9679 97
9689 9690 242
9689 9728 124
9690 9689 242
9690 9693 114
9690 9728 105
9691 9630 107
9691 9635 131
9691 9699 100
9692 9650 59
9692 9701 362
9692 9715 48
9693 9690 114
9694 9593 144
9695 9614 133
9695 9696 104
9695 9717 41
9696 9695 104
9697 9698 113
9697 9670 45
9697 9725 43
9697 9732 417
9698 9697 113
9699 9612 137
9699 9691 100
9699 9727 269
9699 9793 147
9700 9669 46
9700 9708 371
9700 9723 40
9701 9668 51
9701 9692 362
9701 9704 81
9701 9731 47
9702 9675 68
9702 9713 24
9702 9724 112
9703 9670 425
9703 9682 42
9703 9707 57
9703 9732 47
9704 9701 81
9705 9687 37
9705 9671 163
9705 9735 44
9706 9674 58
9706 9654 166
9706 9796 314
9707 9703 57
9708 9684 46
9708 9700 371
9708 9741 44
9709 9581 238
9709 9831 105
9710 9406 473
9710 9766 217
9711 9712 39
9711 9720 99
9711 9792 131
9712 9711 39
9713 9702 24
9713 9756 80
9713 9778 103
9714 9594 182
9715 9692 48
9715 9731 364
9715 9768 68
9716 9645 122
9716 9755 142
9716 9767 73
9717 9695 41
9717 9718 154
9717 9796 132
9718 9717 154
9719 9685 211
9720 9711 99
9720 9685 59
9720 9819 158
9721 9677 194
9721 9742 74
9721 9775 72
9722 9637 225
9723 9700 40
9723 9741 369
9723 9754 37
9724 9702 112
9724 9659 181
9724 9756 51
9725 9697 43
9725 9729 117
9725 9751 36
9725 9761 396
9726 9688 185
9726 9677 79
9726 9740 59
9726 9848 218
9727 9629 148
9727 9699 269
9727 9745 202
9727 9816 145
9728 9689 124
9728 9690 105
9728 9753 63
9729 9725 117
9730 9605 249
9730 9750 43
9730 9782 107
9731 9701 47
9731 9715 364
9731 9734 66
9731 9763 44
9732 9697 417
9732 9703 47
9732 9737 81
9732 9761 47
9733 9678 148
9734 9731 66
9735 9705 44
9735 9736 97
9735 9739 93
9736 9735 97
9737 9732 81
9738 9672 97
9738 9739 13
9738 9772 43
9739 9738 13
9739 9673 98
9739 9735 93
9739 9770 41
9740 9726 59
9740 9775 136
9740 9776 48
9741 9708 44
9741 9723 369
9741 9773 36
9742 9721 74
9742 9556 296
9742 9743 11
9742 9788 79
9743 9742 11
9743 9626 192
9743 9791 83
9744 9596 225
9745 9647 152
9745 9727 202
9745 9837 144
9746 9591 228
9747 9678 317
9747 9854 211
9747 9869 464
9748 9749 35
9748 9771 335
9748 9811 121
9749 9748 35
9749 9634 186
9749 9760 25
9750 9730 43
9750 9849 196
9751 9725 36
9752 9656 164
9752 9805 103
9752 9817 137
9753 9728 63
9753 9790 80
9753 9792 126
9754 9723 37
9754 9773 370
9754 9779 35
9755 9716 142
9755 9688 110
9755 9815 111
9756 9713 80
9756 9724 51
9756 9856 291
9757 9758 135
9758 9757 135
9759 9664 187
9760 9749 25
9760 9767 22
9760 9881 364
9761 9725 396
9761 9732 47
9761 9762 104
9761 9783 48
9762 9761 104
9763 9731 44
9763 9764 218
9763 9774 79
9763 9786 44
9764 9763 218
9765 9766 64
9765 9769 15
9765 9809 78
9766 9765 64
9766 9710 217
9766 9818 100
9767 9760 22
9767 9716 73
9767 9780 64
9768 9715 68
9769 9765 15
9769 9656 278
9769 9812 81
9770 9739 41
9770 9771 36
9770 9772 13
9770 9839 118
9771 9770 36
9771 9748 335
9771 9826 108
9772 9738 43
9772 9770 13
9772 9810 75
9773 9741 36
9773 9754 370
9773 9779 405
9774 9763 79
9775 9740 136
9775 9721 72
9775 9798 53
9776 9740 48
9776 9798 133
9776 9802 56
9777 9590 266
9778 9713 103
9779 9754 35
9779 9773 405
9779 9829 95
9780 9767 64
9781 9679 150
9781 9790 196
9781 9853 140
9782 9730 107
9782 9807 73
9783 9784 143
9783 9761 48
9783 9785 117
9783 9808 46
9784 9783 143
9785 9783 117
9786 9763 44
9786 9787 196
9786 9795 97
9786 9803 22
9787 9786 196
9788 9742 79
9788 9794 26
9788 9794 8
9789 9626 476
9789 9865 141
9789 9886 658
9790 9781 196
9790 9753 80
9790 9823 69
9791 9743 83
9791 9797 8
9791 9797 17
9792 9753 126
9792 9711 131
9792 9814 74
9793 9699 147
9793 9816 269
9793 9870 147
9794 9788 26
9794 9788 8
9794 9797 10
9794 9866 146
9795 9786 97
9796 9717 132
9796 9706 314
9796 9804 20
9797 9794 10
9797 9791 8
9797 9791 17
9797 9836 66
9798 9776 133
9798 9775 53
9798 9828 58
9799 9560 364
9799 9806 14
9799 9853 110
9799 9855 1382
9800 9801 279
9800 9808 121
9800 9824 43
9801 9800 279
9802 9776 56
9802 9828 134
9802 9833 53
9803 9786 22
9804 9796 20
9804 9864 66
9805 9752 103
9805 9943 67
9806 9799 14
9806 10243 758
9806 10316 2222
9807 9782 73
9807 9830 59
9808 9800 121
9808 9783 46
9808 9813 109
9808 9834 46
9809 9765 78
9810 9772 75
9810 9841 48
9810 9851 301
9811 9748 121
9812 9769 81
9813 9808 109
9814 9792 74
9814 9819 35
9814 9875 394
9815 9755 111
9815 9844 137
9815 9846 60
9816 9727 145
9816 9793 269
9816 9837 202
9816 9882 143
9817 9752 137
9817 9820 72
9817 9832 38
9818 9766 100
9819 9814 35
9819 9720 158
9819 9821 31
9820 9817 72
9820 9842 342
9821 9819 31
9821 9822 141
9821 9827 35
9822 9821 141
9823 9790 69
9823 9845 53
9823 9845 50
9824 9825 237
9824 9800 43
9824 9834 101
9825 9824 237
9826 9771 108
9826 9839 22
9826 9889 229
9827 9821 35
9827 9860 105
9827 9978 518
9828 9802 134
9828 9798 58
9828 9852 51
9829 9779 95
9830 9831 185
9830 9807 59
9830 9842 246
9831 9830 185
9831 9709 105
9832 9817 38
9832 9951 108
9833 9802 53
9833 9852 134
9833 9858 61
9834 9824 101
9834 9808 46
9834 9840 122
9834 9851 43
9835 9652 294
9835 9843 86
9835 9890 139
9836 9797 66
9836 9865 430
9836 10065 458
9837 9745 144
9837 9816 202
9837 9895 145
9838 9405 2472
9838 9348 1013
9838 10864 2363
9839 9770 118
9839 9826 22
9839 9841 7
9839 9889 146
9840 9834 122
9841 9810 48
9841 9839 7
9841 9879 111
9842 9820 342
9842 9830 246
9843 9835 86
9844 9815 137
9844 9848 51
9844 9867 61
9845 9823 53
9845 9823 50
9845 9847 82
9846 9815 60
9846 9859 90
9846 9881 93
9847 9845 82
9848 9844 51
9848 9726 218
9848 9858 59
9849 9850 41
9849 9750 196
9850 9849 41
9850 9856 231
9850 9970 260
9851 9834 43
9851 9810 301
9851 9872 513
9851 9891 117
9852 9833 134
9852 9828 51
9852 9866 73
9853 9799 110
9853 9781 140
9853 9935 163
9854 9747 211
9855 9799 1382
9855 9908 130
9855 10313 846
9856 9756 291
9856 9857 194
9856 9850 231
9857 9856 194
9857 9971 109
9858 9848 59
9858 9833 61
9858 9868 62
9859 9846 90
9859 9867 47
9859 9894 91
9860 9827 105
9860 9873 161
9860 9932 246
9861 9862 75
9861 9876 40
9861 9877 129
9862 9861 75
9863 9864 61
9863 9667 786
9863 9869 15
9864 9863 61
9864 9804 66
9865 9789 141
9865 9836 430
9865 9887 65
9866 9852 73
9866 9794 146
9866 9884 60
9867 9859 47
9867 9844 61
9867 9880 112
9868 9858 62
9868 9874 54
9868 9888 62
9869 9863 15
9869 9747 464
9869 9989 274
9870 9793 147
9870 9871 228
9870 9882 271
9870 9940 145
9871 9870 228
9872 9851 513
9873 9860 161
9874 9868 54
9874 9884 91
9874 9962 175
9875 9814 394
9876 9861 40
9876 9896 46
9876 9897 128
9877 9861 129
9877 9878 26
9877 9897 45
9878 9877 26
9879 9841 111
9879 9892 37
9879 9936 125
9880 9867 112
9880 9888 60
9880 9920 83
9881 9760 364
9881 9846 93
9881 9885 24
9882 9816 143
9882 9870 271
9882 9895 198
9882 9960 144
9883 9579 546
9883 9893 85
9883 9945 114
9884 9874 91
9884 9866 60
9884 10040 280
9885 9881 24
9885 9894 66
9885 9902 46
9886 9789 658
9886 9898 94
9886 9958 133
9887 9865 65
9888 9880 60
9888 9868 62
9888 9952 117
9889 9839 146
9889 9826 229
9889 9892 4
9889 10004 243
9890 9835 139
9890 9899 342
9890 9973 144
9891 9851 117
9891 9906 111
9891 9912 44
9892 9879 37
9892 9889 4
9892 10010 241
9893 9883 85
9893 9896 12
9893 9954 106
9894 9885 66
9894 9859 91
9894 9910 30
9894 9920 161
9895 9837 145
9895 9882 198
9895 9972 137
9896 9893 12
9896 9876 46
9896 9928 134
9897 9876 128
9897 9877 45
9897 9928 51
9898 9886 94
9898 9900 61
9898 10071 287
9899 9681 402
9899 9890 342
9899 9934 55
9900 9898 61
9900 9901 58
9900 9903 196
9901 9900 58
9901 9909 38
9901 10000 179
9902 9885 46
9902 9910 32
9902 9957 115
9903 9900 196
9903 9540 618
9903 9908 15
9903 9915 14
9904 9905 232
9905 9904 232
9905 9921 146
9905 9948 79
9906 9891 111
9906 9907 65
9906 9949 77
9907 9906 65
9907 9916 54
9907 9979 140
9908 9903 15
9908 9606 533
9908 9855 130
9908 9917 14
9909 9901 38
9909 9915 97
9909 10003 178
9910 9902 32
9910 9894 30
9910 9942 162
9911 9912 120
9912 9911 120
9912 9891 44
9912 9939 49
9912 9949 128
9913 9914 13
9914 9913 13
9914 9926 16
9914 9919 36
9915 9909 97
9915 9903 14
9915 9917 15
9915 10093 291
9916 9907 54
9916 9927 53
9916 10026 201
9917 9915 15
9917 9908 14
9917 10220 512
9918 9919 13
9919 9918 13
9919 9929 15
9919 9914 36
9920 9894 161
9920 9880 83
9920 9942 36
9921 9905 146
9921 9922 52
9921 9925 6
9922 9921 52
9923 9924 34
9923 9934 155
9923 9966 76
9924 9923 34
9925 9921 6
9925 9930 32
9925 9959 67
9926 9914 16
9927 9916 53
9927 9936 55
9927 10023 176
9928 9896 134
9928 9897 51
9928 9946 35
9929 9919 15
9930 9925 32
9930 9931 50
9930 9933 30
9931 9930 50
9932 9860 246
9932 9937 51
9932 10007 141
9933 9930 30
9933 9953 179
9933 9967 63
9934 9899 55
9934 9923 155
9934 9937 126
9935 9853 163
9935 9968 216
9935 10022 158
9936 9927 55
9936 9879 125
9936 10052 250
9936 10052 251
9937 9932 51
9937 9934 126
9938 9939 134
9939 9938 134
9939 9912 49
9939 9965 51
9939 9976 142
9940 9870 145
9940 9941 486
9940 9960 271
9940 10112 321
9941 9940 486
9941 10016 288
9942 9910 162
9942 9920 36
9942 9952 59
9942 9992 114
9943 9944 239
9943 9805 67
9944 9943 239
9944 9947 13
9944 9950 177
9945 9883 114
9945 9954 122
9945 10593 1498
9946 9928 35
9946 9961 136
9946 9969 44
9947 9944 13
9947 9991 99
9948 9905 79
9948 9964 136
9948 9982 145
9949 9912 128
9949 9906 77
9949 9976 50
9950 9951 155
9950 9944 177
9950 10099 931
9951 9950 155
9951 9832 108
9952 9942 59
9952 9888 117
9952 9962 54
9953 9933 179
9953 9958 43
9953 10061 206
9954 9945 122
9954 9893 106
9954 9969 125
9955 9956 64
9955 9963 75
9955 9988 74
9956 9955 64
9957 9902 115
9957 9963 44
9957 9974 45
9957 10028 128
9958 9953 43
9958 9886 133
9959 9925 67
9959 9964 4
9959 9967 70
9960 9882 144
9960 9940 271
9960 9972 222
9960 10046 139
9961 9946 136
9962 9952 54
9962 9874 175
9962 10002 90
9963 9955 75
9963 9957 44
9963 9998 89
9964 9948 136
9964 9959 4
9965 9939 51
9965 9983 53
9965 9996 151
9965 10009 822
9966 9923 76
9967 9959 70
9967 9933 63
9967 9990 65
9968 9935 216
9969 9954 125
9969 9946 44
9969 10009 244
9970 9850 260
9970 9971 217
9970 10016 77
9970 10099 368
9971 9970 217
9971 9857 109
9972 9895 137
9972 9960 222
9972 9973 15
9972 10024 87
9973 9890 144
9973 9972 15
9973 9980 24
9974 9957 45
9974 9975 10
9974 9986 28
9975 9974 10
9975 9985 115
9976 9939 142
9976 9949 50
9976 9996 50
9977 9978 116
9978 9977 116
9978 9827 518
9978 10047 112
9979 9907 140
9980 9981 139
9980 9973 24
9980 10020 58
9981 9980 139
9982 9948 145
9982 9987 43
9982 9987 93
9983 9984 348
9983 9965 53
9983 10018 58
9983 10033 150
9984 9983 348
9985 9975 115
9985 9992 73
9985 10014 44
9986 9974 28
9986 10011 39
9986 10014 114
9987 9982 43
9987 9982 93
9987 9990 70
9988 9955 74
9988 9998 66
9988 10001 85
9989 9869 274
9989 9991 11
9989 10038 65
9990 9987 70
9990 9967 65
9990 9995 4
9990 9995 4
9991 9947 99
9991 9989 11
9991 10182 287
9991 10197 574
9992 9985 73
9992 9942 114
9992 10025 101
9992 10029 43
9993 9994 40
9993 9997 76
9993 10041 53
9994 9993 40
9995 9990 4
9995 9990 4
9995 10061 305
9996 9965 151
9996 9976 50
9996 10026 105
9996 10033 54
9997 9993 76
9998 9988 66
9998 9963 89
9998 10017 20
9999 10000 63
10000 9999 63
10000 9901 179
10000 10003 46
10000 10031 38
10001 9988 85
10001 10027 114
10001 10059 80
10002 9962 90
10002 10025 30
10002 10040 95
10003 10000 46
10003 9909 178
10003 10008 29
10003 10034 39
10004 9889 243
10004 10010 8
10004 10059 91
10005 10006 7
10006 10005 7
10006 10011 13
10006 10037 41
10007 9932 141
10008 10003 29
10009 9969 244
10009 9965 822
10009 10105 316
10010 9892 241
10010 10004 8
10010 10054 193
10010 10064 98
10011 10006 13
10011 9986 39
10011 10045 110
10012 10013 128
10013 10012 128
10013 10015 54
10013 10043 40
10014 9986 114
10014 9985 44
10014 10029 74
10014 10045 44
10015 10013 54
10016 9941 288
10016 9970 77
10016 10048 114
10017 9998 20
10017 10027 14
10017 10028 43
10018 10019 146
10018 9983 58
10018 10049 51
10018 10056 113
10019 10018 146
10020 10021 132
10020 9980 58
10020 10024 12
10020 10139 191
10021 10020 132
10022 9935 158
10022 10047 182
10022 10237 336
10023 9927 176
10024 10020 12
10024 9972 87
10024 10202 336
10025 9992 101
10025 10002 30
10025 10123 168
10026 9996 105
10026 9916 201
10026 10051 40
10027 10001 114
10027 10017 14
10027 10098 96
10028 10017 43
10028 9957 128
10028 10032 13
10029 10014 74
10029 9992 43
10029 10055 43
10030 10031 54
10031 10030 54
10031 10000 38
10031 10034 48
10031 10078 66
10032 10028 13
10032 10037 21
10032 10119 114
10033 9983 150
10033 9996 54
10033 10072 58
10034 10031 48
10034 10003 39
10034 10089 68
10035 10036 125
10035 10068 54
10035 10088 129
10036 10035 125
10037 10032 21
10037 10006 41
10037 10067 122
10038 9989 65
10038 10039 674
10038 10138 135
10039 10038 674
10040 10002 95
10040 9884 280
10040 10060 39
10041 9993 53
10041 10042 60
10041 10073 46
10042 10041 60
10043 10013 40
10043 10044 178
10043 10062 33
10044 10043 178
10045 10011 110
10045 10014 44
10045 10055 71
10045 10067 38
10046 9960 139
10046 10053 97
10046 10079 142
10047 9978 112
10047 10022 182
10047 10070 95
10048 10016 114
10048 10086 50
10048 10128 210
10049 10050 334
10049 10018 51
10049 10088 54
10050 10049 334
10051 10026 40
10052 9936 250
10052 9936 251
10052 10054 16
10053 10046 97
10054 10052 16
10054 10010 193
10054 10085 96
10055 10045 71
10055 10029 43
10055 10087 40
10056 10018 113
10056 10072 39
10056 10210 257
10057 10058 152
10057 10090 270
10057 10242 437
10058 10057 152
10059 10004 91
10059 10001 80
10059 10064 10
10059 10098 119
10060 10040 39
10060 10065 12
10060 10175 233
10061 9953 206
10061 10071 103
10061 9995 305
10061 10142 115
10062 10043 33
10062 10063 189
10062 10066 55
10062 10096 38
10063 10062 189
10064 10010 98
10064 10059 10
10064 10082 56
10065 10060 12
10065 9836 458
10065 10076 12
10065 10137 296
10066 10062 55
10067 10037 122
10067 10045 38
10067 10084 20
10067 10087 68
10068 10069 119
10068 10035 54
10068 10105 58
10069 10068 119
10070 10047 95
10070 10090 43
10070 10165 159
10071 10061 103
10071 9898 287
10071 10077 44
10072 10056 39
10072 10033 58
10072 10075 1
10073 10041 46
10073 10074 61
10073 10083 115
10074 10073 61
10074 10081 178
10074 10124 61
10075 10072 1
10075 10107 174
10076 10065 12
10076 10154 169
10076 10166 506
10077 10071 44
10077 10089 108
10077 10200 207
10078 10031 66
10079 10046 142
10079 10080 60
10079 10118 45
10080 10079 60
10081 10074 178
10081 10086 46
10081 10113 28
10082 10064 56
10082 10111 62
10082 10206 216
10083 10073 115
10083 10100 179
10083 10129 56
10084 10067 20
10084 10110 65
10084 10141 92
10085 10054 96
10086 10081 46
10086 10048 50
10086 10101 18
10087 10067 68
10087 10055 40
10087 10110 24
10088 10035 129
10088 10049 54
10088 10161 143
10089 10077 108
10089 10034 68
10089 10093 45
10090 10070 43
10090 10057 270
10090 10259 327
10091 10092 134
10091 10102 151
10091 10153 392
10091 10173 131
10092 10091 134
10093 10089 45
10093 9915 291
10093 10217 220
10094 10095 71
10094 10108 281
10094 10131 151
10095 10094 71
10096 10062 38
10096 10097 141
10096 10106 82
10096 10125 35
10097 10096 141
10098 10059 119
10098 10027 96
10098 10111 9
10098 10119 47
10099 9970 368
10099 9950 931
10099 10135 49
10100 10083 179
10100 10112 98
10100 10136 50
10101 10086 18
10101 10113 41
10101 10115 14
10102 10091 151
10103 10104 12
10103 10116 33
10104 10103 12
10104 10137 56
10105 10009 316
10105 10068 58
10105 10133 47
10106 10096 82
10107 10075 174
10108 10109 81
10108 10094 281
10108 10131 191
10108 10151 325
10109 10108 81
10110 10084 65
10110 10087 24
10110 10123 49
10111 10082 62
10111 10098 9
10111 10120 33
10112 9940 321
10112 10100 98
10112 10118 198
10113 10081 28
10113 10101 41
10113 10114 16
10114 10113 16
10114 10121 60
10114 10219 193
10115 10101 14
10116 10103 33
10116 10117 113
10116 10140 46
10117 10116 113
10118 10079 45
10118 10112 198
10118 10132 65
10118 10145 58
10119 10098 47
10119 10032 114
10119 10141 133
10120 10111 33
10120 10171 104
10120 10177 324
10121 10114 60
10121 10122 44
10121 10224 188
10122 10121 44
10122 10124 55
10122 10225 186
10123 10110 49
10123 10025 168
10123 10147 71
10123 10152 87
10124 10074 61
10124 10122 55
10124 10127 50
10124 10215 169
10125 10096 35
10125 10126 188
10125 10138 213
10125 10143 37
10126 10125 188
10127 10124 50
10127 10130 93
10127 10146 44
10128 10048 210
10128 10135 27
10128 10204 164
10129 10083 56
10129 10130 32
10129 10136 173
10130 10129 32
10130 10127 93
10130 10146 124
10131 10108 191
10131 10094 151
10131 10227 180
10132 10118 65
10133 10134 362
10133 10105 47
10133 10169 79
10134 10133 362
10135 10128 27
10135 10099 49
10135 10151 56
10136 10100 50
10136 10129 173
10137 10065 296
10137 10104 56
10137 10140 48
10138 10038 135
10138 10125 213
10138 10150 40
10139 10020 191
10139 10164 282
10139 10375 549
10140 10137 48
10140 10116 46
10140 10163 168
10141 10119 133
10141 10084 92
10141 10152 95
10142 10061 115
10142 10148 468
10142 10189 81
10143 10125 37
10143 10144 191
10143 10150 213
10143 10158 36
10144 10143 191
10145 10118 58
10145 10149 15
10145 10260 314
10146 10127 44
10146 10130 124
10146 10157 25
10147 10123 71
10148 10142 468
10148 10201 96
10148 10212 418
10149 10145 15
10150 10138 40
10150 10143 213
10150 10174 34
10151 10135 56
10151 10108 325
10151 10198 84
10152 10141 95
10152 10123 87
10152 10175 88
10153 10091 392
10153 10173 268
10153 10239 137
10154 10076 169
10154 10160 13
10154 10191 70
10155 10156 14
10155 15242 14
10156 10155 14
10156 15242 14
10157 10146 25
10158 10143 36
10158 10159 188
10158 10174 212
10158 10185 37
10159 10158 188
10160 10154 13
10160 10167 11
10160 10306 452
10161 10162 78
10161 10088 143
10161 10187 39
10162 10161 78
10163 10140 168
10163 10170 7
10163 10183 104
10164 10139 282
10165 10070 159
10165 10259 216
10166 10076 506
10166 10170 8
10166 10319 303
10167 10160 11
10167 10168 2
10167 10172 5
10167 10358 561
10168 10167 2
10169 10133 79
10169 10203 134
10169 10205 76
10170 10166 8
10170 10163 7
10170 10190 105
10170 10282 217
10171 10120 104
10172 10167 5
10172 10176 7
10172 15242 32
10173 10091 131
10173 10153 268
10173 10257 145
10174 10150 34
10174 10158 212
10174 10194 36
10175 10152 88
10175 10060 233
10175 10177 14
10176 10172 7
10177 10120 324
10177 10175 14
10177 10359 748
10178 10179 162
10178 10185 64
10178 10222 73
10179 10178 162
10180 10181 126
10181 10180 126
10182 9991 287
10182 10245 104
10183 10163 104
10183 10184 96
10183 10201 139
10184 10183 96
10185 10158 37
10185 10178 64
10185 10188 41
10185 10228 74
10186 10187 85
10187 10186 85
10187 10161 39
10187 10203 43
10187 10210 162
10188 10185 41
10188 10193 80
10188 10230 75
10189 10142 81
10189 10200 161
10189 10212 49
10190 10170 105
10190 10214 51
10190 10238 285
10191 10154 70
10191 10192 45
10191 10241 129
10192 10191 45
10192 10195 98
10192 10218 249
10193 10188 80
10193 10194 90
10193 10207 35
10194 10174 36
10194 10193 90
10194 10213 38
10195 10192 98
10196 10197 60
10197 10196 60
10197 9991 574
10197 10229 44
10198 10151 84
10198 10199 88
10198 10277 143
10199 10198 88
10199 10272 144
10200 10189 161
10200 10077 207
10200 10217 121
10200 10287 172
10201 10183 139
10201 10148 96
10201 10269 390
10202 10024 336
10202 10247 240
10202 10328 274
10203 10169 134
10203 10187 43
10203 10246 78
10204 10128 164
10204 10209 118
10204 10270 126
10205 10169 76
10205 10246 130
10205 10261 161
10206 10082 216
10206 10258 83
10207 10193 35
10207 10208 80
10207 10213 89
10208 10207 80
10209 10204 118
10209 10211 58
10209 10271 122
10210 10187 162
10210 10056 257
10211 10209 58
10211 10221 127
10211 10315 210
10212 10148 418
10212 10189 49
10212 10269 112
10213 10194 38
10213 10207 89
10213 10240 37
10214 10190 51
10215 10124 169
10215 10216 77
10215 10226 13
10216 10215 77
10217 10200 121
10217 10093 220
10217 10220 13
10217 10279 124
10218 10192 249
10219 10114 193
10219 10221 10
10219 10224 53
10220 10217 13
10220 9917 512
10220 10295 158
10221 10219 10
10221 10211 127
10221 10308 177
10222 10178 73
10222 10223 82
10222 10228 64
10223 10222 82
10224 10121 188
10224 10219 53
10224 10225 53
10224 10296 154
10225 10122 186
10225 10224 53
10225 10226 46
10225 10286 130
10226 10215 13
10226 10225 46
10226 10249 43
10227 10131 180
10227 10229 155
10227 10278 173
10228 10185 74
10228 10222 64
10228 10230 45
10228 10248 37
10229 10227 155
10229 10197 44
10229 10233 7
10230 10188 75
10230 10228 45
10230 10240 168
10231 10232 25
10231 10248 273
10231 10254 35
10232 10231 25
10233 10229 7
10234 10235 179
10234 10236 81
10234 10307 148
10235 10234 179
10235 10244 538
10235 10304 162
10236 10234 81
10237 10022 336
10237 10243 14
10237 10262 280
10238 10190 285
10238 10275 245
10238 10329 219
10239 10153 137
10239 10257 267
10239 10302 139
10240 10213 37
10240 10230 168
10240 10288 116
10241 10191 129
10242 10057 437
10243 9806 758
10243 10237 14
10243 10276 336
10243 10472 599
10244 10235 538
10245 10182 104
10245 10250 89
10245 10381 335
10246 10205 130
10246 10203 78
10246 10261 33
10247 10202 240
10248 10228 37
10248 10231 273
10248 10256 117
10249 10226 43
10250 10245 89
10251 10252 13
10252 10251 13
10252 10253 14
10252 10264 29
10253 10252 14
10254 10231 35
10254 10255 28
10254 10266 326
10255 10254 28
10255 10268 41
10256 10248 117
10257 10173 145
10257 10239 267
10257 10320 143
10258 10206 83
10259 10165 216
10259 10090 327
10259 10262 20
10260 10145 314
10260 10274 169
10261 10205 161
10261 10246 33
10262 10237 280
10262 10259 20
10262 10267 37
10263 10264 12
10264 10263 12
10264 10265 14
10264 10252 29
10265 10264 14
10266 10254 326
10267 10262 37
10267 10289 101
10267 10300 148
10268 10255 41
10268 10284 72
10268 10285 453
10269 10201 390
10269 10212 112
10269 10275 9
10269 10287 164
10270 10204 126
10270 10271 117
10270 10342 186
10271 10209 122
10271 10270 117
10271 10314 79
10272 10199 144
10272 10277 107
10272 10293 47
10273 10274 183
10274 10273 183
10274 10260 169
10274 10328 389
10275 10238 245
10275 10269 9
10275 10283 71
10276 10243 336
10276 10297 90
10276 10354 352
10277 10198 143
10277 10272 107
10277 10337 148
10278 10227 173
10278 10344 195
10278 10384 483
10279 10217 124
10279 10298 73
10279 10303 52
10280 10281 189
10281 10280 189
10282 10170 217
10282 10317 76
10282 10325 335
10283 10275 71
10283 10299 123
10283 10386 269
10284 10268 72
10284 10288 571
10284 10318 69
10285 10268 453
10286 10225 130
10286 10296 45
10287 10269 164
10287 10200 172
10287 10298 61
10288 10240 116
10288 10284 571
10288 10382 229
10289 10267 101
10289 10743 1096
10290 10291 18
10290 10292 86
10290 10310 47
10291 10290 18
10292 10290 86
10293 10272 47
10293 10294 69
10293 10332 102
10294 10293 69
10295 10220 158
10295 10305 19
10295 10313 43
10296 10286 45
10296 10224 154
10296 10308 42
10296 10339 140
10297 10276 90
10297 10735 1075
10298 10287 61
10298 10279 73
10298 10303 46
10299 10283 123
10299 10309 77
10299 10331 114
10300 10267 148
10300 10301 185
10300 10347 242
10301 10300 185
10302 10239 139
10302 10320 267
10302 10330 74
10303 10298 46
10303 10279 52
10303 10305 13
10303 10309 10
10304 10235 162
10304 10307 170
10304 10364 171
10305 10303 13
10305 10295 19
10305 10312 9
10305 10313 39
10306 10160 452
10306 10336 156
10306 10361 366
10307 10304 170
10307 10234 148
10307 10363 167
10308 10296 42
10308 10221 177
10308 10345 142
10309 10299 77
10309 10303 10
10309 10312 14
10309 10331 72
10310 10290 47
10310 10311 41
10310 10415 353
10311 10310 41
10312 10309 14
10312 10305 9
10312 10316 55
10312 10326 47
10313 10305 39
10313 10295 43
10313 9855 846
10314 10271 79
10314 10315 100
10314 10343 108
10315 10211 210
10315 10314 100
10315 10352 162
10316 9806 2222
10316 10312 55
10316 10326 76
10317 10282 76
10317 10319 13
10317 10321 20
10318 10284 69
10319 10166 303
10319 10317 13
10319 10338 126
10320 10257 143
10320 10302 267
10320 10327 28
10321 10317 20
10321 10356 101
10322 10323 512
10322 10324 160
10322 10366 129
10323 10322 512
10324 10322 160
10324 10366 268
10324 10372 411
10325 10282 335
10325 10329 61
10325 10351 175
10326 10312 47
10326 10316 76
10326 10699 751
10327 10320 28
10327 10349 72
10328 10202 274
10328 10274 389
10328 10372 125
10329 10325 61
10329 10238 219
10329 10346 60
10330 10302 74
10330 10532 452
10331 10299 114
10331 10309 72
10331 10408 205
10332 10293 102
10332 10333 76
10332 10337 110
10332 10395 152
10333 10332 76
10334 10335 23
10334 15244 23
10335 10334 23
10335 15244 23
10336 10306 156
10336 10362 191
10336 10391 140
10337 10277 148
10337 10332 110
10337 10399 154
10338 10319 126
10338 10430 390
10339 10296 140
10339 10345 50
10339 10403 170
10340 10341 21
10340 15243 21
10341 10340 21
10341 15243 21
10342 10270 186
10342 10343 118
10342 10394 116
10343 10314 108
10343 10342 118
10343 10350 9
10344 10278 195
10345 10339 50
10345 10308 142
10345 10414 165
10346 10329 60
10346 10355 14
10346 10386 308
10347 10300 242
10347 10348 243
10347 10368 106
10348 10347 243
10349 10327 72
10350 10343 9
10350 10353 164
10350 10396 107
10351 10325 175
10352 10315 162
10352 10353 59
10352 10402 145
10353 10352 59
10353 10350 164
10353 10398 109
10354 10276 352
10354 10383 165
10354 10404 133
10355 10346 14
10355 10390 307
10355 10454 282
10356 10321 101
10356 10357 57
10356 10385 100
10357 10356 57
10358 10167 561
10359 10360 141
10359 10177 748
10359 10370 171
10360 10359 141
10361 10306 366
10362 10336 191
10362 10367 73
10362 10456 256
10363 10307 167
10363 10364 171
10363 10470 287
10364 10304 171
10364 10365 11
10364 10363 171
10364 10366 470
10365 10364 11
10366 10324 268
10366 10322 129
10366 10364 470
10366 10429 145
10367 10362 73
10367 10464 760
10367 10478 325
10368 10347 106
10368 10369 164
10368 10375 89
10369 10368 164
10370 10371 228
10370 10359 171
10370 10378 123
10371 10370 228
10372 10328 125
10372 10324 411
10372 10376 9
10373 10374 160
10373 10387 143
10373 10392 77
10374 10373 160
10375 10139 549
10375 10368 89
10375 10376 16
10375 10393 46
10376 10375 16
10376 10372 9
10376 10433 407
10376 10529 322
10377 10378 280
10378 10377 280
10378 10370 123
10378 10379 14
10379 10380 253
10379 10378 14
10379 10415 179
10380 10379 253
10381 10245 335
10381 10382 10
10381 10384 146
10381 10401 44
10382 10381 10
10382 10288 229
10382 10545 335
10383 10354 165
10383 10393 85
10383 10627 444
10384 10278 483
10384 10381 146
10384 10504 336
10385 10356 100
10385 10411 80
10385 10416 76
10386 10346 308
10386 10283 269
10386 10390 15
10386 10408 200
10387 10373 143
10387 10404 125
10387 10413 54
10388 10389 47
10388 10395 108
10389 10388 47
10390 10355 307
10390 10386 15
10390 10420 200
10391 10336 140
10391 10409 144
10391 10567 382
10392 10373 77
10392 10413 152
10392 10417 52
10393 10383 85
10393 10375 46
10393 10531 282
10394 10342 116
10394 10396 116
10394 10421 52
10395 10332 152
10395 10388 108
10395 10399 111
10395 10424 63
10396 10350 107
10396 10394 116
10396 10397 66
10397 10396 66
10397 10398 104
10397 10418 45
10398 10353 109
10398 10397 104
10398 10400 94
10398 10435 98
10399 10337 154
10399 10395 111
10399 10428 63
10400 10398 94
10400 10402 50
10401 10381 44
10401 10509 253
10402 10352 145
10402 10400 50
10402 10481 231
10403 10339 170
10403 10414 49
10404 10387 125
10404 10354 133
10404 10427 53
10405 10406 158
10405 10407 75
10405 10594 345
10406 10405 158
10407 10405 75
10408 10386 200
10408 10331 205
10408 10420 15
10409 10391 144
10409 10410 123
10409 10419 89
10410 10409 123
10411 10385 80
10411 10412 21
10411 10416 24
10411 10440 200
10412 10411 21
10413 10392 152
10413 10387 54
10413 10427 124
10413 10431 53
10414 10403 49
10414 10345 165
10415 10310 353
10415 10379 179
10415 10466 362
10416 10385 76
10416 10411 24
10416 10612 371
10417 10392 52
10417 10431 140
10417 10434 53
10418 10397 45
10418 10421 186
10418 10443 88
10419 10409 89
10420 10390 200
10420 10408 15
10420 10565 281
10421 10418 186
10421 10394 52
10421 10445 88
10422 10423 47
10423 10422 47
10423 10426 43
10423 10765 922
10424 10395 63
10424 10425 107
10424 10428 110
10425 10424 107
10426 10423 43
10427 10413 124
10427 10404 53
10427 10439 49
10428 10399 63
10428 10424 110
10428 10453 96
10429 10366 145
10429 10433 128
10429 10467 357
10430 10338 390
10430 10438 34
10430 10570 334
10431 10417 140
10431 10413 53
10431 10439 123
10431 10442 50
10432 10433 169
10433 10432 169
10433 10429 128
10433 10376 407
10434 10417 53
10434 10442 125
10434 10589 283
10435 10398 98
10435 10436 91
10435 10444 32
10436 10435 91
10436 10437 68
10436 10482 132
10437 10436 68
10438 10430 34
10438 10451 124
10438 10461 79
10439 10431 123
10439 10427 49
10439 10452 57
10440 10441 114
10440 10411 200
10440 10454 179
10441 10440 114
10442 10434 125
10442 10431 50
10442 10452 120
10442 10457 55
10443 10418 88
10443 10444 105
10443 10446 8
10444 10435 32
10444 10443 105
10444 10485 102
10445 10421 88
10445 10446 191
10445 10465 77
10446 10443 8
10446 10445 191
10446 10486 95
10447 10448 94
10448 10447 94
10449 10450 100
10450 10449 100
10450 10453 91
10450 10513 104
10451 10438 124
10451 10462 172
10451 10584 180
10452 10442 120
10452 10439 57
10452 10471 54
10453 10428 96
10453 10450 91
10453 10469 51
10454 10440 179
10454 10355 282
10454 10455 28
10454 10565 506
10455 10454 28
10456 10362 256
10457 10458 76
10457 10442 55
10457 10471 123
10457 10483 53
10458 10457 76
10459 10460 273
10459 10467 145
10459 10476 44
10460 10459 273
10461 10438 79
10461 10585 204
10461 10614 219
10462 10451 172
10462 10463 104
10462 10592 166
10463 10462 104
10464 10367 760
10464 10475 26
10464 10528 63
10465 10445 77
10465 10487 43
10465 10492 36
10466 10415 362
10466 10473 11
10466 10475 14
10467 10468 144
10467 10429 357
10467 10459 145
10467 10495 34
10468 10467 144
10468 10479 398
10468 10505 46
10469 10453 51
10469 10497 36
10469 10510 54
10470 10363 287
10470 10476 254
10470 10481 274
10471 10457 123
10471 10452 54
10471 10524 53
10472 10243 599
10472 10474 25
10472 10617 167
10473 10466 11
10473 10477 14
10473 10594 476
10474 10472 25
10474 10613 569
10474 10613 160
10475 10466 14
10475 10464 26
10475 10477 11
10475 10528 52
10476 10459 44
10476 10470 254
10476 10488 15
10476 10495 145
10477 10473 14
10477 10475 11
10477 10606 497
10477 10799 603
10478 10367 325
10479 10468 398
10479 10480 122
10479 10527 40
10480 10479 122
10481 10470 274
10481 10402 231
10481 10482 88
10482 10481 88
10482 10436 132
10482 10485 89
10482 10491 12
10483 10484 72
10483 10457 53
10483 10506 24
10483 10524 128
10484 10483 72
10485 10482 89
10485 10444 102
10485 10486 104
10486 10485 104
10486 10446 95
10486 10487 163
10487 10486 163
10487 10465 43
10487 10492 28
10488 10476 15
10488 10489 130
10488 10514 147
10488 10523 28
10489 10488 130
10489 10490 448
10489 10512 35
10490 10489 448
10490 10491 38
10490 10574 79
10491 10490 38
10491 10482 12
10491 10493 176
10492 10487 28
10492 10465 36
10492 10497 12
10492 10503 11
10493 10491 176
10493 10494 86
10493 10559 62
10494 10493 86
10494 10496 84
10494 10539 40
10495 10467 34
10495 10476 145
10495 10505 141
10495 10514 14
10496 10494 84
10496 10503 35
10496 10546 55
10497 10492 12
10497 10469 36
10497 10510 36
10497 10511 10
10498 10499 126
10498 10516 98
10498 10551 52
10499 10498 126
10500 10501 429
10500 10502 271
10500 10532 78
10501 10500 429
10502 10500 271
10503 10496 35
10503 10492 11
10503 10511 12
10503 10546 42
10504 10384 336
10504 10508 12
10504 10516 27
10505 10468 46
10505 10495 141
10505 10517 189
10505 10530 14
10506 10507 42
10506 10483 24
10506 10560 52
10507 10506 42
10508 10504 12
10508 10509 151
10508 10547 40
10509 10508 151
10509 10401 253
10509 10544 36
10510 10497 36
10510 10469 54
10510 10513 71
10511 10503 12
10511 10497 10
10511 10515 29
10511 10541 34
10512 10489 35
10512 10523 130
10512 10540 31
10513 10510 71
10513 10450 104
10513 10522 7
10513 10552 371
10514 10495 14
10514 10488 147
10514 10530 140
10514 10549 39
10515 10511 29
10515 10518 10
10516 10498 98
10516 10504 27
10516 10548 35
10517 10505 189
10517 10527 209
10517 10533 14
10518 10515 10
10518 10521 54
10518 10541 55
10519 10520 7
10519 10522 62
10519 10649 173
10520 10519 7
10520 10557 300
10520 10685 244
10521 10518 54
10521 10522 17
10521 10554 38
10522 10521 17
10522 10513 7
10522 10519 62
10523 10488 28
10523 10512 130
10523 10543 25
10524 10483 128
10524 10471 53
10524 10577 58
10525 10526 313
10526 10525 313
10527 10479 40
10527 10517 209
10527 10529 143
10528 10475 52
10528 10464 63
10528 10730 386
10529 10376 322
10529 10527 143
10529 10531 28
10529 10537 13
10530 10505 14
10530 10514 140
10530 10533 189
10530 10619 116
10531 10393 282
10531 10529 28
10531 10538 13
10532 10330 452
10532 10500 78
10532 10555 221
10532 10622 120
10533 10517 14
10533 10530 189
10533 10534 110
10533 10563 33
10534 10533 110
10534 10536 99
10534 10566 36
10535 10536 84
10535 10537 57
10535 10609 81
10536 10535 84
10536 10534 99
10536 10573 40
10537 10529 13
10537 10535 57
10537 10538 28
10537 10742 362
10538 10531 13
10538 10537 28
10538 10734 340
10539 10494 40
10539 10562 24
10539 10576 102
10540 10512 31
10540 10542 27
10540 10591 114
10541 10511 34
10541 10518 55
10541 10597 61
10542 10540 27
10542 10543 102
10542 15247 102
10543 10523 25
10543 10542 102
10543 15247 102
10543 10549 146
10544 10509 36
10544 10547 159
10544 10550 7
10545 10382 335
10545 10722 298
10546 10496 55
10546 10503 42
10546 10605 65
10547 10508 40
10547 10544 159
10547 10548 28
10548 10516 35
10548 10547 28
10548 10551 103
10549 10514 39
10549 10543 146
10549 10671 209
10550 10544 7
10550 10558 292
10550 10607 62
10551 10498 52
10551 10548 103
10551 10552 134
10551 10558 6
10552 10513 371
10552 10553 193
10552 10551 134
10552 10557 5
10553 10552 193
10554 10521 38
10554 10556 57
10554 10595 47
10555 10532 221
10556 10554 57
10557 10520 300
10557 10552 5
10557 10564 82
10557 10704 250
10558 10551 6
10558 10550 292
10558 10564 52
10558 10620 107
10559 10493 62
10559 10562 84
10559 10581 22
10560 10561 51
10560 10506 52
10560 10596 42
10561 10560 51
10562 10559 84
10562 10539 24
10562 10572 10
10563 10533 33
10563 10566 111
10563 10658 133
10564 10558 52
10564 10557 82
10564 10666 155
10565 10454 506
10565 10420 281
10565 10641 122
10566 10534 36
10566 10563 111
10566 10571 41
10566 10661 183
10567 10391 382
10567 10586 363
10567 10610 100
10568 10569 377
10568 10569 150
10568 10590 86
10569 10568 377
10569 10568 150
10569 10590 240
10570 10430 334
10571 10566 41
10571 10573 55
10572 10562 10
10572 10576 66
10572 10601 36
10573 10536 40
10573 10571 55
10573 10609 120
10574 10490 79
10574 10575 70
10574 10578 72
10575 10574 70
10576 10572 66
10576 10539 102
10576 10603 35
10577 10524 58
10577 10596 133
10577 10598 32
10578 10574 72
10578 10579 43
10578 10634 88
10579 10578 43
10579 10580 51
10579 10637 99
10580 10579 51
10580 10581 49
10580 10638 98
10581 10580 49
10581 10559 22
10581 10599 26
10582 10583 67
10582 10629 256
10582 10629 77
10582 10641 332
10583 10582 67
10584 10451 180
10584 10592 113
10584 10611 40
10585 10461 204
10586 10587 165
10586 10567 363
10586 10662 119
10587 10586 165
10588 10589 200
10589 10588 200
10589 10434 283
10589 10632 90
10589 10690 171
10590 10568 86
10590 10600 21
10590 10569 240
10591 10540 114
10592 10584 113
10592 10462 166
10592 10670 201
10593 9945 1498
10593 10600 50
10593 10594 818
10594 10405 345
10594 10473 476
10594 10593 818
10595 10554 47
10595 10597 101
10595 10624 49
10596 10560 42
10596 10577 133
10596 10604 63
10596 10615 31
10597 10541 61
10597 10595 101
10597 10626 52
10598 10577 32
10598 10615 141
10598 10628 54
10598 10636 214
10599 10581 26
10599 10601 83
10599 10640 73
10600 10590 21
10600 10593 50
10600 10608 10
10600 10646 263
10601 10599 83
10601 10572 36
10601 10602 17
10602 10601 17
10602 10603 49
10602 10645 75
10603 10602 49
10603 10576 35
10603 10605 49
10603 10648 77
10604 10596 63
10605 10603 49
10605 10546 65
10605 10653 78
10606 10477 497
10606 10625 327
10606 10647 73
10607 10550 62
10607 10616 114
10607 10780 381
10608 10600 10
10608 10625 517
10608 10657 267
10609 10535 81
10609 10573 120
10609 10770 357
10610 10567 100
10610 10618 87
10610 10753 292
10611 10584 40
10611 10614 83
10612 10416 371
10612 10665 94
10612 10672 316
10613 10474 569
10613 10474 160
10613 10617 26
10614 10461 219
10614 10611 83
10614 10621 189
10614 10635 40
10615 10596 31
10615 10598 141
10615 10623 85
10615 10650 57
10616 10607 114
10616 10620 179
10616 10681 115
10617 10613 26
10617 10472 167
10617 10765 334
10618 10610 87
10619 10530 116
10620 10558 107
10620 10616 179
10620 10700 152
10621 10614 189
10622 10532 120
10622 10755 267
10623 10615 85
10624 10595 49
10624 10626 99
10624 10652 38
10625 10606 327
10625 10608 517
10625 10727 409
10626 10597 52
10626 10624 99
10626 10654 36
10627 10383 444
10627 10636 145
10627 10655 36
10628 10598 54
10628 10650 146
10628 10660 47
10629 10582 256
10629 10582 77
10629 10672 72
10630 10631 237
10630 10642 155
10630 10643 155
10630 15247 155
10630 15248 155
10631 10630 237
10632 10589 90
10632 10633 107
10632 10719 173
10633 10632 107
10634 10578 88
10635 10614 40
10636 10598 214
10636 10627 145
10636 10660 103
10636 10663 39
10637 10579 99
10637 10638 52
10637 10669 47
10638 10637 52
10638 10580 98
10638 10639 4
10639 10638 4
10639 10640 43
10639 10682 74
10640 10639 43
10640 10599 73
10640 10644 78
10641 10582 332
10641 10565 122
10641 10698 105
10642 10643 146
10642 10630 155
10642 10643 155
10642 15247 155
10642 15248 155
10643 10642 146
10643 10630 155
10643 10642 155
10643 15247 155
10643 15248 155
10644 10640 78
10644 10645 25
10644 10687 74
10645 10644 25
10645 10602 75
10645 10648 47
10646 10600 263
10646 11000 255
10647 10606 73
10647 10651 36
10647 10779 309
10648 10645 47
10648 10603 77
10648 10653 61
10648 10689 75
10649 10519 173
10649 10652 85
10650 10615 57
10650 10628 146
10650 10664 141
10650 10675 51
10651 10647 36
10651 10656 32
10651 10782 309
10652 10624 38
10652 10649 85
10652 10654 97
10652 10686 67
10653 10648 61
10653 10605 78
10653 10713 137
10654 10626 36
10654 10652 97
10654 10739 194
10655 10627 36
10655 10663 144
10655 10678 53
10656 10651 32
10656 10659 40
10656 10781 308
10657 10608 267
10657 11009 255
10658 10563 133
10658 10661 53
10659 10656 40
10660 10628 47
10660 10636 103
10660 10675 158
10660 10707 128
10661 10566 183
10661 10658 53
10661 10674 36
10662 10586 119
10662 10691 194
10663 10636 39
10663 10655 144
10663 10688 49
10664 10650 141
10665 10612 94
10665 10673 184
10665 10683 153
10666 10564 155
10667 10668 189
10668 10667 189
10668 10671 142
10668 10674 116
10669 10637 47
10669 10679 36
10670 10592 201
10671 10668 142
10671 10549 209
10671 10677 137
10671 10718 118
10672 10612 316
10672 10629 72
10672 10684 138
10673 10665 184
10674 10661 36
10674 10668 116
10674 10772 344
10675 10650 51
10675 10660 158
10675 10676 21
10676 10675 21
10676 10680 41
10676 10693 31
10677 10671 137
10678 10655 53
10678 10688 144
10678 10702 55
10679 10669 36
10679 10682 42
10679 10716 100
10680 10676 41
10680 10693 36
10680 10697 143
10680 10703 62
10681 10616 115
10682 10679 42
10682 10639 74
10682 10687 124
10682 10708 68
10683 10665 153
10684 10672 138
10684 10692 85
10684 10752 149
10685 10520 244
10685 10686 111
10685 10709 69
10686 10652 67
10686 10685 111
10686 10714 71
10687 10682 124
10687 10644 74
10687 10689 66
10687 10711 68
10688 10663 49
10688 10678 144
10688 10705 55
10689 10687 66
10689 10648 75
10689 10710 64
10690 10589 171
10691 10662 194
10692 10684 85
10692 10696 65
10692 10813 336
10693 10680 36
10693 10676 31
10693 10712 90
10693 10751 146
10694 10695 82
10694 10701 72
10694 10706 314
10695 10694 82
10696 10692 65
10696 10698 49
10697 10680 143
10698 10696 49
10698 10641 105
10698 10699 11
10698 10813 295
10699 10698 11
10699 10326 751
10699 10817 298
10700 10620 152
10700 10704 127
10700 10715 46
10701 10694 72
10701 10726 491
10701 10728 69
10702 10678 55
10702 10705 149
10702 10725 53
10703 10680 62
10703 10719 143
10703 10729 62
10704 10557 250
10704 10700 127
10704 10724 41
10705 10688 55
10705 10702 149
10705 10721 27
10706 10694 314
10707 10660 128
10707 10717 169
10707 10721 89
10708 10682 68
10708 10711 122
10708 10716 11
10709 10685 69
10709 10714 129
10709 10745 75
10710 10689 64
10710 10711 67
10710 10713 83
10710 10776 163
10711 10708 122
10711 10687 68
10711 10710 67
10711 10749 79
10712 10693 90
10712 10738 59
10712 10760 304
10713 10710 83
10713 10653 137
10713 10778 166
10714 10686 71
10714 10709 129
10714 10741 64
10715 10700 46
10715 10724 140
10716 10679 100
10716 10708 11
10716 10720 10
10716 10731 46
10717 10707 169
10718 10671 118
10718 10726 165
10718 10772 187
10719 10632 173
10719 10703 143
10719 10740 51
10720 10716 10
10721 10707 89
10721 10705 27
10721 10732 25
10722 10545 298
10722 10723 22
10722 10848 291
10723 10722 22
10723 10736 286
10723 10766 119
10724 10704 41
10724 10715 140
10724 10762 112
10725 10702 53
10725 10732 150
10725 10748 53
10726 10701 491
10726 10718 165
10726 10787 183
10727 10625 409
10727 10768 576
10727 10806 204
10728 10701 69
10728 10737 255
10728 10747 45
10729 10703 62
10729 10740 110
10729 10744 35
10730 10528 386
10730 10733 86
10730 10987 470
10731 10716 46
10732 10721 25
10732 10725 150
10732 10758 54
10733 10730 86
10733 10753 508
10733 10922 372
10734 10538 340
10734 10735 31
10734 10973 443
10735 10734 31
10735 10297 1075
10736 10723 286
10737 10728 255
10738 10712 59
10738 10775 477
10739 10654 194
10739 10741 73
10739 10791 137
10740 10719 51
10740 10729 110
10741 10739 73
10741 10714 64
10741 10746 78
10741 10795 135
10742 10743 48
10742 10537 362
10742 10971 418
10743 10742 48
10743 10289 1096
10744 10729 35
10745 10709 75
10745 10746 64
10746 10741 78
10746 10745 64
10746 10763 59
10747 10728 45
10747 10754 269
10747 10804 140
10748 10725 53
10748 10758 147
10748 10764 57
10749 10750 84
10749 10711 79
10749 10773 81
10750 10749 84
10751 10693 146
10752 10684 149
10752 10783 109
10752 10789 187
10753 10733 508
10753 10610 292
10753 10759 51
10753 10874 260
10754 10747 269
10755 10622 267
10755 10756 153
10755 10757 1
10755 10761 221
10756 10755 153
10757 10755 1
10758 10732 54
10758 10748 147
10758 10760 12
10759 10753 51
10759 10796 492
10759 10824 157
10760 10758 12
10760 10712 304
10760 10764 182
10761 10755 221
10762 10724 112
10762 10834 223
10763 10746 59
10763 10769 97
10763 10798 74
10764 10748 57
10764 10760 182
10764 10775 26
10765 10617 334
10765 10423 922
10765 10926 299
10766 10723 119
10766 10767 249
10766 10822 100
10767 10766 249
10768 10727 576
10769 10763 97
10770 10609 357
10770 10771 104
10770 10921 277
10771 10770 104
10772 10674 344
10772 10718 187
10772 10777 9
10773 10774 54
10773 10749 81
10773 10776 74
10774 10773 54
10775 10764 26
10775 10738 477
10775 10976 342
10776 10773 74
10776 10710 163
10776 10778 90
10776 10816 70
10777 10772 9
10777 10899 239
10778 10776 90
10778 10713 166
10778 10862 161
10779 10647 309
10779 10782 33
10779 10908 217
10780 10607 381
10780 10788 277
10780 10863 163
10781 10656 308
10781 10782 29
10781 10792 132
10782 10651 309
10782 10779 33
10782 10781 29
10783 10752 109
10784 10785 204
10784 10786 188
10784 10851 131
10785 10784 204
10786 10784 188
10787 10726 183
10787 10814 45
10788 10780 277
10789 10752 187
10789 10790 302
10789 10821 46
10790 10789 302
10791 10739 137
10791 10795 74
10791 11025 377
10792 10793 189
10792 10781 132
10792 10794 31
10793 10792 189
10794 10792 31
10794 10797 20
10794 10825 49
10795 10791 74
10795 10741 135
10795 10798 72
10795 10831 71
10796 10759 492
10796 10885 177
10797 10794 20
10798 10795 72
10798 10763 74
10798 10801 28
10799 10800 236
10799 10477 603
10799 10842 89
10800 10799 236
10801 10798 28
10801 10811 96
10801 10836 73
10802 10803 77
10802 10814 257
10802 10884 144
10803 10802 77
10804 10747 140
10804 10805 3
10804 10818 138
10805 10804 3
10805 10809 158
10805 10866 122
10806 10727 204
10807 10808 205
10808 10807 205
10808 10820 20
10809 10805 158
10809 10810 44
10809 10844 82
10810 10809 44
10811 10801 96
10811 10812 32
10811 10839 74
10812 10811 32
10812 10843 75
10813 10692 336
10813 10698 295
10813 10817 16
10813 11084 503
10814 10787 45
10814 10802 257
10814 10882 146
10815 10816 120
10816 10815 120
10816 10776 70
10816 10855 83
10817 10813 16
10817 10699 298
10817 10993 299
10818 10804 138
10819 10820 135
10820 10819 135
10820 10808 20
10820 10826 17
10821 10789 46
10821 10832 222
10821 10838 54
10822 10766 100
10822 10823 110
10822 10847 68
10823 10822 110
10824 10759 157
10824 10846 56
10824 10877 161
10825 10794 49
10825 10828 90
10825 10869 87
10826 10820 17
10826 10830 121
10826 10835 28
10827 10828 46
10828 10827 46
10828 10825 90
10828 10829 125
10828 10867 80
10829 10828 125
10830 10826 121
10831 10795 71
10831 10836 94
10831 10878 73
10832 10821 222
10832 10833 26
10832 10895 195
10833 10832 26
10833 10838 134
10833 10963 214
10834 10762 223
10834 10852 237
10834 10868 126
10835 10826 28
10835 10837 185
10835 10935 206
10836 10831 94
10836 10801 73
10836 10839 97
10836 10883 71
10837 10835 185
10838 10833 134
10838 10821 54
10838 10952 189
10839 10836 97
10839 10811 74
10839 10843 48
10839 10891 69
10840 10841 94
10840 10849 136
10840 10875 52
10841 10840 94
10841 10842 70
10842 10841 70
10842 10799 89
10842 10984 207
10843 10839 48
10843 10812 75
10843 10889 66
10844 10809 82
10844 10845 13
10844 10866 159
10845 10844 13
10846 10824 56
10847 10822 68
10847 10848 59
10847 10850 7
10848 10722 291
10848 10847 59
10848 10950 156
10849 10840 136
10849 10856 34
10849 10917 124
10850 10847 7
10850 10898 240
10850 10954 168
10851 10784 131
10851 10857 24
10851 10859 54
10852 10834 237
10852 10853 32
10852 10863 88
10853 10852 32
10854 10855 137
10855 10854 137
10855 10816 83
10855 10862 77
10855 10912 75
10856 10849 34
10856 10857 9
10856 10917 89
10857 10858 77
10857 10856 9
10857 10851 24
10858 10857 77
10859 10851 54
10859 10865 25
10859 10914 67
10860 10861 186
10861 10860 186
10861 10881 1215
10861 11043 726
10862 10855 77
10862 10778 161
10862 10966 152
10863 10852 88
10863 10780 163
10863 10955 137
10864 9838 2363
10864 10979 107
10865 10859 25
10865 10900 127
10865 10914 68
10866 10805 122
10866 10844 159
10866 10904 51
10867 10828 80
10867 10869 93
10867 10870 39
10867 10909 48
10868 10834 126
10869 10867 93
10869 10825 87
10869 10873 26
10870 10867 39
10871 10872 112
10871 10905 102
10871 10967 185
10872 10871 112
10873 10869 26
10873 10910 47
10873 10908 241
10874 10753 260
10874 10877 144
10874 10916 59
10875 10876 70
10875 10840 52
10875 10983 162
10876 10875 70
10877 10874 144
10877 10824 161
10877 10913 47
10878 10831 73
10878 10883 92
10878 10925 75
10879 10880 105
10879 10897 105
10879 10944 103
10880 10879 105
10881 10861 1215
10882 10814 146
10882 10884 93
10882 10890 10
10883 10878 92
10883 10836 71
10883 10891 93
10883 10931 77
10884 10882 93
10884 10802 144
10884 10904 203
10885 10796 177
10886 10887 45
10886 10888 37
10886 10892 17
10887 10886 45
10888 10886 37
10889 10843 66
10889 10891 76
10889 10943 107
10890 10882 10
10890 10956 240
10890 11017 188
10891 10883 93
10891 10839 69
10891 10889 76
10891 10938 79
10892 10886 17
10892 10893 24
10892 10927 63
10893 10894 39
10893 10892 24
10893 10899 66
10894 10893 39
10895 10896 151
10895 10832 195
10895 10929 61
10896 10895 151
10897 10879 105
10897 10907 51
10897 10915 37
10898 10850 240
10898 10903 90
10898 11002 151
10899 10777 239
10899 10893 66
10899 10937 64
10900 10865 127
10900 10908 43
10900 10961 98
10901 10902 64
10902 10901 64
10903 10898 90
10903 10906 325
10903 10930 117
10904 10866 51
10904 10884 203
10904 10918 41
10905 10871 102
10905 10934 293
10905 11037 233
10906 10903 325
10907 10897 51
10908 10779 217
10908 10900 43
10908 10873 241
10908 10965 95
10909 10867 48
10909 10910 117
10909 10924 37
10910 10909 117
10910 10873 47
10910 10923 33
10911 10912 143
10912 10911 143
10912 10855 75
10912 10959 78
10913 10877 47
10913 10916 144
10913 10951 70
10914 10865 68
10914 10859 67
10914 10917 102
10914 10988 113
10915 10897 37
10915 10921 94
10915 10953 65
10916 10874 59
10916 10913 144
10916 10960 66
10917 10856 89
10917 10849 124
10917 10914 102
10917 10997 123
10918 10904 41
10918 10919 197
10918 10980 91
10919 10918 197
10919 10920 67
10919 10958 51
10920 10919 67
10921 10770 277
10921 10915 94
10921 10962 58
10922 10733 372
10923 10910 33
10923 10924 120
10923 10936 17
10924 10909 37
10924 10923 120
10924 10945 32
10925 10878 75
10925 10931 89
10925 11031 160
10926 10765 299
10926 10935 205
10926 11013 125
10927 10892 63
10927 10928 51
10927 10937 91
10927 10982 77
10928 10927 51
10929 10895 61
10929 10964 62
10929 10975 148
10930 10903 117
10930 11048 317
10930 11110 322
10931 10925 89
10931 10883 77
10931 10938 93
10931 11034 160
10932 10933 223
10933 10932 223
10933 10939 58
10933 11024 133
10934 10905 293
10934 10935 47
10934 11061 205
10935 10835 206
10935 10926 205
10935 10934 47
10936 10923 17
10936 10968 46
10936 10996 201
10937 10899 64
10937 10927 91
10937 10944 86
10937 10990 71
10938 10931 93
10938 10891 79
10938 10940 102
10938 11039 158
10939 10933 58
10939 10955 119
10939 10995 67
10940 10938 102
10940 10943 31
10940 11049 164
10941 10942 56
10941 11076 244
10942 10941 56
10942 10949 53
10942 11014 109
10943 10940 31
10943 10889 107
10943 11211 452
10944 10879 103
10944 10937 86
10944 10953 109
10945 10924 32
10945 10946 91
10945 10972 34
10946 10945 91
10947 10948 184
10947 10960 196
10947 10969 25
10948 10947 184
10948 11019 108
10949 10942 53
10949 10959 73
10949 11022 104
10950 10848 156
10950 10954 21
10950 11005 64
10951 10913 70
10952 10838 189
10952 10963 42
10952 11070 195
10953 10915 65
10953 10944 109
10953 10962 91
10954 10950 21
10954 10850 168
10954 11007 62
10955 10939 119
10955 10863 137
10955 11215 439
10956 10890 240
10956 10957 87
10956 10982 197
10956 11015 80
10957 10956 87
10958 10919 51
10958 10981 118
10958 10989 53
10959 10949 73
10959 10912 78
10959 10966 84
10959 11027 109
10960 10947 196
10960 10916 66
10960 10999 55
10961 10900 98
10961 10965 43
10961 10974 19
10962 10921 58
10962 10953 91
10962 10971 72
10962 11012 70
10963 10833 214
10963 10952 42
10963 10975 42
10964 10929 62
10965 10908 95
10965 10961 43
10965 10977 20
10966 10959 84
10966 10862 152
10966 11033 112
10967 10871 185
10968 10936 46
10968 10972 125
10968 11006 46
10969 10947 25
10969 10970 161
10969 11021 239
10970 10969 161
10971 10742 418
10971 10962 72
10971 10973 14
10971 11176 370
10972 10945 34
10972 10968 125
10972 11003 36
10973 10734 443
10973 10971 14
10973 11178 369
10973 15249 369
10974 10961 19
10975 10929 148
10975 10963 42
10975 11066 161
10976 10775 342
10976 11013 835
10976 11128 265
10977 10965 20
10977 10996 102
10977 11180 364
10978 10979 68
10978 10991 11
10978 10994 861
10978 11121 4306
10979 10978 68
10979 10864 107
10980 10918 91
10980 10981 106
10980 11017 280
10981 10980 106
10981 10958 118
10982 10927 77
10982 10956 197
10982 10990 96
10982 11029 79
10983 10875 162
10983 10986 1
10983 10985 55
10984 10985 103
10984 10842 207
10984 10987 12
10984 11200 381
10985 10984 103
10985 10983 55
10985 11106 239
10986 10983 1
10986 10997 119
10986 11036 87
10987 10984 12
10987 10730 470
10987 11011 31
10988 10914 113
10988 10997 118
10988 11010 115
10989 10958 53
10990 10937 71
10990 10982 96
10990 11012 286
10990 11030 70
10991 10978 11
10991 10992 275
10991 11028 367
10992 10991 275
10992 10998 581
10992 11490 2001
10993 10817 299
10993 11016 40
10993 11095 274
10994 10978 861
10994 11001 60
10995 10939 67
10996 10936 201
10996 10977 102
10996 11006 105
10997 10917 123
10997 10986 119
10997 10988 118
10998 10992 581
10998 11008 60
10999 10960 55
10999 11020 790
10999 11139 299
11000 11001 1423
11000 10646 255
11001 11000 1423
11001 10994 60
11002 10898 151
11003 10972 36
11003 11004 42
11004 11003 42
11004 11006 86
11004 11137 343
11005 10950 64
11005 11007 44
11005 11074 139
11006 10968 46
11006 10996 105
11006 11004 86
11006 11078 209
11007 11005 44
11007 10954 62
11007 11023 370
11007 11073 136
11008 11009 1426
11008 10998 60
11009 11008 1426
11009 10657 255
11010 10988 115
11011 10987 31
11011 11018 97
11011 11091 175
11012 10962 70
11012 10990 286
11012 11045 65
11013 10926 125
11013 10976 835
11013 11112 202
11014 10942 109
11014 11022 85
11014 11051 76
11015 10956 80
11015 11017 148
11015 11029 183
11016 10993 40
11016 11086 178
11017 10890 188
11017 10980 280
11017 11015 148
11018 11011 97
11018 11019 107
11018 11092 166
11019 11018 107
11019 10948 108
11019 11021 6
11020 10999 790
11021 11019 6
11021 10969 239
11021 11050 63
11022 11014 85
11022 10949 104
11022 11027 70
11022 11057 71
11023 11007 370
11024 10933 133
11025 10791 377
11025 11026 43
11025 11115 183
11026 11025 43
11026 11031 53
11026 11125 184
11027 11022 70
11027 10959 109
11027 11033 77
11027 11094 143
11028 10991 367
11028 11300 4407
11028 11517 818
11029 10982 79
11029 11015 183
11029 11035 101
11029 11065 72
11030 10990 70
11030 11035 13
11030 11045 284
11031 11026 53
11031 10925 160
11031 11032 55
11032 11031 55
11032 11034 51
11032 11135 188
11033 11027 77
11033 10966 112
11033 11098 144
11034 11032 51
11034 10931 160
11034 11038 40
11035 11030 13
11035 11029 101
11035 11075 75
11036 10986 87
11037 10905 233
11037 11042 89
11037 11064 193
11038 11034 40
11038 11039 43
11038 11105 142
11039 11038 43
11039 10938 158
11039 11044 65
11040 11041 3595
11040 9604 190
11041 11040 3595
11041 11121 1570
11041 11500 778
11042 11037 89
11042 11114 155
11042 11268 760
11043 10861 726
11043 11067 411
11043 11069 131
11044 11039 65
11044 11049 35
11044 11079 85
11045 11012 65
11045 11030 284
11045 11099 120
11046 11047 106
11046 11053 75
11046 11063 26
11047 11046 106
11047 11054 27
11048 10930 317
11048 11100 1258
11048 11228 329
11049 11044 35
11049 10940 164
11049 11055 23
11050 11021 63
11050 11052 52
11050 11096 106
11051 11014 76
11051 11057 99
11051 11081 73
11052 11050 52
11053 11046 75
11053 11056 71
11053 11129 146
11054 11047 27
11054 11063 108
11054 11082 63
11055 11049 23
11055 11165 213
11055 11209 324
11056 11053 71
11056 11062 85
11056 11133 143
11057 11051 99
11057 11022 71
11057 11087 73
11058 11059 28
11058 11060 291
11058 11231 297
11059 11058 28
11060 11058 291
11061 10934 205
11061 11064 133
11061 11122 119
11062 11056 85
11062 11065 110
11062 11093 82
11063 11046 26
11063 11054 108
11063 11085 62
11064 11037 193
11064 11061 133
11065 11029 72
11065 11062 110
11065 11075 110
11065 11101 81
11066 10975 161
11066 11068 84
11066 11071 38
11067 11043 411
11067 11068 14
11067 11069 17
11068 11067 14
11068 11066 84
11069 11067 17
11069 11043 131
11069 11130 118
11070 10952 195
11070 11071 47
11070 11072 7
11071 11066 38
11071 11070 47
11071 11167 213
11072 11070 7
11072 11084 105
11072 11151 168
11073 11007 136
11074 11005 139
11074 11156 423
11074 11428 574
11075 11035 75
11075 11065 110
11075 11077 8
11076 10941 244
11076 11108 71
11076 11134 174
11077 11075 8
11077 11083 113
11077 11109 65
11078 11006 209
11079 11080 38
11079 11044 85
11079 11117 101
11080 11079 38
11080 11117 67
11081 11051 73
11081 11087 111
11081 11111 60
11082 11054 63
11082 11085 109
11082 11113 57
11083 11077 113
11083 11090 24
11083 11097 212
11084 11072 105
11084 10813 503
11084 11086 12
11084 11157 133
11085 11063 62
11085 11082 109
11085 11124 57
11086 11084 12
11086 11016 178
11086 11095 76
11086 11290 348
11087 11081 111
11087 11057 73
11087 11094 75
11087 11233 229
11088 11089 536
11089 11088 536
11089 11142 234
11090 11083 24
11090 11097 115
11090 11109 156
11091 11011 175
11091 11092 113
11091 11202 174
11092 11018 166
11092 11096 85
11092 11091 113
11093 11062 82
11093 11101 110
11093 11138 66
11094 11087 75
11094 11027 143
11094 11098 61
11095 11086 76
11095 10993 274
11095 11245 312
11096 11050 106
11096 11092 85
11096 11118 130
11097 11083 212
11097 11090 115
11097 11099 55
11097 11166 116
11098 11094 61
11098 11033 144
11098 11246 226
11099 11045 120
11099 11097 55
11099 11170 116
11100 11048 1258
11101 11065 81
11101 11093 110
11101 11109 108
11101 11146 65
11102 11103 426
11102 11104 157
11102 11113 47
11103 11102 426
11104 11102 157
11104 11134 93
11104 11153 104
11105 11038 142
11105 11145 52
11106 10985 239
11107 11108 43
11108 11107 43
11108 11076 71
11108 11111 56
11109 11077 65
11109 11101 108
11109 11090 156
11109 11150 67
11110 10930 322
11111 11108 56
11111 11081 60
11111 11158 80
11112 11013 202
11112 11164 97
11112 11126 1252
11112 11128 1252
11112 11141 1252
11112 11168 1252
11112 11192 1252
11112 11241 1252
11112 11248 1252
11112 11256 1252
11112 11321 1252
11112 15249 1252
11113 11082 57
11113 11102 47
11113 11116 24
11114 11042 155
11115 11025 183
11115 11125 67
11115 11171 103
11116 11113 24
11116 11123 66
11116 11175 106
11117 11080 67
11117 11079 101
11118 11096 130
11118 11139 188
11118 11344 546
11119 11120 905
11119 11398 435
11120 11119 905
11121 11041 1570
11121 10978 4306
11121 12657 3653
11122 11061 119
11122 11126 22
11122 11136 24
11123 11116 66
11123 11124 21
11123 11179 105
11124 11085 57
11124 11123 21
11124 11127 39
11125 11115 67
11125 11026 184
11125 11131 82
11126 11122 22
11126 11112 1252
11126 11128 1252
11126 11141 1252
11126 11168 1252
11126 11192 1252
11126 11241 1252
11126 11248 1252
11126 11256 1252
11126 11321 1252
11126 15249 1252
11127 11124 39
11127 11129 39
11127 11149 47
11128 10976 265
11128 11184 103
11128 11112 1252
11128 11126 1252
11128 11141 1252
11128 11168 1252
11128 11192 1252
11128 11241 1252
11128 11248 1252
11128 11256 1252
11128 11321 1252
11128 15249 1252
11129 11053 146
11129 11127 39
11129 11132 55
11130 11069 118
11130 11148 59
11131 11125 82
11131 11135 20
11131 11182 94
11132 11129 55
11132 11133 15
11132 11155 45
11133 11056 143
11133 11132 15
11133 11138 75
11134 11076 174
11134 11104 93
11135 11131 20
11135 11032 188
11135 11145 95
11136 11122 24
11136 11292 321
11136 11292 247
11137 11004 343
11137 11142 30
11137 11147 289
11138 11093 66
11138 11133 75
11138 11144 59
11138 11159 43
11139 11118 188
11139 10999 299
11139 11143 9
11140 11141 214
11141 11140 214
11141 11112 1252
11141 11126 1252
11141 11128 1252
11141 11168 1252
11141 11192 1252
11141 11241 1252
11141 11248 1252
11141 11256 1252
11141 11321 1252
11141 15249 1252
11142 11137 30
11142 11089 234
11142 11195 448
11143 11139 9
11143 11173 183
11143 11208 111
11144 11138 59
11144 11146 52
11144 11177 66
11145 11135 95
11145 11105 52
11145 11154 26
11146 11101 65
11146 11144 52
11146 11150 109
11147 11137 289
11148 11130 59
11148 11189 112
11148 11214 193
11149 11127 47
11149 11155 94
11149 11183 58
11150 11109 67
11150 11146 109
11150 11160 144
11150 11193 70
11151 11072 168
11151 11157 31
11151 11190 65
11152 11153 41
11152 11158 127
11152 11229 110
11153 11152 41
11153 11219 136
11153 11104 104
11154 11145 26
11154 11161 85
11154 11196 67
11155 11132 45
11155 11149 94
11155 11159 91
11155 11194 61
11156 11074 423
11156 11172 110
11156 11218 131
11157 11151 31
11157 11084 133
11157 11199 70
11158 11152 127
11158 11111 80
11158 11227 96
11159 11138 43
11159 11155 91
11159 11201 63
11160 11150 144
11160 11166 86
11160 11203 64
11161 11154 85
11161 11165 89
11161 11299 211
11162 11163 91
11163 11162 91
11163 11261 172
11164 11112 97
11164 11169 206
11164 11258 122
11165 11161 89
11165 11055 213
11165 11188 33
11166 11097 116
11166 11160 86
11166 11170 55
11167 11071 213
11167 11189 34
11167 11190 97
11168 11169 67
11168 11112 1252
11168 11126 1252
11168 11128 1252
11168 11141 1252
11168 11192 1252
11168 11241 1252
11168 11248 1252
11168 11256 1252
11168 11321 1252
11168 15249 1252
11169 11168 67
11169 11164 206
11169 11277 160
11170 11099 116
11170 11166 55
11170 11176 78
11170 11222 63
11171 11115 103
11171 11182 163
11171 11263 135
11172 11156 110
11173 11143 183
11173 11174 439
11173 11273 171
11174 11173 439
11175 11116 106
11175 11179 69
11175 11221 52
11176 10971 370
11176 11170 78
11176 11178 10
11176 11408 342
11177 11144 66
11177 11193 160
11177 11226 61
11178 10973 369
11178 15249 369
11178 11176 10
11178 11414 348
11179 11123 105
11179 11175 69
11179 11183 56
11180 10977 364
11180 11181 321
11180 11195 17
11181 11180 321
11182 11171 163
11182 11131 94
11182 11196 111
11183 11149 58
11183 11179 56
11183 11194 95
11183 11230 60
11184 11128 103
11184 11191 258
11184 11254 90
11185 11186 185
11185 11187 82
11185 11223 133
11186 11185 185
11187 11185 82
11187 11223 303
11188 11165 33
11188 11209 128
11188 11260 93
11189 11148 112
11189 11167 34
11189 11214 30
11190 11167 97
11190 11151 65
11190 11199 20
11191 11192 122
11191 11184 258
11191 11259 85
11192 11191 122
11192 11112 1252
11192 11126 1252
11192 11128 1252
11192 11141 1252
11192 11168 1252
11192 11241 1252
11192 11248 1252
11192 11256 1252
11192 11321 1252
11192 15249 1252
11193 11150 70
11193 11177 160
11193 11235 58
11193 11252 141
11194 11155 61
11194 11183 95
11194 11201 91
11194 11240 62
11195 11180 17
11195 11142 448
11195 11377 268
11196 11182 111
11196 11154 67
11196 11289 140
11197 11198 128
11197 11200 129
11197 11307 169
11198 11197 128
11199 11190 20
11199 11157 70
11199 11234 53
11200 11197 129
11200 10984 381
11200 11202 13
11200 11313 166
11201 11159 63
11201 11194 91
11201 11220 16
11202 11200 13
11202 11091 174
11202 11347 222
11203 11160 64
11203 11216 68
11203 11255 68
11204 11205 63
11204 11215 69
11204 11206 100
11205 11204 63
11206 11207 134
11206 11204 100
11206 11262 84
11207 11206 134
11208 11143 111
11208 11243 64
11208 11390 294
11209 11188 128
11209 11055 324
11209 11210 1
11210 11209 1
11210 11211 2
11210 11327 196
11211 11210 2
11211 10943 452
11211 11224 28
11212 11213 285
11212 11271 390
11212 11506 560
11213 11212 285
11214 11189 30
11214 11148 193
11214 11225 22
11215 11204 69
11215 10955 439
11215 11281 106
11216 11203 68
11216 11222 75
11216 11295 132
11217 11218 120
11218 11217 120
11218 11156 131
11218 11270 120
11219 11153 136
11219 11229 119
11219 11284 114
11220 11201 16
11220 11226 65
11220 11249 43
11221 11175 52
11221 11230 123
11221 11293 120
11222 11170 63
11222 11216 75
11222 11302 134
11223 11185 133
11223 11187 303
11223 11339 212
11224 11211 28
11224 11250 45
11225 11214 22
11225 11234 113
11225 11319 152
11226 11177 61
11226 11220 65
11226 11235 150
11226 11264 60
11227 11158 96
11227 11232 12
11227 11233 118
11228 11048 329
11229 11219 119
11229 11152 110
11229 11232 126
11229 11296 116
11230 11183 60
11230 11221 123
11230 11236 58
11230 11274 72
11231 11058 297
11232 11229 126
11232 11227 12
11232 11301 111
11233 11227 118
11233 11087 229
11233 11246 108
11233 11350 189
11234 11199 53
11234 11225 113
11234 11330 158
11235 11193 58
11235 11226 150
11235 11239 11
11236 11230 58
11236 11240 34
11236 11280 67
11237 11238 118
11238 11237 118
11238 11329 143
11238 11478 829
11239 11235 11
11239 11252 74
11239 11276 61
11240 11194 62
11240 11236 34
11240 11244 33
11240 11282 66
11241 11242 176
11241 11112 1252
11241 11126 1252
11241 11128 1252
11241 11141 1252
11241 11168 1252
11241 11192 1252
11241 11248 1252
11241 11256 1252
11241 11321 1252
11241 15249 1252
11242 11241 176
11242 11247 43
11242 11279 62
11243 11208 64
11243 11273 163
11243 11294 96
11244 11240 33
11244 11249 59
11244 11283 66
11245 11095 312
11245 11261 186
11245 11336 210
11246 11233 108
11246 11098 226
11246 11365 202
11247 11242 43
11247 11248 177
11247 11253 7
11248 11247 177
11248 11112 1252
11248 11126 1252
11248 11128 1252
11248 11141 1252
11248 11168 1252
11248 11192 1252
11248 11241 1252
11248 11256 1252
11248 11321 1252
11248 15249 1252
11249 11220 43
11249 11244 59
11249 11286 65
11250 11251 30
11250 11224 45
11251 11250 30
11251 11262 53
11251 11431 292
11252 11193 141
11252 11239 74
11252 11255 65
11252 11276 134
11253 11247 7
11253 11257 31
11253 11279 90
11254 11184 90
11254 11259 261
11254 11325 114
11255 11203 68
11255 11252 65
11255 11291 65
11256 11257 182
11256 11112 1252
11256 11126 1252
11256 11128 1252
11256 11141 1252
11256 11168 1252
11256 11192 1252
11256 11241 1252
11256 11248 1252
11256 11321 1252
11256 15249 1252
11257 11256 182
11257 11253 31
11257 11277 98
11258 11164 122
11258 11275 39
11258 11328 246
11259 11191 85
11259 11254 261
11259 11323 108
11260 11188 93
11260 11265 121
11260 11309 90
11261 11245 186
11261 11163 172
11262 11251 53
11262 11206 84
11262 11267 24
11263 11171 135
11263 11266 80
11263 11341 139
11264 11226 60
11264 11276 162
11265 11260 121
11266 11263 80
11266 11278 111
11266 11372 153
11267 11262 24
11267 11272 61
11267 11315 70
11268 11269 158
11268 11042 760
11268 11383 182
11269 11268 158
11270 11218 120
11271 11212 390
11271 11332 153
11271 11445 261
11272 11267 61
11272 11281 78
11272 11324 76
11273 11173 171
11273 11243 163
11273 11318 71
11274 11230 72
11274 11280 61
11274 11298 39
11275 11258 39
11275 11305 61
11275 11409 203
11276 11239 61
11276 11264 162
11276 11252 134
11276 11320 69
11277 11257 98
11277 11169 160
11277 11304 166
11278 11266 111
11278 11288 99
11278 11382 157
11279 11242 62
11279 11253 90
11280 11236 67
11280 11274 61
11280 11282 32
11281 11272 78
11281 11215 106
11281 11453 261
11282 11240 66
11282 11280 32
11282 11283 33
11282 11316 55
11283 11244 66
11283 11282 33
11283 11285 24
11284 11219 114
11284 11287 33
11285 11283 24
11285 11286 37
11285 11317 54
11286 11249 65
11286 11285 37
11286 11303 32
11287 11284 33
11287 11296 141
11287 11367 123
11288 11278 99
11288 11289 13
11288 11391 159
11289 11288 13
11289 11196 140
11289 11297 81
11290 11086 348
11290 11331 62
11291 11255 65
11291 11295 67
11291 11333 63
11292 11136 321
11292 11136 247
11292 11337 71
11293 11221 120
11293 11298 113
11293 11345 84
11294 11243 96
11294 11318 204
11294 11335 60
11295 11216 132
11295 11291 67
11295 11302 69
11296 11287 141
11296 11229 116
11296 11301 110
11296 11396 150
11297 11289 81
11297 11299 12
11297 11386 131
11298 11274 39
11298 11293 113
11298 11308 15
11299 11297 12
11299 11161 211
11299 11309 85
11300 11028 4407
11300 12549 2834
11301 11296 110
11301 11232 111
11301 11346 71
11302 11222 134
11302 11295 69
11302 11343 65
11303 11286 32
11303 11306 76
11303 11326 26
11304 11277 166
11304 11305 91
11304 11518 346
11305 11304 91
11305 11275 61
11305 11409 171
11306 11303 76
11306 11320 148
11306 11334 36
11307 11197 169
11307 11310 65
11307 11434 186
11308 11298 15
11308 11314 78
11308 11342 57
11309 11299 85
11309 11260 90
11309 11327 101
11309 11419 171
11310 11307 65
11310 11313 60
11310 11549 373
11311 11312 17
11312 11311 17
11312 11315 15
11312 11340 68
11313 11310 60
11313 11200 166
11313 11641 493
11314 11308 78
11314 11316 16
11314 11349 58
11315 11312 15
11315 11267 70
11315 11324 64
11316 11282 55
11316 11314 16
11316 11317 49
11317 11285 54
11317 11316 49
11317 11326 44
11317 11356 61
11318 11294 204
11318 11273 71
11318 11353 55
11319 11225 152
11319 11330 63
11319 11339 263
11320 11276 69
11320 11306 148
11320 11333 140
11321 11322 290
11321 11112 1252
11321 11126 1252
11321 11128 1252
11321 11141 1252
11321 11168 1252
11321 11192 1252
11321 11241 1252
11321 11248 1252
11321 11256 1252
11321 15249 1252
11322 11321 290
11322 11328 161
11322 11415 139
11323 11259 108
11323 11325 264
11323 11380 86
11324 11315 64
11324 11272 76
11324 11450 188
11325 11323 264
11325 11254 114
11325 11378 81
11326 11303 26
11326 11317 44
11326 11361 58
11327 11309 101
11327 11210 196
11327 11427 188
11328 11258 246
11328 11322 161
11328 11415 295
11329 11238 143
11329 11364 57
11329 11513 560
11330 11319 63
11330 11234 158
11330 11331 13
11330 11562 389
11331 11330 13
11331 11290 62
11331 11442 177
11332 11271 153
11333 11291 63
11333 11320 140
11333 11343 141
11333 11354 35
11334 11306 36
11334 11354 285
11334 11371 54
11335 11294 60
11335 11353 211
11335 11393 90
11336 11245 210
11336 11421 291
11336 11457 195
11337 11292 71
11337 11338 184
11337 11400 337
11337 11575 373
11338 11337 184
11339 11223 212
11339 11319 263
11339 11364 197
11340 11312 68
11341 11263 139
11341 11370 122
11341 11397 83
11342 11308 57
11342 11345 114
11342 11349 79
11343 11302 65
11343 11333 141
11343 11399 80
11344 11118 546
11344 11347 152
11344 11390 320
11345 11342 114
11345 11293 84
11345 11348 29
11346 11301 71
11346 11350 118
11346 11422 106
11347 11202 222
11347 11344 152
11347 11420 98
11348 11345 29
11348 11368 28
11349 11314 58
11349 11342 79
11349 11356 64
11350 11346 118
11350 11233 189
11350 11365 58
11351 11352 99
11351 11362 135
11351 11388 53
11352 11351 99
11352 11355 23
11352 11395 64
11353 11335 211
11353 11318 55
11353 11437 125
11354 11333 35
11354 11334 285
11354 11389 52
11355 11352 23
11355 11374 25
11356 11317 61
11356 11349 64
11356 11361 44
11356 11363 9
11357 11358 16
11358 11357 16
11358 11366 13
11358 11360 35
11359 11360 13
11360 11359 13
11360 11373 14
11360 11358 35
11361 11326 58
11361 11356 44
11361 11369 9
11361 11371 78
11362 11351 135
11362 11363 23
11362 11446 179
11363 11356 9
11363 11362 23
11363 11369 43
11364 11329 57
11364 11339 197
11364 11530 432
11365 11350 58
11365 11246 202
11365 11407 64
11366 11358 13
11367 11368 64
11367 11287 123
11367 11375 10
11367 11396 141
11368 11367 64
11368 11348 28
11369 11361 9
11369 11363 43
11369 11376 78
11369 11424 87
11370 11341 122
11370 11372 1
11370 11440 104
11371 11334 54
11371 11361 78
11371 11376 8
11371 11389 285
11372 11370 1
11372 11266 153
11372 11382 98
11373 11360 14
11374 11375 70
11374 11355 25
11375 11374 70
11375 11367 10
11375 11413 171
11375 11492 176
11376 11371 8
11376 11369 78
11376 11379 24
11377 11195 268
11377 11465 126
11377 11609 475
11378 11325 81
11378 11381 162
11378 11394 29
11379 11376 24
11379 11387 121
11379 11429 81
11380 11323 86
11380 11381 104
11380 11432 78
11381 11380 104
11381 11378 162
11381 11433 80
11382 11372 98
11382 11278 157
11382 11391 91
11383 11268 182
11383 11384 117
11383 11421 106
11384 11383 117
11384 11385 50
11384 11563 304
11385 11384 50
11385 11400 387
11385 11532 230
11386 11297 131
11386 11401 45
11386 11406 28
11387 11379 121
11387 11402 200
11387 11443 78
11388 11351 53
11388 11392 55
11388 11446 81
11389 11354 52
11389 11371 285
11389 11399 140
11390 11344 320
11390 11208 294
11390 11393 57
11391 11382 91
11391 11288 159
11391 11401 75
11392 11388 55
11392 11395 28
11392 11499 166
11393 11390 57
11393 11335 90
11393 11418 146
11394 11378 29
11394 11398 33
11394 11439 62
11395 11392 28
11395 11352 64
11395 11514 187
11396 11367 141
11396 11296 150
11396 11422 106
11397 11341 83
11397 11417 25
11397 11491 187
11398 11394 33
11398 11119 435
11398 11414 48
11399 11343 80
11399 11389 140
11399 11408 71
11400 11337 337
11400 11385 387
11400 11643 408
11401 11391 75
11401 11386 45
11401 11406 22
11402 11387 200
11402 11410 81
11402 11461 79
11403 11404 289
11404 11403 289
11404 11405 128
11404 11411 61
11405 11404 128
11406 11401 22
11406 11386 28
11406 11419 58
11407 11365 64
11407 11436 133
11407 11441 54
11408 11176 342
11408 11399 71
11408 11414 18
11408 11416 12
11409 11275 203
11409 11305 171
11409 11476 94
11410 11402 81
11410 11416 70
11410 11534 202
11411 11412 291
11411 11404 61
11411 11415 55
11412 11411 291
11413 11375 171
11413 11426 76
11413 11505 141
11414 11398 48
11414 11178 348
11414 11408 18
11414 11416 18
11414 11587 273
11415 11322 139
11415 11411 55
11415 11328 295
11415 11476 370
11416 11414 18
11416 11408 12
11416 11410 70
11416 11584 267
11417 11397 25
11417 11447 47
11417 11485 115
11418 11393 146
11418 11425 44
11418 11494 122
11419 11406 58
11419 11309 171
11419 11427 66
11419 11449 56
11420 11347 98
11420 11423 132
11420 11553 221
11421 11336 291
11421 11383 106
11421 11538 228
11422 11396 106
11422 11346 106
11422 11436 61
11423 11420 132
11423 11482 168
11423 11503 120
11424 11369 87
11424 11474 66
11424 11489 183
11425 11418 44
11425 11437 31
11426 11413 76
11426 11438 48
11426 11509 131
11427 11419 66
11427 11327 188
11427 11542 272
11428 11074 574
11428 11444 134
11428 11454 34
11429 11379 81
11429 11443 120
11429 11462 41
11430 11431 9
11430 11526 205
11431 11430 9
11431 11251 292
11431 11450 160
11432 11380 78
11432 11433 102
11432 11483 72
11433 11432 102
11433 11381 80
11433 11439 163
11434 11435 115
11434 11307 186
11434 11540 179
11435 11434 115
11436 11422 61
11436 11407 133
11436 11448 43
11437 11425 31
11437 11353 125
11437 11445 96
11438 11426 48
11438 11452 51
11438 11508 124
11439 11433 163
11439 11394 62
11439 11484 65
11440 11370 104
11440 11464 146
11440 11504 99
11441 11407 54
11441 11448 53
11441 11460 30
11442 11331 177
11442 11457 193
11442 11547 194
11443 11387 78
11443 11429 120
11443 11451 102
11443 11535 178
11444 11428 134
11445 11271 261
11445 11437 96
11445 11473 37
11446 11362 179
11446 11388 81
11446 11488 69
11447 11417 47
11447 11463 31
11447 11475 40
11448 11436 43
11448 11441 53
11448 11460 33
11449 11419 56
11449 11464 186
11449 11477 61
11450 11431 160
11450 11324 188
11450 11453 59
11451 11443 102
11451 11461 99
11451 11519 117
11452 11438 51
11452 11466 32
11452 11481 45
11453 11450 59
11453 11281 261
11453 11454 9
11453 11686 358
11454 11453 9
11454 11428 34
11454 11467 15
11455 11456 125
11456 11455 125
11457 11442 193
11457 11336 195
11458 11459 226
11459 11458 226
11459 11480 124
11459 11495 59
11460 11448 33
11460 11441 30
11460 11463 11
11460 11466 13
11461 11402 79
11461 11451 99
11461 11531 123
11462 11429 41
11463 11460 11
11463 11447 31
11463 11472 12
11463 11475 29
11464 11440 146
11464 11449 186
11464 11525 111
11465 11377 126
11465 11493 93
11466 11452 32
11466 11460 13
11466 11472 12
11466 11481 30
11467 11454 15
11467 11468 93
11467 11522 97
11468 11467 93
11468 11469 5
11468 11469 5
11468 11527 109
11469 11468 5
11469 11468 5
11469 11501 243
11470 11471 23
11471 11470 23
11472 11466 12
11472 11463 12
11472 11479 33
11472 11486 32
11473 11445 37
11474 11424 66
11474 11510 82
11474 11529 178
11475 11463 29
11475 11447 40
11475 11479 9
11475 11485 53
11476 11409 94
11476 11415 370
11476 12014 972
11477 11449 61
11478 11238 829
11478 11513 229
11478 11578 200
11479 11472 33
11479 11475 9
11479 11487 43
11479 11486 57
11480 11459 124
11481 11452 45
11481 11466 30
11481 11486 15
11481 11508 54
11482 11423 168
11482 11503 180
11482 11516 329
11483 11432 72
11483 11484 260
11484 11483 260
11484 11439 65
11484 11564 158
11485 11475 53
11485 11417 115
11485 11491 39
11486 11481 15
11486 11472 32
11486 11479 57
11486 11512 52
11487 11479 43
11487 11496 42
11487 11512 133
11488 11446 69
11488 11489 5
11488 11499 50
11489 11424 183
11489 11488 5
11489 11511 44
11490 10992 2001
11491 11485 39
11491 11397 187
11491 11504 65
11492 11375 176
11492 11505 164
11492 11552 109
11493 11465 93
11493 11524 113
11493 11598 186
11494 11418 122
11494 11497 32
11494 11506 251
11495 11459 59
11495 11520 46
11495 11536 170
11496 11487 42
11496 11533 210
11496 11557 114
11497 11498 34
11497 11494 32
11497 11516 108
11498 11497 34
11499 11488 50
11499 11392 166
11499 11514 57
11500 11041 778
11500 11515 815
11500 12024 931
11501 11469 243
11501 11502 126
11501 11507 283
11502 11501 126
11503 11423 120
11503 11482 180
11503 11548 87
11504 11491 65
11504 11440 99
11504 11525 136
11505 11492 164
11505 11413 141
11505 11509 103
11505 11567 107
11506 11494 251
11506 11212 560
11506 11569 114
11507 11501 283
11508 11438 124
11508 11481 54
11508 11512 12
11508 11592 135
11509 11505 103
11509 11426 131
11509 11523 65
11510 11474 82
11510 11535 74
11510 11573 190
11511 11489 44
11511 11529 34
11511 11545 123
11512 11508 12
11512 11486 52
11512 11487 133
11512 11537 54
11513 11478 229
11513 11329 560
11513 11521 38
11513 11579 121
11514 11499 57
11514 11395 187
11514 11622 186
11515 11500 815
11515 15250 140
11516 11482 329
11516 11497 108
11516 11602 116
11517 11028 818
11517 11651 210
11517 11738 1094
11518 11304 346
11518 11544 237
11518 11615 136
11519 11451 117
11519 11531 100
11519 11572 89
11520 11495 46
11520 11528 15
11520 11556 139
11521 11513 38
11521 11530 74
11521 11914 678
11522 11467 97
11522 11527 85
11522 11610 126
11523 11509 65
11524 11493 113
11524 11570 135
11524 11612 146
11525 11504 136
11525 11464 111
11525 11533 9
11525 11542 111
11526 11430 205
11526 11571 231
11526 11596 126
11527 11522 85
11527 11468 109
11527 11642 307
11528 11520 15
11529 11474 178
11529 11511 34
11529 11573 82
11530 11521 74
11530 11364 432
11530 11556 134
11531 11461 123
11531 11519 100
11531 11534 82
11532 11385 230
11533 11496 210
11533 11525 9
11533 11541 86
11533 11591 88
11534 11410 202
11534 11531 82
11534 11595 80
11535 11443 178
11535 11510 74
11535 11559 81
11535 11582 76
11536 11495 170
11536 11546 106
11536 11551 25
11537 11512 54
11537 11543 36
11537 11660 175
11538 11421 228
11538 11539 69
11538 11550 95
11539 11538 69
11539 11600 260
11539 11894 539
11540 11434 179
11540 11549 65
11540 11570 42
11541 11533 86
11541 11601 171
11541 12214 1213
11542 11525 111
11542 11427 272
11542 11594 151
11543 11537 36
11543 11557 104
11543 11666 165
11544 11518 237
11544 11575 272
11544 11649 139
11545 11511 123
11546 11536 106
11546 11562 152
11546 11551 117
11547 11442 194
11547 11566 22
11547 11600 194
11548 11503 87
11548 11555 80
11548 11640 153
11549 11540 65
11549 11310 373
11549 11558 47
11550 11538 95
11551 11536 25
11551 11554 19
11551 11546 117
11552 11492 109
11552 11560 54
11552 11718 230
11553 11420 221
11553 11555 54
11553 11632 108
11554 11551 19
11554 11565 56
11554 11777 380
11555 11553 54
11555 11548 80
11555 11618 80
11556 11530 134
11556 11520 139
11556 11565 143
11557 11543 104
11557 11496 114
11557 11568 86
11558 11549 47
11559 11535 81
11559 11572 83
11559 11617 76
11560 11552 54
11560 11561 48
11560 11561 330
11561 11560 48
11561 11567 60
11561 11560 330
11562 11546 152
11562 11330 389
11562 11566 10
11562 11777 319
11563 11384 304
11564 11484 158
11565 11554 56
11565 11556 143
11565 11773 352
11566 11562 10
11566 11547 22
11566 11659 138
11567 11561 60
11567 11505 107
11567 11592 141
11567 11723 216
11568 11557 86
11568 11591 128
11568 11674 148
11569 11506 114
11569 11578 82
11569 11630 100
11570 11524 135
11570 11540 42
11570 11589 32
11571 11526 231
11572 11519 89
11572 11559 83
11572 11586 116
11573 11510 190
11573 11529 82
11573 11574 0
11574 11573 0
11574 11620 100
11574 11693 203
11575 11337 373
11575 11544 272
11575 11590 14
11576 11577 76
11576 11577 205
11576 11644 103
11577 11576 76
11577 11576 205
11577 11625 190
11578 11569 82
11578 11478 200
11578 11663 279
11579 11513 121
11580 11581 78
11581 11580 78
11581 11603 89
11581 11613 35
11582 11535 76
11582 11583 69
11582 11636 77
11583 11582 69
11584 11416 267
11584 11585 7
11584 11587 14
11584 11605 17
11585 11584 7
11586 11572 116
11586 11595 68
11586 11638 71
11587 11414 273
11587 11584 14
11587 11588 8
11587 11757 237
11588 11587 8
11589 11570 32
11589 11641 128
11589 11667 139
11590 11575 14
11590 11603 10
11590 11633 236
11591 11568 128
11591 11533 88
11592 11567 141
11592 11508 135
11592 11593 0
11592 11742 228
11593 11592 0
11594 11542 151
11594 11596 2
11594 11601 11
11595 11534 80
11595 11586 68
11595 11605 70
11595 11704 164
11596 11594 2
11596 11526 126
11596 11597 2
11597 11596 2
11597 11608 15
11597 11686 391
11598 11599 91
11598 11493 186
11598 11611 25
11599 11598 91
11600 11539 260
11600 11547 194
11600 11751 225
11601 11541 171
11601 11594 11
11601 11606 6
11602 11516 116
11603 11590 10
11603 11581 89
11603 11604 7
11603 11627 45
11604 11603 7
11605 11584 17
11605 11595 70
11605 11755 220
11606 11601 6
11606 11607 2
11607 11606 2
11607 11608 4
11607 11678 143
11608 11597 15
11608 11607 4
11608 11628 94
11609 11377 475
11609 11621 261
11609 13262 3777
11610 11522 126
11610 11616 10
11610 11642 236
11611 11598 25
11611 11621 22
11611 11652 117
11612 11524 146
11612 11631 40
11612 11635 72
11613 11581 35
11613 11614 93
11613 11627 103
11614 11613 93
11615 11518 136
11615 11658 204
11615 11970 664
11616 11610 10
11616 11626 119
11616 11688 110
11617 11559 76
11617 11629 79
11617 11715 156
11618 11555 80
11618 11619 56
11618 11632 57
11618 11681 153
11619 11618 56
11620 11574 100
11620 11810 361
11621 11609 261
11621 11611 22
11621 11634 26
11622 11514 186
11623 11624 138
11623 11639 115
11623 11653 43
11624 11623 138
11625 11577 190
11625 11768 202
11626 11616 119
11626 11650 116
11626 11665 54
11627 11603 45
11627 11613 103
11627 11656 40
11628 11608 94
11628 11675 211
11628 11724 137
11629 11617 79
11629 11638 139
11629 11682 78
11630 11569 100
11630 11663 203
11630 11893 419
11631 11612 40
11631 11652 29
11631 11661 70
11632 11553 108
11632 11618 57
11632 11713 184
11633 11590 236
11633 11643 34
11633 11708 122
11634 11621 26
11634 11646 18
11634 11676 116
11635 11612 72
11635 11661 39
11635 11667 90
11636 11582 77
11636 11637 114
11636 11693 83
11637 11636 114
11638 11586 71
11638 11629 139
11638 11700 88
11639 11623 115
11640 11548 153
11640 11681 73
11640 11788 250
11641 11589 128
11641 11313 493
11641 11648 16
11642 11610 236
11642 11527 307
11642 11650 10
11643 11400 408
11643 11633 34
11643 11654 42
11644 11576 103
11644 11645 196
11644 11726 177
11645 11644 196
11646 11647 63
11646 11634 18
11646 11662 27
11647 11646 63
11648 11641 16
11648 11737 213
11649 11544 139
11649 11653 43
11649 11658 100
11650 11626 116
11650 11642 10
11650 11680 52
11650 11690 131
11651 11517 210
11651 11820 340
11651 11852 593
11652 11611 117
11652 11631 29
11652 11655 9
11653 11623 43
11653 11649 43
11653 11664 86
11653 11684 45
11654 11643 42
11654 11733 122
11654 11744 160
11655 11652 9
11655 11672 37
11655 11683 69
11656 11627 40
11656 11657 112
11656 11673 29
11657 11656 112
11658 11649 100
11658 11615 204
11658 11746 290
11659 11566 138
11659 11751 312
11659 11778 180
11660 11537 175
11660 11666 84
11660 11745 132
11661 11631 70
11661 11635 39
11661 11683 39
11661 11694 88
11662 11646 27
11662 11668 19
11662 11705 117
11663 11630 203
11663 11578 279
11663 11679 61
11663 11702 66
11664 11653 86
11664 11687 164
11664 11837 267
11665 11626 54
11665 11680 110
11665 11701 54
11666 11660 84
11666 11543 165
11666 11826 235
11667 11635 90
11667 11589 139
11667 11694 39
11667 11736 166
11668 11669 67
11668 11662 19
11668 11689 27
11669 11668 67
11670 11671 131
11671 11670 131
11672 11655 37
11672 11676 4
11672 11703 71
11673 11656 29
11673 11687 15
11673 11696 90
11674 11568 148
11674 11677 102
11674 11776 132
11675 11628 211
11675 11692 63
11675 11765 117
11676 11634 116
11676 11672 4
11676 11699 33
11677 11674 102
11678 11607 143
11678 11724 156
11678 11798 170
11679 11663 61
11680 11665 110
11680 11650 52
11680 11714 51
11681 11618 153
11681 11640 73
11681 11713 55
11682 11629 78
11682 11700 148
11682 11734 76
11683 11655 69
11683 11661 39
11683 11703 37
11683 11717 88
11684 11685 79
11684 11653 45
11684 11706 37
11685 11684 79
11686 11597 391
11686 11453 358
11686 11688 13
11686 11695 11
11687 11673 15
11687 11664 164
11687 11752 274
11688 11686 13
11688 11616 110
11688 11698 11
11688 11701 117
11689 11668 27
11689 11710 46
11689 11716 75
11690 11650 131
11690 11691 338
11691 11690 338
11692 11675 63
11692 11695 23
11692 11875 282
11693 11636 83
11693 11574 203
11693 11715 89
11693 11759 99
11694 11661 88
11694 11667 39
11694 11709 34
11694 11762 167
11695 11692 23
11695 11686 11
11695 11698 12
11695 11876 283
11696 11697 87
11696 11673 90
11696 11708 74
11697 11696 87
11698 11695 12
11698 11688 11
11698 11721 222
11698 11749 75
11699 11676 33
11699 11705 15
11699 11727 70
11700 11638 88
11700 11682 148
11700 11704 72
11701 11688 117
11701 11665 54
11701 11714 106
11702 11663 66
11702 11918 418
11703 11672 71
11703 11683 37
11703 11727 37
11703 11739 88
11704 11595 164
11704 11700 72
11704 11763 73
11705 11662 117
11705 11699 15
11705 11719 21
11706 11707 85
11706 11684 37
11706 11728 25
11707 11706 85
11708 11633 122
11708 11696 74
11708 11733 78
11709 11694 34
11709 11717 7
11709 11785 168
11710 11689 46
11710 11743 75
11710 11747 52
11711 11712 304
11712 11711 304
11712 11797 116
11712 11799 116
11713 11632 184
11713 11681 55
11713 11730 39
11714 11701 106
11714 11680 51
11714 11721 8
11715 11617 156
11715 11693 89
11715 11734 79
11716 11689 75
11716 11732 42
11716 11743 45
11717 11683 88
11717 11709 7
11717 11735 30
11718 11552 230
11718 11720 107
11718 11804 136
11719 11705 21
11719 11732 22
11719 11748 70
11720 11718 107
11720 11723 58
11720 11806 112
11721 11698 222
11721 11714 8
11721 11722 14
11721 11789 93
11722 11721 14
11722 11725 24
11723 11720 58
11723 11567 216
11723 11742 87
11724 11678 156
11724 11628 137
11724 11731 55
11725 11722 24
11726 11644 177
11726 11768 102
11727 11699 70
11727 11703 37
11727 11748 35
11727 11767 88
11728 11729 88
11728 11706 25
11728 11746 24
11729 11728 88
11730 11713 39
11730 11737 19
11730 11750 50
11731 11724 55
11731 11765 159
11731 11832 155
11732 11716 42
11732 11719 22
11732 11741 15
11733 11654 122
11733 11708 78
11733 11744 38
11734 11682 76
11734 11715 79
11734 11763 239
11735 11717 30
11735 11739 7
11735 11808 168
11736 11667 166
11736 11740 10
11737 11648 213
11737 11730 19
11737 11760 37
11738 11517 1094
11739 11703 88
11739 11735 7
11739 11761 29
11740 11736 10
11740 11762 27
11740 11809 143
11741 11732 15
11741 11772 38
11741 11775 69
11742 11723 87
11742 11592 228
11742 11745 7
11742 11848 180
11743 11710 75
11743 11716 45
11743 11780 52
11744 11654 160
11744 11733 38
11744 11752 12
11745 11742 7
11745 11660 132
11745 11816 99
11746 11728 24
11746 11753 11
11746 11658 290
11747 11710 52
11747 11780 74
11748 11719 70
11748 11727 35
11748 11775 38
11748 11786 88
11749 11698 75
11749 11789 211
11749 11868 189
11750 11730 50
11750 11764 17
11750 11788 77
11751 11659 312
11751 11600 225
11751 11770 47
11752 11744 12
11752 11687 274
11752 11828 273
11753 11754 89
11753 11746 11
11753 11782 36
11754 11753 89
11755 11605 220
11755 11756 7
11755 11757 16
11755 11769 14
11756 11755 7
11757 11587 237
11757 11755 16
11757 11758 7
11757 11771 14
11758 11757 7
11759 11693 99
11759 11766 77
11759 11796 59
11760 11737 37
11760 11764 23
11761 11739 29
11761 11767 7
11761 11823 169
11762 11694 167
11762 11740 27
11762 11785 38
11763 11704 73
11763 11734 239
11763 11769 68
11764 11750 17
11764 11760 23
11764 11784 49
11765 11731 159
11765 11675 117
11765 11859 160
11766 11759 77
11767 11727 88
11767 11761 7
11767 11781 28
11768 11726 102
11768 11625 202
11768 11853 163
11768 11893 357
11769 11755 14
11769 11763 68
11769 11771 15
11769 12009 452
11770 11751 47
11770 11774 117
11770 11842 140
11771 11757 14
11771 11769 15
11771 11951 364
11772 11741 38
11772 11790 35
11772 11792 68
11773 11565 352
11773 11795 160
11773 11971 525
11774 11770 117
11775 11741 69
11775 11748 38
11775 11792 37
11775 11813 88
11776 11674 132
11776 11779 111
11776 11856 137
11777 11554 380
11777 11562 319
11777 11791 19
11777 11948 372
11778 11659 180
11778 11791 19
11778 11811 161
11779 11776 111
11780 11747 74
11780 11743 52
11780 11793 44
11781 11767 28
11781 11786 7
11781 11835 169
11782 11783 74
11782 11753 36
11782 11787 116
11783 11782 74
11784 11764 49
11784 11870 247
11784 11919 326
11785 11709 168
11785 11762 38
11785 11808 37
11786 11748 88
11786 11781 7
11786 11794 17
11787 11782 116
11788 11750 77
11788 11640 250
11788 11853 204
11789 11749 211
11789 11721 93
11789 11849 601
11790 11772 35
11790 11793 8
11790 11817 67
11791 11777 19
11791 11778 19
11791 11839 102
11792 11772 68
11792 11775 37
11792 11817 36
11792 11824 87
11793 11780 44
11793 11790 8
11793 11814 28
11794 11786 17
11794 11813 21
11794 11825 94
11795 11773 160
11796 11759 59
11796 11803 90
11796 11810 12
11797 11712 116
11797 11799 13
11797 11800 48
11797 11863 113
11798 11678 170
11798 11815 87
11798 11907 218
11799 11797 13
11799 11712 116
11799 11804 89
11799 11864 114
11800 11797 48
11801 11802 646
11802 11801 646
11803 11796 90
11804 11799 89
11804 11718 136
11804 11807 19
11804 11865 133
11805 11806 139
11805 11807 17
11805 11818 25
11806 11805 139
11806 11720 112
11806 11838 73
11807 11804 19
11807 11805 17
11807 11818 17
11808 11735 168
11808 11785 37
11808 11823 39
11809 11740 143
11809 11829 75
11809 11891 187
11810 11796 12
11810 11620 361
11810 11858 99
11811 11778 161
11811 11812 145
11811 11833 72
11812 11811 145
11813 11775 88
11813 11794 21
11813 11819 21
11814 11793 28
11814 11827 68
11814 11844 92
11815 11798 87
11815 11832 126
11815 11851 80
11816 11745 99
11816 11826 130
11816 11847 77
11817 11790 67
11817 11792 36
11817 11827 37
11817 11836 87
11818 11807 17
11818 11805 25
11818 11866 129
11818 11869 96
11819 11813 21
11819 11824 15
11819 11840 95
11820 11651 340
11820 11821 89
11820 11846 344
11821 11820 89
11821 11822 93
11821 11892 209
11822 11821 93
11823 11761 169
11823 11808 39
11823 11835 33
11824 11792 87
11824 11819 15
11824 11831 23
11825 11794 94
11825 11840 42
11825 11841 76
11826 11816 130
11826 11666 235
11826 11845 141
11826 11968 306
11827 11814 68
11827 11817 37
11827 11843 42
11827 11855 88
11828 11752 273
11828 11943 417
11828 12008 401
11829 11809 75
11829 11830 126
11829 11898 179
11830 11829 126
11831 11824 23
11831 11836 13
11831 11860 96
11832 11815 126
11832 11731 155
11832 11834 16
11833 11811 72
11833 11842 118
11833 11878 149
11834 11832 16
11834 11859 141
11834 11880 74
11835 11781 169
11835 11823 33
11835 11841 22
11836 11817 87
11836 11831 13
11836 11855 38
11837 11664 267
11837 11888 486
11837 12096 556
11838 11806 73
11838 11848 89
11838 11871 43
11839 11791 102
11839 11878 192
11839 11897 116
11840 11819 95
11840 11825 42
11840 11860 36
11841 11825 76
11841 11835 22
11841 11872 45
11841 11891 142
11842 11833 118
11842 11770 140
11842 11894 258
11843 11827 42
11844 11814 92
11845 11826 141
11845 11854 54
11845 11882 92
11846 11820 344
11847 11816 77
11847 11848 8
11847 11952 240
11848 11742 180
11848 11847 8
11848 11838 89
11848 11902 122
11849 11850 450
11849 11789 601
11849 11862 16
11850 11849 450
11851 11815 80
11851 11877 39
11851 11880 141
11851 11881 141
11852 11651 593
11853 11788 204
11853 11768 163
11853 11861 18
11854 11845 54
11854 11856 41
11854 11920 143
11855 11827 88
11855 11836 38
11855 11887 54
11856 11854 41
11856 11776 137
11856 11857 111
11857 11856 111
11858 11810 99
11858 11867 63
11859 11834 141
11859 11765 160
11859 11875 75
11859 11895 76
11860 11831 96
11860 11840 36
11860 11884 37
11861 11853 18
11861 11870 11
11861 11983 419
11862 11849 16
11862 11908 214
11862 11949 223
11863 11797 113
11863 11864 25
11863 11867 56
11864 11863 25
11864 11799 114
11864 11865 6
11864 11874 9
11865 11864 6
11865 11804 133
11865 11866 3
11865 11874 10
11866 11865 3
11866 11818 129
11866 11869 87
11866 11874 12
11867 11858 63
11867 11863 56
11867 11917 117
11868 11749 189
11868 11879 19
11868 11886 99
11869 11866 87
11869 11818 96
11869 11871 155
11870 11784 247
11870 11861 11
11870 11873 7
11871 11869 155
11871 11838 43
11872 11841 45
11872 11889 38
11872 11899 141
11873 11870 7
11873 11913 127
11873 11953 336
11874 11864 9
11874 11865 10
11874 11866 12
11875 11859 75
11875 11692 282
11875 11876 17
11875 11979 224
11876 11875 17
11876 11695 283
11876 11879 16
11876 12354 1039
11877 11851 39
11878 11833 149
11878 11839 192
11878 11994 442
11879 11876 16
11879 11868 19
11879 11924 116
11880 11851 141
11880 11834 74
11880 11881 1
11880 11895 146
11881 11851 141
11881 11880 1
11881 11895 146
11881 11895 146
11881 11901 70
11882 11883 22
11882 11845 92
11882 11963 200
11883 11882 22
11883 11962 208
11884 11885 36
11884 11860 37
11884 11896 78
11885 11884 36
11886 11868 99
11886 11890 55
11886 11923 150
11887 11855 54
11887 11903 107
11887 11973 263
11888 11837 486
11889 11872 38
11889 11896 36
11889 11915 141
11890 11886 55
11890 11923 89
11891 11841 142
11891 11809 187
11891 11898 66
11891 11899 46
11892 11821 209
11893 11768 357
11893 11630 419
11893 11918 93
11894 11539 539
11894 11842 258
11894 11900 128
11894 11946 131
11895 11881 146
11895 11881 146
11895 11880 146
11895 11859 76
11895 11926 75
11896 11884 78
11896 11889 36
11896 11905 36
11896 11928 140
11897 11839 116
11897 11906 149
11897 11954 145
11898 11891 66
11898 11829 179
11898 11919 77
11898 11990 199
11899 11872 141
11899 11891 46
11899 11915 37
11900 11894 128
11901 11881 70
11901 11910 41
11901 11933 76
11902 11848 122
11903 11887 107
11903 11922 66
11903 11975 162
11904 11905 33
11905 11904 33
11905 11896 36
11905 11922 39
11905 11939 139
11906 11897 149
11906 11929 64
11907 11798 218
11907 11927 40
11907 11933 204
11908 11862 214
11908 11909 80
11908 11912 24
11909 11908 80
11910 11901 41
11910 11911 66
11910 11926 103
11911 11910 66
11912 11908 24
11913 11873 127
11913 11930 67
11913 12000 217
11914 11521 678
11915 11889 141
11915 11899 37
11915 11928 37
11916 11917 119
11917 11916 119
11917 11867 117
11917 11934 55
11918 11893 93
11918 11702 418
11918 11925 19
11919 11898 77
11919 11784 326
11919 11985 186
11919 12017 198
11920 11854 143
11920 11921 140
11920 11965 95
11921 11920 140
11922 11903 66
11922 11905 39
11922 11956 138
11922 12055 330
11923 11886 150
11923 11890 89
11923 11945 54
11924 11879 116
11924 11936 121
11924 11947 56
11925 11918 19
11925 11983 130
11925 11998 231
11926 11910 103
11926 11895 75
11926 11957 75
11927 11907 40
11927 11938 32
11928 11896 140
11928 11915 37
11928 11939 36
11929 11906 64
11929 11997 125
11929 12013 251
11930 11913 67
11930 11950 59
11930 11978 128
11931 11932 198
11931 11940 86
11931 11948 33
11932 11931 198
11933 11907 204
11933 11901 76
11933 11957 145
11934 11917 55
11934 11935 79
11934 11977 59
11935 11934 79
11935 11937 57
11935 12056 222
11936 11924 121
11936 11945 43
11936 11969 56
11937 11935 57
11937 11944 143
11937 12056 236
11938 11927 32
11938 11986 76
11938 12002 333
11939 11905 139
11939 11928 36
11939 11956 38
11940 11941 84
11940 11931 86
11940 12003 114
11941 11940 84
11942 11943 69
11942 12012 247
11942 12038 482
11943 11942 69
11943 11828 417
11943 11980 83
11944 11937 143
11944 11952 68
11944 12070 292
11945 11936 43
11945 11923 54
11945 11996 86
11946 11894 131
11947 11924 56
11947 11955 61
11947 12031 136
11948 11931 33
11948 11777 372
11948 11954 14
11948 12086 302
11949 11862 223
11949 11958 29
11949 12030 199
11950 11930 59
11950 11981 54
11950 11999 128
11951 11771 364
11951 11995 71
11951 12011 88
11952 11944 68
11952 11847 240
11952 11967 110
11952 12053 192
11953 11873 336
11953 12021 130
11953 12059 344
11954 11948 14
11954 11897 145
11954 11959 13
11955 11947 61
11955 11969 57
11955 11984 37
11956 11922 138
11956 11939 38
11956 12018 114
11957 11933 145
11957 11926 75
11957 11979 74
11957 12002 68
11958 11949 29
11958 12109 298
11958 12128 596
11959 11954 13
11959 11997 226
11959 12090 282
11960 11961 283
11960 11971 60
11960 11982 30
11961 11960 283
11962 11883 208
11962 11963 35
11962 11964 21
11963 11962 35
11963 11882 200
11963 11965 100
11964 11962 21
11964 11968 100
11964 12061 190
11965 11963 100
11965 11920 95
11965 11966 122
11965 12027 93
11966 11965 122
11967 11952 110
11967 11968 46
11967 12060 187
11968 11826 306
11968 11964 100
11968 11967 46
11969 11955 57
11969 11936 56
11969 11991 37
11970 11615 664
11970 12034 161
11970 12096 772
11971 11773 525
11971 11972 86
11971 11960 60
11972 11971 86
11973 11974 182
11973 11887 263
11973 11987 31
11974 11973 182
11975 11903 162
11976 11977 125
11977 11976 125
11977 11934 59
11977 12041 111
11978 11930 128
11978 11999 61
11978 12021 136
11979 11957 74
11979 11875 224
11979 12108 283
11980 11943 83
11980 12039 157
11980 12236 569
11981 11950 54
11981 12001 51
11981 12029 132
11982 11960 30
11982 11992 38
11982 12003 276
11983 11861 419
11983 11925 130
11983 12050 226
11984 11955 37
11984 11991 57
11984 12042 102
11985 11919 186
11985 12000 46
11985 12004 96
11986 11938 76
11986 12033 75
11986 12044 323
11987 11973 31
11987 12055 246
11987 12068 205
11988 11989 150
11988 12019 48
11989 11988 150
11989 12007 69
11989 12046 114
11990 11898 199
11990 12017 64
11990 12093 254
11991 11984 57
11991 11969 37
11991 11996 51
11992 11993 277
11992 11982 38
11992 12047 163
11992 12086 367
11993 11992 277
11994 11878 442
11995 11951 71
11995 12015 28
11995 12019 203
11996 11991 51
11996 11945 86
11997 11959 226
11997 11929 125
11997 12087 211
11998 11925 231
11998 12022 46
11999 11950 128
11999 11978 61
11999 12029 54
12000 11985 46
12000 11913 217
12000 12020 53
12001 11981 51
12001 12026 51
12001 12045 134
12002 11938 333
12002 11957 68
12002 12044 74
12003 11982 276
12003 11940 114
12003 12035 51
12004 11985 96
12005 12006 326
12005 12578 133
12006 12005 326
12007 11989 69
12007 12043 129
12008 11828 401
12009 11769 452
12009 12010 16
12009 12011 14
12009 12085 184
12010 12009 16
12011 11951 88
12011 12009 14
12011 12015 15
12011 12023 25
12012 11942 247
12013 11929 251
12013 12038 119
12014 11476 972
12014 12034 60
12014 12043 76
12015 11995 28
12015 12011 15
12015 12016 4
12015 12023 28
12016 12015 4
12017 11990 64
12017 11919 198
12017 12058 173
12018 11956 114
12019 11988 48
12019 11995 203
12019 12032 22
12020 12000 53
12020 12026 11
12020 12156 350
12021 11978 136
12021 11953 130
12021 12112 351
12022 11998 46
12022 12048 115
12022 12050 83
12023 12015 28
12023 12011 25
12023 12145 252
12024 11500 931
12024 12025 225
12024 12170 304
12025 12024 225
12026 12020 11
12026 12001 51
12026 12051 99
12027 11965 93
12027 12028 103
12027 12036 18
12028 12027 103
12029 11981 132
12029 11999 54
12029 12045 54
12030 11949 199
12031 11947 136
12031 12042 65
12031 12121 216
12032 12019 22
12032 12046 153
12033 11986 75
12033 12062 314
12033 12084 147
12034 11970 161
12034 12014 60
12034 12415 1068
12035 12003 51
12036 12037 70
12036 12027 18
12036 12064 84
12037 12036 70
12038 12013 119
12038 11942 482
12038 12065 145
12039 11980 157
12039 12063 111
12040 12041 142
12041 12040 142
12041 11977 111
12041 12077 107
12042 12031 65
12042 11984 102
12042 12054 144
12042 12123 204
12043 12014 76
12043 12007 129
12043 12080 131
12044 11986 323
12044 12002 74
12044 12062 62
12045 12001 134
12045 12029 54
12045 12052 26
12046 11989 114
12046 12032 153
12046 12080 128
12047 11992 163
12048 12022 115
12048 12049 39
12048 12072 87
12049 12048 39
12050 11983 226
12050 12022 83
12050 12072 128
12051 12026 99
12051 12057 37
12051 12179 316
12052 12045 26
12052 12057 26
12052 12078 112
12053 11952 192
12053 12060 175
12053 12070 57
12054 12042 144
12055 11987 246
12055 11922 330
12055 12093 192
12056 11935 222
12056 11937 236
12056 12071 53
12057 12051 37
12057 12052 26
12057 12066 35
12058 12017 173
12058 12067 30
12058 12142 179
12059 11953 344
12059 12112 130
12059 12185 561
12060 12053 175
12060 11967 187
12060 12061 150
12060 12118 116
12061 12060 150
12061 11964 190
12061 12064 135
12061 12138 143
12062 12033 314
12062 12044 62
12062 12095 72
12063 12039 111
12063 12129 235
12063 12269 478
12064 12061 135
12064 12036 84
12064 12069 95
12065 12038 145
12065 12081 119
12065 12082 45
12066 12057 35
12066 12083 79
12066 12116 135
12067 12058 30
12068 11987 205
12069 12064 95
12070 11944 292
12070 12053 57
12071 12056 53
12072 12050 128
12072 12048 87
12072 12091 46
12073 12074 25
12074 12073 25
12074 12075 26
12074 12076 42
12075 12074 26
12076 12074 42
12076 12077 77
12076 12107 60
12077 12076 77
12077 12041 107
12077 12097 49
12078 12052 112
12078 12079 42
12078 12083 20
12079 12078 42
12080 12043 131
12080 12046 128
12080 12210 249
12081 12065 119
12081 12087 35
12081 12100 47
12082 12065 45
12082 12100 126
12082 12101 46
12083 12066 79
12083 12078 20
12083 12102 61
12083 12215 278
12084 12033 147
12084 12111 180
12084 12115 64
12085 12009 184
12085 12143 93
12085 12150 216
12086 11992 367
12086 11948 302
12086 12090 12
12086 12147 106
12087 11997 211
12087 12081 35
12087 12098 227
12088 12089 94
12089 12088 94
12089 12117 137
12089 12149 120
12090 12086 12
12090 11959 282
12090 12104 34
12091 12072 46
12091 12092 129
12091 12133 142
12092 12091 129
12093 12055 192
12093 11990 254
12093 12142 218
12093 12384 774
12094 12095 318
12095 12094 318
12095 12062 72
12095 12108 64
12095 12140 75
12096 11837 556
12096 11970 772
12096 12181 164
12097 12077 49
12098 12099 166
12098 12103 97
12098 12087 227
12099 12098 166
12100 12081 47
12100 12082 126
12100 12110 12
12101 12082 46
12101 12124 132
12101 12125 47
12102 12083 61
12103 12098 97
12103 12104 48
12103 12203 160
12104 12090 34
12104 12103 48
12104 12180 133
12105 12106 13
12106 12105 13
12106 12119 70
12106 12141 51
12107 12076 60
12108 12095 64
12108 11979 283
12108 12312 438
12109 11958 298
12110 12100 12
12110 12122 105
12110 12124 32
12111 12084 180
12111 12140 150
12111 12155 70
12112 12021 351
12112 12059 130
12112 12218 207
12113 12114 72
12114 12113 72
12114 12136 35
12114 12147 174
12115 12084 64
12115 12154 69
12115 12155 196
12116 12066 135
12117 12089 137
12118 12060 116
12119 12120 89
12119 12106 70
12119 12139 26
12120 12119 89
12120 12127 52
12121 12031 216
12121 12123 56
12121 12212 149
12122 12110 105
12123 12121 56
12123 12042 204
12123 12126 53
12124 12110 32
12124 12101 132
12124 12132 6
12125 12101 47
12125 12129 4
12125 12130 4
12125 12137 10
12126 12123 53
12126 12131 118
12126 12183 96
12127 12120 52
12127 12164 123
12127 12167 55
12128 11958 596
12129 12125 4
12129 12063 235
12129 12130 0
12129 12135 6
12130 12125 4
12130 12129 0
12130 12135 6
12130 12137 10
12131 12126 118
12131 12160 45
12132 12124 6
12132 12157 199
12132 12158 43
12133 12091 142
12133 12134 134
12133 12161 120
12134 12133 134
12135 12130 6
12135 12129 6
12135 12211 142
12136 12114 35
12136 12161 42
12136 12166 170
12137 12125 10
12137 12130 10
12137 12158 135
12138 12061 143
12138 12216 294
12139 12119 26
12139 12141 67
12139 12151 21
12140 12111 150
12140 12095 75
12140 12222 146
12141 12139 67
12141 12106 51
12141 12152 20
12142 12093 218
12142 12058 179
12142 12148 10
12143 12085 93
12143 12144 11
12143 12145 12
12143 12153 19
12144 12143 11
12145 12023 252
12145 12143 12
12145 12146 9
12145 12406 614
12145 15265 614
12146 12145 9
12147 12114 174
12147 12086 106
12147 12166 33
12148 12142 10
12148 12156 69
12148 12266 423
12149 12089 120
12149 12176 82
12149 12195 107
12150 12085 216
12150 12153 46
12150 12205 105
12151 12139 21
12151 12152 67
12151 12162 16
12152 12151 67
12152 12141 20
12152 12163 15
12153 12143 19
12153 12150 46
12153 12242 155
12154 12115 69
12154 12197 222
12154 12198 88
12155 12115 196
12155 12111 70
12155 12197 73
12156 12148 69
12156 12020 350
12156 12179 110
12157 12132 199
12158 12132 43
12158 12137 135
12158 12159 0
12158 12194 307
12159 12158 0
12160 12131 45
12160 12227 158
12161 12133 120
12161 12136 42
12161 12182 165
12162 12151 16
12162 12163 67
12162 12168 7
12163 12162 67
12163 12152 15
12163 12172 17
12164 12165 31
12164 12127 123
12164 12167 68
12165 12164 31
12166 12136 170
12166 12147 33
12166 12175 29
12167 12164 68
12167 12127 55
12167 12168 64
12168 12167 64
12168 12162 7
12168 12169 9
12169 12168 9
12169 12172 67
12169 12173 17
12170 12171 205
12170 12024 304
12170 12176 133
12170 12245 136
12171 12170 205
12172 12169 67
12172 12163 17
12172 12174 16
12173 12169 17
12173 12174 67
12173 12188 22
12174 12173 67
12174 12172 16
12174 12190 23
12175 12166 29
12175 12180 12
12175 12182 14
12176 12149 82
12176 12170 133
12176 12196 80
12177 12178 6
12178 12177 6
12178 12201 140
12178 12237 106
12179 12156 110
12179 12051 316
12179 12199 81
12180 12175 12
12180 12104 133
12180 12184 12
12181 12096 164
12181 12187 47
12181 12270 250
12182 12161 165
12182 12175 14
12182 12185 9
12183 12126 96
12184 12180 12
12184 12186 4
12184 12186 4
12184 12193 14
12185 12059 561
12185 12182 9
12185 12200 20
12186 12184 4
12186 12184 4
12186 12193 10
12186 12193 10
12186 12203 48
12187 12181 47
12187 12191 53
12187 12209 27
12188 12173 22
12188 12189 65
12188 12207 26
12189 12188 65
12189 12190 3
12189 12208 25
12190 12189 3
12190 12174 23
12190 12191 16
12191 12190 16
12191 12192 11
12191 12187 53
12192 12191 11
12193 12184 14
12193 12186 10
12193 12186 10
12193 12204 11
12194 12158 307
12194 12203 123
12194 12259 181
12195 12149 107
12196 12176 80
12197 12154 222
12197 12155 73
12197 12222 155
12197 12239 76
12198 12154 88
12198 12221 53
12198 12239 257
12199 12179 81
12199 12215 78
12199 12220 41
12200 12185 20
12200 12204 11
12200 12255 130
12201 12178 140
12201 12202 63
12201 12232 64
12202 12201 63
12203 12186 48
12203 12103 160
12203 12194 123
12204 12193 11
12204 12200 11
12205 12150 105
12205 12206 77
12205 12233 61
12206 12205 77
12207 12188 26
12207 12208 69
12207 12217 16
12208 12207 69
12208 12189 25
12208 12209 71
12208 12219 17
12209 12208 71
12209 12187 27
12209 12219 87
12210 12080 249
12210 12213 211
12210 12260 139
12211 12135 142
12211 12238 56
12211 12244 131
12212 12121 149
12212 12226 95
12212 12287 203
12213 12210 211
12214 11541 1213
12215 12199 78
12215 12083 278
12215 12241 121
12216 12138 294
12216 12256 220
12216 12324 395
12217 12207 16
12217 12219 69
12217 12223 15
12218 12112 207
12218 12228 107
12218 12290 206
12219 12217 69
12219 12208 17
12219 12209 87
12219 12224 16
12220 12199 41
12220 12247 56
12220 12248 196
12221 12198 53
12221 12235 78
12222 12197 155
12222 12140 146
12222 12251 76
12223 12217 15
12223 12224 69
12223 12229 14
12224 12223 69
12224 12219 16
12224 12225 63
12224 12230 15
12225 12224 63
12226 12212 95
12227 12160 158
12227 12250 69
12228 12218 107
12229 12223 14
12229 12230 69
12229 12240 85
12230 12229 69
12230 12224 15
12230 12231 64
12230 12240 13
12231 12230 64
12232 12201 64
12232 12244 92
12232 12249 53
12233 12205 61
12233 12234 224
12233 12242 76
12234 12233 224
12235 12221 78
12235 12252 48
12235 12257 203
12236 11980 569
12236 12263 253
12236 12276 275
12237 12178 106
12237 12249 165
12237 12322 262
12238 12211 56
12238 12253 52
12238 12254 108
12239 12198 257
12239 12197 76
12239 12251 147
12239 12257 56
12240 12229 85
12240 12230 13
12240 12243 66
12240 12246 11
12241 12215 121
12241 12248 38
12241 12290 363
12242 12153 155
12242 12233 76
12242 12376 379
12242 15268 379
12243 12240 66
12244 12232 92
12244 12211 131
12244 12254 62
12245 12170 136
12245 12267 364
12245 12300 189
12246 12240 11
12247 12220 56
12247 12262 197
12247 12266 91
12248 12220 196
12248 12241 38
12248 12262 54
12249 12237 165
12249 12232 53
12249 12346 260
12250 12227 69
12250 12287 455
12250 12330 566
12251 12239 147
12251 12222 76
12251 12268 53
12252 12235 48
12252 12256 10
12253 12238 52
12253 12264 105
12253 12265 56
12254 12244 62
12254 12238 108
12254 12264 53
12255 12200 130
12255 12259 155
12255 12271 61
12256 12216 220
12256 12252 10
12256 12258 71
12257 12235 203
12257 12239 56
12257 12268 150
12258 12256 71
12258 12289 267
12258 12294 109
12259 12255 155
12259 12194 181
12259 12282 60
12260 12210 139
12260 12261 350
12260 12331 187
12261 12260 350
12261 12285 136
12261 12301 169
12262 12247 197
12262 12248 54
12262 12305 115
12263 12236 253
12264 12254 53
12264 12253 105
12264 12281 55
12265 12253 56
12265 12281 106
12265 12283 58
12266 12148 423
12266 12247 91
12266 12278 39
12267 12245 364
12268 12257 150
12268 12251 53
12268 12289 57
12269 12063 478
12269 12276 26
12269 12283 313
12270 12181 250
12270 12280 39
12270 12292 112
12271 12255 61
12271 12282 157
12271 12295 57
12272 12273 42
12272 12274 57
12272 12275 4
12272 12291 99
12273 12272 42
12274 12272 57
12274 12275 39
12274 12284 44
12275 12272 4
12275 12274 39
12275 12279 17
12276 12269 26
12276 12236 275
12276 12297 45
12277 12278 37
12278 12277 37
12278 12266 39
12278 12293 102
12279 12275 17
12279 12296 35
12279 12299 67
12280 12270 39
12280 12319 127
12280 12363 238
12281 12264 55
12281 12265 106
12281 12302 58
12282 12271 157
12282 12259 60
12282 12310 64
12283 12265 58
12283 12302 109
12283 12269 313
12284 12274 44
12284 12286 34
12284 12286 26
12285 12261 136
12285 12301 106
12285 12343 157
12286 12284 34
12286 12284 26
12286 12288 119
12287 12212 203
12287 12250 455
12287 12353 159
12288 12286 119
12289 12258 267
12289 12268 57
12289 12315 63
12290 12241 363
12290 12218 206
12290 12321 86
12291 12272 99
12292 12270 112
12292 12311 114
12293 12278 102
12293 12305 124
12293 12314 54
12294 12258 109
12294 12298 16
12294 12315 184
12295 12271 57
12295 12310 158
12295 12316 61
12296 12279 35
12297 12276 45
12298 12294 16
12298 12334 180
12298 12349 205
12299 12279 67
12300 12245 189
12300 12399 346
12301 12285 106
12301 12261 169
12301 12369 162
12302 12281 58
12302 12283 109
12302 12370 168
12303 12304 178
12303 12348 101
12304 12303 178
12305 12293 124
12305 12262 115
12305 12317 22
12306 12307 21
12306 12311 4
12306 12339 116
12307 12306 21
12308 12309 90
12308 12314 34
12308 12326 53
12309 12308 90
12310 12295 158
12310 12282 64
12310 12313 16
12311 12306 4
12311 12292 114
12311 12327 97
12312 12108 438
12313 12310 16
12313 12318 72
12313 12329 59
12314 12308 34
12314 12293 54
12314 12323 119
12315 12294 184
12315 12289 63
12315 12342 70
12316 12295 61
12316 12329 173
12316 12335 62
12317 12305 22
12317 12323 35
12317 12336 200
12318 12313 72
12318 12322 77
12318 12374 148
12319 12320 18
12319 12280 127
12319 12352 76
12320 12319 18
12321 12290 86
12321 12332 333
12321 12430 277
12322 12318 77
12322 12237 262
12322 12346 178
12323 12314 119
12323 12317 35
12323 12345 41
12324 12216 395
12324 12328 12
12324 12553 760
12325 12326 94
12326 12325 94
12326 12308 53
12326 12347 151
12326 12351 48
12327 12311 97
12327 12344 68
12327 12352 104
12328 12324 12
12328 12333 73
12328 12340 21
12329 12316 173
12329 12313 59
12329 12367 86
12330 12250 566
12330 12337 101
12330 12418 221
12331 12260 187
12331 12343 177
12331 12379 116
12332 12321 333
12332 12335 345
12332 12545 557
12333 12328 73
12333 12340 66
12333 12359 68
12334 12298 180
12334 12342 14
12334 12485 426
12335 12332 345
12335 12316 62
12335 12360 53
12336 12317 200
12337 12330 101
12338 12339 54
12338 12358 64
12339 12338 54
12339 12306 116
12339 12355 48
12340 12333 66
12340 12328 21
12340 12341 32
12340 12361 50
12341 12340 32
12342 12334 14
12342 12315 70
12342 12354 91
12343 12331 177
12343 12285 157
12343 12385 132
12344 12327 68
12345 12323 41
12345 12347 7
12345 12362 138
12346 12322 178
12346 12249 260
12346 12365 167
12347 12326 151
12347 12345 7
12347 12366 51
12348 12303 101
12348 12356 212
12348 12400 140
12349 12298 205
12349 12371 368
12350 12351 93
12351 12350 93
12351 12326 48
12351 12366 149
12352 12327 104
12352 12319 76
12352 12357 28
12353 12287 159
12353 12388 99
12354 11876 1039
12354 12342 91
12354 12472 293
12355 12339 48
12355 12358 7
12355 12368 295
12356 12348 212
12357 12352 28
12357 12402 253
12358 12338 64
12358 12355 7
12358 12382 198
12359 12333 68
12359 12361 113
12359 12377 62
12360 12335 53
12360 12375 167
12360 12380 58
12361 12359 113
12361 12340 50
12361 12364 48
12361 12378 52
12362 12345 138
12363 12280 238
12363 12372 54
12363 12397 115
12364 12361 48
12365 12346 167
12365 12370 95
12365 12431 178
12366 12351 149
12366 12347 51
12366 12373 22
12367 12329 86
12367 12374 73
12367 12375 29
12368 12355 295
12369 12301 162
12369 12394 68
12369 12395 85
12370 12365 95
12370 12302 168
12371 12349 368
12372 12363 54
12373 12366 22
12373 12387 34
12373 12391 137
12374 12367 73
12374 12318 148
12374 12390 38
12375 12360 167
12375 12367 29
12375 12390 91
12376 12242 379
12376 15268 379
12376 12553 721
12376 12725 1729
12376 15267 1729
12376 15270 1729
12377 12359 62
12377 12378 139
12377 12396 51
12378 12377 139
12378 12361 52
12378 12383 66
12378 12404 53
12379 12331 116
12379 12385 98
12379 12426 116
12380 12360 58
12380 12411 247
12380 12453 177
12381 12382 135
12382 12381 135
12382 12358 198
12382 12392 37
12383 12378 66
12384 12093 774
12384 12414 135
12384 12414 86
12385 12379 98
12385 12343 132
12385 12398 245
12386 12387 149
12387 12386 149
12387 12373 34
12387 12409 55
12388 12353 99
12388 12389 499
12388 12461 162
12389 12388 499
12390 12375 91
12390 12374 38
12390 12411 46
12391 12373 137
12392 12382 37
12392 12393 55
12392 12407 26
12393 12392 55
12394 12369 68
12394 12395 29
12394 12398 23
12395 12394 29
12395 12369 85
12395 12403 22
12396 12377 51
12396 12404 144
12396 12421 56
12397 12363 115
12397 12412 157
12397 12436 97
12398 12385 245
12398 12394 23
12398 12403 77
12399 12300 346
12399 12405 180
12399 12611 589
12400 12401 249
12400 12348 140
12400 12465 154
12401 12400 249
12402 12357 253
12403 12395 22
12403 12406 42
12403 12398 77
12404 12396 144
12404 12378 53
12404 12408 83
12404 12425 54
12405 12399 180
12406 12403 42
12406 12145 614
12406 15265 614
12406 12677 1455
12406 15272 1455
12407 12392 26
12407 12419 52
12408 12404 83
12409 12410 142
12409 12387 55
12409 12422 35
12410 12409 142
12411 12380 247
12411 12390 46
12411 12469 148
12412 12397 157
12412 12413 67
12412 12450 177
12413 12412 67
12414 12384 135
12414 12384 86
12414 12757 919
12415 12416 142
12415 12034 1068
12415 12444 65
12416 12415 142
12417 12418 2
12418 12417 2
12418 12330 221
12418 12428 203
12418 12476 133
12419 12407 52
12419 12420 104
12419 12434 35
12420 12419 104
12421 12396 56
12421 12425 153
12421 12443 87
12422 12409 35
12422 12433 101
12422 12454 77
12423 12424 98
12424 12423 98
12424 12427 1309
12424 12539 327
12425 12421 153
12425 12404 54
12425 12445 53
12425 12449 194
12426 12379 116
12426 12432 349
12426 12467 95
12427 12424 1309
12427 12539 629
12428 12418 203
12428 12429 85
12428 12525 241
12429 12428 85
12430 12321 277
12430 12493 341
12430 12537 298
12431 12365 178
12431 12502 171
12431 12511 275
12432 12426 349
12433 12422 101
12434 12419 35
12434 12435 59
12434 12446 40
12435 12434 59
12436 12397 97
12436 12437 8
12436 12438 62
12437 12436 8
12437 12440 68
12437 12447 36
12438 12439 36
12438 12436 62
12438 12460 57
12439 12438 36
12439 12442 84
12439 12451 40
12440 12437 68
12440 12441 8
12440 12447 69
12441 12440 8
12441 12444 197
12441 12569 394
12442 12439 84
12443 12421 87
12443 12445 219
12443 12463 61
12444 12415 65
12444 12441 197
12444 12568 352
12445 12443 219
12445 12425 53
12445 12449 150
12445 12470 52
12446 12434 40
12446 12450 9
12446 12484 221
12447 12437 36
12447 12440 69
12447 12448 11
12448 12447 11
12449 12445 150
12449 12425 194
12449 12456 79
12449 12475 53
12450 12446 9
12450 12412 177
12450 12478 67
12451 12439 40
12451 12460 24
12451 12473 124
12452 12489 91
12453 12380 177
12453 12469 253
12453 12571 316
12454 12455 185
12454 12422 77
12454 12507 137
12455 12454 185
12456 12449 79
12456 12457 80
12456 12458 57
12457 12456 80
12458 12456 57
12458 12459 55
12459 12458 55
12460 12438 57
12460 12451 24
12460 12466 26
12461 12388 162
12461 12462 8
12461 12509 715
12462 12461 8
12462 12471 182
12462 12670 603
12463 12443 61
12463 12470 256
12463 12482 59
12464 12465 246
12465 12464 246
12465 12400 154
12465 12476 217
12465 12487 53
12466 12460 26
12466 12491 108
12466 12533 168
12467 12426 95
12467 12468 15
12467 12520 141
12468 12467 15
12468 12474 54
12468 12481 70
12469 12411 148
12469 12453 253
12469 12480 83
12470 12463 256
12470 12445 52
12470 12475 150
12470 12492 54
12471 12462 182
12471 12488 153
12472 12354 293
12472 12485 255
12472 12620 452
12473 12451 124
12473 12478 89
12473 12504 88
12474 12468 54
12475 12470 150
12475 12449 53
12475 12479 100
12475 12494 54
12476 12465 217
12476 12418 133
12476 12477 1
12476 12496 53
12477 12476 1
12478 12450 67
12478 12473 89
12478 12504 106
12479 12475 100
12480 12469 83
12480 12502 328
12480 12604 393
12481 12468 70
12482 12463 59
12482 12492 263
12482 12495 32
12483 12484 10
12484 12483 10
12484 12446 221
12484 12530 199
12485 12334 426
12485 12472 255
12485 12543 196
12486 12487 196
12487 12486 196
12487 12465 53
12487 12496 218
12487 12509 55
12488 12471 153
12488 12500 105
12489 12452 91
12489 12490 9
12489 12498 87
12490 12489 9
12490 12501 69
12490 12501 52
12491 12466 108
12491 12504 63
12491 12514 72
12492 12482 263
12492 12470 54
12492 12494 151
12492 12513 55
12493 12430 341
12494 12492 151
12494 12475 54
12494 12499 77
12495 12482 32
12495 12513 276
12496 12487 218
12496 12476 53
12496 12497 3
12496 12516 56
12497 12496 3
12498 12489 87
12498 12505 92
12498 12505 149
12499 12494 77
12499 12517 53
12500 12488 105
12500 12503 101
12500 12554 156
12501 12490 69
12501 12490 52
12501 12526 78
12502 12480 328
12502 12431 171
12502 12511 108
12502 12636 423
12503 12500 101
12503 12506 62
12503 12561 156
12504 12473 88
12504 12491 63
12504 12478 106
12505 12498 92
12505 12498 149
12505 12520 178
12506 12503 62
12506 12510 65
12506 12565 157
12507 12508 331
12507 12454 137
12507 12521 43
12508 12507 331
12509 12461 715
12509 12487 55
12509 12516 219
12510 12506 65
12510 12512 64
12510 12566 156
12511 12502 108
12511 12431 275
12511 12515 58
12512 12510 64
12512 12518 202
12512 12529 52
12513 12495 276
12513 12492 55
12513 12517 228
12513 12531 52
12514 12491 72
12515 12511 58
12515 12655 427
12516 12509 219
12516 12496 56
12516 12518 7
12516 12525 215
12517 12513 228
12517 12499 53
12517 12540 55
12518 12512 202
12518 12516 7
12518 12519 6
12518 12541 52
12519 12518 6
12519 12527 210
12520 12505 178
12520 12467 141
12520 12528 27
12521 12522 308
12521 12507 43
12521 12542 50
12522 12521 308
12523 12524 108
12523 12542 209
12523 12600 247
12524 12523 108
12525 12516 215
12525 12428 241
12525 12527 8
12526 12501 78
12526 12544 71
12526 12544 44
12527 12519 210
12527 12525 8
12527 12538 19
12528 12520 27
12528 12534 28
12528 12587 172
12529 12512 52
12529 12541 203
12529 12550 52
12530 12484 199
12531 12532 143
12531 12513 52
12531 12540 225
12531 12552 53
12532 12531 143
12533 12466 168
12533 12556 167
12533 12569 270
12534 12528 28
12534 12535 163
12534 12536 3
12535 12534 163
12536 12534 3
12537 12430 298
12537 12545 71
12537 12652 388
12538 12527 19
12538 12548 33
12538 12562 223
12539 12424 327
12539 12427 629
12539 12632 314
12540 12531 225
12540 12517 55
12540 12559 53
12541 12529 203
12541 12518 52
12541 12548 217
12541 12555 45
12542 12523 209
12542 12521 50
12542 12591 158
12543 12485 196
12543 12586 139
12543 12599 304
12544 12526 71
12544 12526 44
12544 12587 483
12545 12537 71
12545 12332 557
12545 12571 294
12546 12547 70
12547 12546 70
12547 12609 33
12548 12541 217
12548 12538 33
12548 12567 50
12549 11300 2834
12549 12660 143
12550 12529 52
12550 12560 203
12550 12570 51
12551 12552 158
12552 12551 158
12552 12531 53
12552 12559 226
12552 12573 55
12553 12376 721
12553 12324 760
12553 12626 420
12554 12500 156
12554 12561 121
12554 12612 211
12555 12541 45
12555 12560 9
12555 12567 219
12556 12557 14
12556 12558 57
12556 12533 167
12557 12556 14
12558 12556 57
12559 12552 226
12559 12540 53
12559 12574 52
12560 12550 203
12560 12555 9
12560 12576 52
12561 12554 121
12561 12503 156
12561 12564 52
12562 12538 223
12562 12563 270
12562 12575 45
12563 12562 270
12564 12561 52
12564 12565 14
12565 12564 14
12565 12506 157
12565 12566 61
12566 12565 61
12566 12510 156
12566 12570 64
12567 12555 219
12567 12548 50
12567 12575 216
12567 12579 51
12568 12444 352
12568 12569 92
12568 12638 493
12569 12441 394
12569 12533 270
12569 12568 92
12570 12566 64
12570 12550 51
12570 12576 204
12570 12580 49
12571 12545 294
12571 12453 316
12571 12590 80
12572 12573 183
12573 12572 183
12573 12552 55
12573 12574 225
12573 12583 53
12574 12573 225
12574 12559 52
12574 12589 54
12575 12567 216
12575 12562 45
12575 12584 40
12576 12570 204
12576 12560 52
12576 12579 220
12576 12585 41
12577 12578 1490
12577 12697 99
12578 12577 1490
12578 12005 133
12579 12576 220
12579 12567 51
12579 12581 10
12579 12581 10
12579 12584 214
12580 12570 49
12580 12588 204
12580 12594 50
12581 12579 10
12581 12579 10
12581 12595 44
12582 12583 199
12583 12582 199
12583 12573 53
12583 12589 225
12583 12626 137
12584 12579 214
12584 12575 40
12584 12592 170
12584 12596 58
12585 12576 41
12585 12588 9
12585 12595 221
12586 12543 139
12586 12599 165
12586 12620 400
12587 12544 483
12587 12528 172
12587 12613 102
12588 12580 204
12588 12585 9
12588 12598 48
12589 12583 225
12589 12574 54
12589 12606 184
12590 12571 80
12590 12597 157
12590 12685 297
12591 12542 158
12591 12605 57
12591 12652 562
12592 12584 170
12592 12593 12
12593 12592 12
12593 12607 48
12593 12665 219
12594 12580 50
12594 12598 204
12594 12631 113
12595 12585 221
12595 12581 44
12595 12596 212
12595 12608 58
12596 12595 212
12596 12584 58
12596 12607 188
12596 12616 59
12597 12590 157
12597 12604 173
12597 12766 419
12598 12594 204
12598 12588 48
12598 12602 6
12599 12543 304
12599 12586 165
12600 12601 147
12600 12523 247
12600 12603 122
12600 12635 95
12601 12600 147
12602 12598 6
12602 12608 223
12602 12617 52
12603 12600 122
12603 12605 93
12603 12619 57
12604 12597 173
12604 12480 393
12604 12633 304
12604 12782 440
12605 12603 93
12605 12591 57
12605 12850 573
12606 12589 184
12606 12654 174
12607 12596 188
12607 12593 48
12607 12627 53
12608 12602 223
12608 12595 58
12608 12616 210
12608 12628 46
12609 12610 442
12609 12547 33
12610 12609 442
12610 12696 74
12611 12399 589
12612 12554 211
12612 12630 328
12613 12587 102
12613 12614 360
12613 12638 205
12613 12651 76
12614 12613 360
12614 12615 96
12614 12666 367
12615 12614 96
12615 13399 2169
12616 12608 210
12616 12596 59
12616 12627 192
12616 12639 48
12617 12602 52
12617 12628 224
12617 12643 61
12618 12637 38
12619 12603 57
12619 12635 132
12620 12586 400
12620 12472 452
12620 12647 50
12621 12622 79
12622 12621 79
12622 12623 10
12622 12648 163
12622 12664 113
12623 12622 10
12624 12625 18
12625 12624 18
12625 12629 17
12625 15271 43
12626 12553 420
12626 12583 137
12626 12709 337
12627 12616 192
12627 12607 53
12627 12650 47
12628 12617 224
12628 12608 46
12628 12639 209
12628 12653 60
12629 12625 17
12630 12612 328
12630 12631 14
12630 12668 102
12631 12630 14
12631 12594 113
12631 12634 56
12632 12539 314
12632 12644 88
12632 12644 308
12633 12604 304
12633 12636 32
12633 12804 417
12634 12631 56
12634 12640 69
12634 12669 100
12635 12600 95
12635 12619 132
12635 12667 91
12636 12633 32
12636 12502 423
12636 12655 151
12637 12618 38
12638 12568 493
12638 12613 205
12638 12651 202
12638 12683 187
12639 12628 209
12639 12616 48
12639 12650 197
12639 12658 57
12640 12634 69
12640 12643 79
12640 12671 97
12641 12642 15
12642 12641 15
12642 12646 20
12642 15271 0
12643 12640 79
12643 12617 61
12643 12653 227
12643 12674 95
12644 12645 345
12644 12632 88
12644 12632 308
12645 12644 345
12646 12642 20
12647 12620 50
12647 12654 466
12647 12687 132
12648 12622 163
12648 12649 98
12648 12679 113
12649 12648 98
12650 12639 197
12650 12627 47
12650 12663 61
12651 12613 76
12651 12638 202
12651 12801 374
12652 12591 562
12652 12537 388
12652 12685 422
12652 12705 156
12653 12643 227
12653 12628 60
12653 12656 78
12654 12606 174
12654 12647 466
12654 12675 76
12655 12636 151
12655 12515 427
12655 12673 247
12655 12830 406
12656 12653 78
12656 12658 128
12656 12692 107
12657 11121 3653
12657 12659 11
12657 12733 194
12658 12656 128
12658 12639 57
12658 12663 205
12658 12698 108
12659 12657 11
12659 12660 198
12659 12664 84
12659 12733 192
12660 12659 198
12660 12549 143
12661 12662 224
12661 12678 47
12662 12661 224
12662 12672 46
12663 12658 205
12663 12650 61
12663 12665 13
12663 12704 114
12664 12659 84
12664 12622 113
12664 12679 155
12664 12694 76
12665 12663 13
12665 12593 219
12665 12706 117
12666 12614 367
12667 12635 91
12668 12630 102
12668 12669 70
12668 12714 128
12669 12668 70
12669 12634 100
12669 12671 69
12669 12718 129
12670 12462 603
12670 12700 77
12670 12702 162
12671 12669 69
12671 12640 97
12671 12674 80
12671 12723 130
12672 12662 46
12672 12678 225
12672 12693 51
12673 12655 247
12673 12680 113
12673 12778 239
12674 12671 80
12674 12643 95
12674 12676 7
12675 12654 76
12675 12684 152
12675 12709 345
12676 12674 7
12676 12692 305
12676 12699 52
12677 12406 1455
12677 15272 1455
12677 12713 99
12677 12809 488
12678 12672 225
12678 12661 47
12678 12701 54
12679 12664 155
12679 12648 113
12679 12703 168
12679 12711 77
12680 12673 113
12680 12681 1178
12680 12682 18
12681 12680 1178
12682 12680 18
12682 12688 60
12682 12778 401
12683 12638 187
12683 12686 22
12683 12789 285
12684 12675 152
12684 12690 116
12685 12652 422
12685 12590 297
12685 12755 144
12686 12683 22
12686 12717 210
12687 12647 132
12687 12727 94
12687 12993 579
12688 12682 60
12688 12689 454
12688 12880 377
12689 12688 454
12689 12842 736
12689 12946 761
12690 12684 116
12690 12691 58
12690 12707 45
12691 12690 58
12692 12676 305
12692 12656 107
12692 12698 127
12692 12710 51
12693 12672 51
12693 12695 61
12693 12734 103
12694 12664 76
12694 12711 157
12694 12716 62
12695 12693 61
12695 12701 165
12695 12712 51
12696 12697 1364
12696 12610 74
12697 12696 1364
12697 12577 99
12698 12692 127
12698 12658 108
12698 12704 214
12698 12715 51
12699 12676 52
12699 12710 305
12699 12726 72
12700 12670 77
12700 12702 102
12700 12813 257
12701 12695 165
12701 12678 54
12701 12724 51
12702 12700 102
12702 12670 162
12702 12708 15
12703 12679 168
12703 12741 82
12703 12792 657
12704 12698 214
12704 12663 114
12704 12706 10
12704 12730 57
12705 12652 156
12705 12765 122
12705 12888 465
12706 12704 10
12706 12665 117
12706 12729 53
12706 12739 222
12707 12690 45
12707 12722 30
12707 12727 166
12708 12702 15
12708 12732 225
12708 12846 348
12709 12626 337
12709 12725 47
12709 12675 345
12710 12699 305
12710 12692 51
12710 12715 127
12710 12749 72
12711 12694 157
12711 12679 77
12711 12741 164
12711 12753 72
12712 12695 51
12712 12724 167
12712 12737 51
12713 12677 99
12714 12668 128
12714 12718 69
12714 12720 25
12715 12710 127
12715 12698 51
12715 12730 209
12715 12750 58
12716 12694 62
12716 12738 45
12716 12753 163
12717 12686 210
12718 12714 69
12718 12669 129
12718 12723 69
12719 12720 221
12720 12719 221
12720 12714 25
12720 12744 43
12721 12722 7
12722 12721 7
12722 12707 30
12722 12775 122
12723 12718 69
12723 12671 130
12723 12726 80
12724 12712 167
12724 12701 51
12724 12754 51
12725 12376 1729
12725 15267 1729
12725 15270 1729
12725 12709 47
12725 12756 77
12726 12723 80
12726 12699 72
12726 12728 8
12726 12761 53
12727 12707 166
12727 12687 94
12727 12731 12
12728 12726 8
12728 12749 297
12729 12706 53
12729 12739 177
12729 12764 56
12730 12715 209
12730 12704 57
12730 12763 53
12731 12727 12
12731 15273 231
12732 12708 225
12733 12657 194
12733 12659 192
12733 12745 23
12733 13546 1912
12733 13547 1916
12734 12693 103
12734 12737 62
12734 12767 52
12735 12736 13
12736 12735 13
12736 12740 14
12736 12759 37
12737 12734 62
12737 12712 51
12737 12754 168
12738 12716 45
12739 12729 177
12739 12706 222
12739 12742 11
12739 12742 11
12739 12771 55
12740 12736 14
12741 12711 164
12741 12703 82
12741 12781 74
12741 12781 308
12742 12739 11
12742 12739 11
12742 12743 84
12742 12767 374
12742 12772 55
12743 12742 84
12744 12720 43
12744 12761 236
12744 12770 50
12745 12733 23
12746 12747 148
12747 12746 148
12747 12748 93
12747 12818 143
12748 12747 93
12748 12751 36
12748 12820 142
12749 12728 297
12749 12710 72
12749 12760 126
12750 12715 58
12750 12760 15
12750 12763 210
12751 12748 36
12751 12752 35
12751 12822 141
12752 12751 35
12752 12824 140
12752 12825 177
12753 12716 163
12753 12711 72
12753 12777 53
12753 12781 159
12754 12737 168
12754 12724 51
12754 12776 50
12755 12685 144
12755 12766 169
12755 12768 35
12756 12725 77
12756 12787 136
12756 13409 1247
12757 12414 919
12757 12774 74
12757 12826 284
12758 12759 15
12759 12758 15
12759 12762 14
12759 12736 37
12760 12749 126
12760 12750 15
12760 12773 31
12761 12744 236
12761 12726 53
12761 12784 52
12762 12759 14
12763 12750 210
12763 12730 53
12763 12764 14
12763 12783 44
12764 12763 14
12764 12729 56
12764 12771 175
12764 12785 48
12765 12705 122
12766 12755 169
12766 12597 419
12766 12780 147
12767 12742 374
12767 12734 52
12767 12776 230
12767 12786 46
12768 12769 97
12768 12755 35
12768 12794 55
12769 12768 97
12769 12884 233
12769 12904 379
12770 12744 50
12770 12784 236
12770 12797 52
12771 12764 175
12771 12739 55
12771 12791 48
12772 12742 55
12772 12788 371
12772 12793 48
12773 12760 31
12773 12783 214
12773 12790 44
12774 12757 74
12774 12819 128
12774 12826 96
12775 12722 122
12776 12767 230
12776 12754 50
12776 12796 37
12777 12753 53
12778 12779 86
12778 12673 239
12778 12682 401
12778 12856 153
12779 12778 86
12780 12766 147
12780 12782 20
12780 12808 69
12781 12753 159
12781 12741 74
12781 12741 308
12781 12799 49
12782 12780 20
12782 12604 440
12782 12795 132
12783 12773 214
12783 12763 44
12783 12800 46
12784 12770 236
12784 12761 52
12784 12803 51
12785 12764 48
12785 12791 173
12785 12802 46
12786 12767 46
12786 12788 5
12786 12798 230
12787 12756 136
12787 15273 311
12788 12772 371
12788 12786 5
12788 12807 42
12789 12683 285
12789 12860 174
12789 12893 301
12790 12773 44
12790 12800 218
12790 12811 46
12791 12785 173
12791 12771 48
12791 12812 45
12792 12703 657
12793 12772 48
12793 12810 369
12793 12814 45
12794 12768 55
12794 12827 56
12794 12832 323
12795 12782 132
12795 12804 170
12795 12831 65
12796 12776 37
12796 12798 11
12796 12805 260
12797 12770 52
12797 12803 235
12797 12828 53
12798 12786 230
12798 12796 11
12798 12829 46
12799 12781 49
12800 12790 218
12800 12783 46
12800 12833 45
12801 12651 374
12801 12922 212
12801 13368 1820
12802 12785 46
12802 12812 171
12802 12836 50
12803 12797 235
12803 12784 51
12803 12837 50
12804 12795 170
12804 12633 417
12804 12830 180
12804 13101 429
12805 12796 260
12805 12806 413
12805 12854 84
12806 12805 413
12807 12788 42
12807 12810 8
12807 12829 230
12808 12780 69
12808 12831 150
12808 12832 29
12809 12677 488
12809 12821 17
12809 12853 79
12810 12793 369
12810 12807 8
12810 12838 40
12811 12790 46
12811 12833 222
12811 12841 47
12812 12802 171
12812 12791 45
12812 12814 11
12812 12843 49
12813 12700 257
12813 12835 30
12813 12846 78
12814 12812 11
12814 12793 45
12814 12840 368
12814 12844 48
12815 12816 73
12816 12815 73
12816 12817 69
12816 12818 38
12816 12914 159
12817 12816 69
12818 12816 38
12818 12747 143
12818 12820 94
12818 12939 198
12819 12774 128
12819 12826 78
12819 12942 222
12820 12818 94
12820 12748 142
12820 12822 35
12820 12940 197
12821 12809 17
12821 12889 183
12821 12908 234
12822 12820 35
12822 12751 141
12822 12823 12
12823 12822 12
12823 12824 22
12823 12867 86
12824 12823 22
12824 12752 140
12824 12825 32
12825 12824 32
12825 12752 177
12825 12867 107
12826 12819 78
12826 12774 96
12826 12757 284
12827 12794 56
12827 12852 60
12827 12863 309
12828 12797 53
12828 12837 235
12828 12847 50
12829 12807 230
12829 12798 46
12829 12839 24
12830 12804 180
12830 12655 406
12830 12834 17
12831 12808 150
12831 12795 65
12831 12874 84
12832 12794 323
12832 12808 29
12832 12857 52
12833 12811 222
12833 12800 45
12833 12855 48
12834 12830 17
12834 12845 143
12834 12848 39
12835 12813 30
12835 12887 107
12835 12964 210
12836 12802 50
12836 12843 169
12836 12859 44
12837 12828 235
12837 12803 50
12837 12862 54
12838 12810 40
12838 12840 8
12838 12849 230
12839 12829 24
12839 12849 25
12839 12854 260
12840 12814 368
12840 12838 8
12840 12861 38
12841 12811 47
12841 12855 226
12841 12866 45
12842 12689 736
12843 12836 169
12843 12812 49
12843 12844 10
12843 12869 46
12844 12843 10
12844 12814 48
12844 12864 367
12844 12870 47
12845 12834 143
12845 12856 99
12845 12876 57
12846 12813 78
12846 12708 348
12846 13001 235
12847 12828 50
12847 12862 235
12847 12916 281
12848 12834 39
12848 12872 37
12849 12838 230
12849 12839 25
12849 12875 46
12850 12605 573
12850 12851 56
12850 12923 114
12851 12850 56
12851 12885 214
12852 12827 60
12852 12892 334
12852 12897 64
12853 12809 79
12853 12873 48
12853 12906 92
12854 12839 260
12854 12805 84
12854 12871 243
12854 12877 40
12855 12841 226
12855 12833 48
12855 12881 44
12856 12845 99
12856 12778 153
12856 12858 13
12857 12832 52
12857 12874 147
12857 12892 57
12858 12856 13
12858 12868 79
12858 12890 54
12859 12836 44
12859 12869 168
12859 12882 42
12860 12789 174
12860 12963 1237
12860 15269 1267
12861 12840 38
12861 12864 10
12861 12875 230
12862 12847 235
12862 12837 54
12862 12916 86
12863 12827 309
12864 12844 367
12864 12861 10
12864 12898 42
12865 12866 0
12866 12865 0
12866 12841 45
12866 12881 230
12866 12891 38
12867 12823 86
12867 12825 107
12867 12941 111
12868 12858 79
12868 12880 146
12868 12903 54
12869 12859 168
12869 12843 46
12869 12899 40
12870 12844 47
12870 12900 40
12870 12901 364
12871 12854 243
12871 12878 355
12871 12902 43
12872 12848 37
12872 12883 140
12872 12896 33
12873 12853 48
12873 12894 53
12873 12950 124
12874 12857 147
12874 12831 84
12874 12907 53
12875 12861 230
12875 12849 46
12875 12910 50
12876 12845 57
12876 12883 14
12876 12890 110
12877 12854 40
12877 12902 243
12877 12930 81
12878 12871 355
12878 12879 570
12878 13107 305
12879 12878 570
12880 12868 146
12880 12688 377
12880 12928 73
12881 12866 230
12881 12855 44
12881 12905 37
12882 12859 42
12882 12899 166
12882 12911 41
12883 12872 140
12883 12876 14
12883 12909 33
12884 12769 233
12884 12895 53
12884 12897 71
12884 12958 92
12885 12886 161
12885 12851 214
12885 12888 39
12886 12885 161
12887 12835 107
12887 12889 372
12888 12885 39
12888 12705 465
12888 12926 56
12889 12821 183
12889 12887 372
12890 12876 110
12890 12858 54
12890 12903 79
12890 12919 48
12891 12866 38
12891 12905 233
12891 12917 45
12892 12852 334
12892 12857 57
12892 12907 147
12892 12929 61
12893 12789 301
12893 12922 223
12894 12873 53
12894 12913 46
12894 13130 343
12895 12884 53
12895 12904 50
12895 12951 83
12896 12872 33
12896 12909 138
12896 12915 39
12897 12884 71
12897 12852 64
12897 12929 329
12897 12990 131
12898 12864 42
12898 12901 4
12898 12910 230
12899 12882 166
12899 12869 40
12899 12918 40
12900 12870 40
12900 12920 40
12900 12921 362
12901 12870 364
12901 12898 4
12901 12921 40
12902 12877 243
12902 12871 43
12902 13081 242
12903 12890 79
12903 12868 54
12903 12912 76
12903 12931 45
12904 12769 379
12904 12895 50
12904 12925 59
12904 12948 59
12905 12891 233
12905 12881 37
12905 12935 45
12906 12853 92
12906 12932 53
12906 12945 155
12907 12892 147
12907 12874 53
12907 12957 62
12908 12821 234
12908 13255 479
12909 12896 138
12909 12883 33
12909 12919 109
12909 12934 41
12910 12898 230
12910 12875 50
12910 12930 261
12910 12949 53
12911 12882 41
12911 12918 164
12911 12936 40
12912 12903 76
12912 12937 41
12913 12894 46
12913 12933 47
12913 13145 338
12914 12816 159
12915 12896 39
12915 12934 139
12915 12947 41
12916 12847 281
12916 12862 86
12916 12952 41
12917 12891 45
12917 12935 237
12917 12953 40
12918 12911 164
12918 12899 40
12918 12959 42
12919 12909 109
12919 12890 48
12919 12931 79
12919 12960 42
12920 12900 40
12920 12961 41
12920 12962 360
12921 12900 362
12921 12901 40
12921 12927 9
12922 12893 223
12922 12801 212
12922 13368 670
12923 12850 114
12923 12926 247
12923 12956 36
12924 12925 141
12925 12924 141
12925 12904 59
12925 12954 66
12926 12923 247
12926 12888 56
12926 12965 45
12927 12921 9
12927 12949 230
12927 12962 33
12928 12880 73
12928 12963 743
12928 13365 577
12929 12897 329
12929 12892 61
12929 12957 150
12930 12910 261
12930 12877 81
12930 12973 51
12931 12919 79
12931 12903 45
12931 12943 77
12931 12966 43
12932 12906 53
12932 12950 59
12932 12999 132
12933 12913 47
12933 12967 48
12933 13158 322
12934 12915 139
12934 12909 41
12934 12938 24
12935 12917 237
12935 12905 45
12935 12936 14
12935 12972 43
12936 12935 14
12936 12911 40
12936 12959 162
12936 13004 84
12937 12912 41
12937 12943 4
12937 12944 67
12938 12934 24
12938 12960 84
12938 12971 40
12939 12818 198
12939 12940 97
12939 13075 176
12940 12939 97
12940 12820 197
12940 12941 43
12940 13340 516
12941 12940 43
12941 12867 111
12941 12956 291
12941 13087 183
12942 12819 222
12943 12931 77
12943 12937 4
12943 12977 44
12944 12937 67
12945 12906 155
12946 12689 761
12947 12915 41
12947 12971 160
12947 12976 32
12948 12904 59
12948 12951 39
12948 12991 53
12949 12927 230
12949 12910 53
12949 12973 261
12949 12992 52
12950 12932 59
12950 12873 124
12950 12978 42
12951 12948 39
12951 12895 83
12951 12958 58
12952 12916 41
12952 12970 213
12952 13339 507
12953 12917 40
12953 12972 241
12953 12980 40
12954 12955 174
12954 12925 66
12954 13027 100
12955 12954 174
12956 12941 291
12956 12923 36
12956 12981 40
12957 12929 150
12957 12907 62
12957 13067 159
12958 12951 58
12958 12884 92
12958 12994 52
12959 12936 162
12959 12918 42
12959 12961 11
12959 12986 41
12960 12938 84
12960 12919 42
12960 12966 79
12960 12983 40
12961 12959 11
12961 12920 41
12961 12984 358
12961 12987 41
12962 12920 360
12962 12927 33
12962 12969 20
12963 12860 1237
12963 12928 743
12963 13325 1309
12964 12835 210
12964 13000 55
12964 13001 63
12965 12926 45
12965 12968 525
12965 12974 14
12966 12960 79
12966 12931 43
12966 12977 78
12966 12995 39
12967 12933 48
12967 13015 65
12967 13212 337
12968 12965 525
12969 12962 20
12969 12984 19
12969 12992 229
12970 12952 213
12970 12989 215
12970 12998 35
12971 12947 160
12971 12938 40
12971 12983 85
12971 12997 33
12972 12953 241
12972 12935 43
12972 13003 41
12973 12949 261
12973 12930 51
12973 13014 53
12974 12975 191
12974 12965 14
12974 13018 57
12975 12974 191
12976 12947 32
12976 12979 64
12976 13005 43
12977 12966 78
12977 12943 44
12977 12988 67
12977 13006 39
12978 12950 42
12978 13021 155
12978 13021 53
12979 12976 64
12979 12996 96
12979 13017 43
12980 12953 40
12980 12989 9
12980 12989 9
12980 13003 244
12981 12982 222
12981 12956 40
12981 13009 34
12982 12981 222
12983 12971 85
12983 12960 40
12983 12995 78
12983 13008 33
12984 12961 358
12984 12969 19
12984 13007 30
12985 12986 102
12986 12985 102
12986 12959 41
12986 13023 42
12987 12961 41
12987 13019 356
12987 13024 44
12988 12977 67
12989 12970 215
12989 12980 9
12989 12980 9
12989 13020 36
12990 12897 131
12990 13026 195
12990 13044 71
12991 12948 53
12991 12994 97
12991 13036 59
12992 12969 229
12992 12949 52
12992 13014 261
12992 13029 52
12993 12687 579
12993 13000 140
12993 13252 357
12994 12991 97
12994 12958 52
12994 13039 60
12995 12983 78
12995 12966 39
12995 13006 78
12995 13025 34
12996 12979 96
12996 12997 3
12996 13028 43
12997 12996 3
12997 12971 33
12997 13008 84
12998 12970 35
12998 13012 17
12998 13020 215
12999 12932 132
13000 12993 140
13000 12964 55
13000 13058 77
13001 12964 63
13001 13002 160
13001 12846 235
13001 13228 398
13002 13001 160
13002 15273 236
13003 12980 244
13003 12972 41
13003 13004 14
13003 13038 44
13004 13003 14
13004 12936 84
13004 13023 159
13004 13327 419
13005 12976 43
13005 13017 65
13005 13034 38
13006 12995 78
13006 12977 39
13006 13033 34
13007 12984 30
13007 13019 11
13007 13029 229
13008 12997 84
13008 12983 33
13008 13025 78
13008 13040 43
13009 12981 34
13009 13016 5
13009 13018 248
13010 13011 140
13010 13016 65
13010 13037 165
13011 13010 140
13012 13013 150
13012 12998 17
13012 13031 27
13013 13012 150
13014 12992 261
13014 12973 53
13014 13052 52
13015 12967 65
13015 13053 58
13015 13194 258
13016 13010 65
13016 13009 5
13016 13050 49
13017 13005 65
13017 12979 43
13017 13028 97
13017 13043 38
13018 13009 248
13018 12974 57
13018 13022 36
13019 12987 356
13019 13007 11
13019 13049 44
13020 12998 215
13020 12989 36
13020 13038 248
13020 13047 41
13021 12978 155
13021 12978 53
13021 13130 176
13022 13018 36
13022 13027 175
13022 13060 58
13023 13004 159
13023 12986 42
13023 13024 13
13023 13334 413
13024 13023 13
13024 12987 44
13024 13048 352
13024 13335 412
13025 13008 78
13025 12995 34
13025 13033 79
13025 13054 43
13026 12990 195
13026 13030 53
13026 13089 86
13027 13022 175
13027 12954 100
13027 13032 45
13028 13017 97
13028 12996 43
13028 13040 87
13028 13056 39
13029 13007 229
13029 12992 52
13029 13052 261
13029 13064 51
13030 13026 53
13030 13067 219
13030 13097 86
13031 13012 27
13031 13041 16
13031 13047 215
13032 13027 45
13032 13036 63
13032 13066 52
13033 13025 79
13033 13006 34
13033 13035 8
13033 13062 43
13034 13005 38
13034 13043 66
13034 13061 40
13035 13033 8
13036 13032 63
13036 12991 59
13036 13039 95
13037 13010 165
13038 13020 248
13038 13003 44
13038 13063 39
13039 13036 95
13039 12994 60
13039 13044 68
13040 13028 87
13040 13008 43
13040 13054 78
13040 13065 40
13041 13042 195
13041 13031 16
13041 13059 23
13042 13041 195
13043 13034 66
13043 13017 38
13043 13056 98
13043 13068 40
13044 13039 68
13044 12990 71
13044 13055 18
13045 13046 279
13046 13045 279
13047 13031 215
13047 13020 41
13047 13063 251
13047 13082 42
13048 13024 352
13048 13049 2
13049 13048 2
13049 13019 44
13049 13064 229
13049 13091 54
13050 13016 49
13050 13051 160
13050 13076 36
13051 13050 160
13052 13029 261
13052 13014 52
13052 13057 9
13053 13015 58
13053 13171 176
13053 13195 206
13054 13040 78
13054 13025 43
13054 13062 79
13054 13088 41
13055 13044 18
13055 13089 184
13055 13102 56
13056 13043 98
13056 13028 39
13056 13065 86
13056 13090 40
13057 13052 9
13057 13081 244
13057 13092 43
13058 13000 77
13058 15274 211
13059 13041 23
13059 13082 215
13059 13085 27
13060 13022 58
13060 13066 218
13060 13105 54
13061 13034 40
13061 13068 64
13061 13093 38
13062 13054 79
13062 13033 43
13062 13099 41
13063 13047 251
13063 13038 39
13063 13106 47
13064 13049 229
13064 13029 51
13064 13092 261
13064 13114 55
13065 13056 86
13065 13040 40
13065 13088 78
13065 13104 40
13066 13060 218
13066 13032 52
13066 13116 107
13067 13030 219
13067 12957 159
13067 13083 52
13067 13110 44
13068 13061 64
13068 13043 40
13068 13090 99
13068 13103 36
13069 13070 68
13070 13069 68
13070 13071 38
13070 13198 164
13071 13070 38
13071 13072 124
13071 13073 38
13071 13200 163
13072 13071 124
13073 13071 38
13073 13074 37
13073 13201 163
13074 13073 37
13074 13075 37
13074 13202 162
13075 13074 37
13075 12939 176
13075 13078 41
13075 13204 162
13076 13077 184
13076 13050 36
13076 13111 37
13077 13076 184
13078 13075 41
13079 13080 369
13080 13079 369
13081 13057 244
13081 12902 242
13081 13119 43
13082 13059 215
13082 13047 42
13082 13106 255
13082 13115 39
13083 13067 52
13083 13084 381
13083 13098 90
13084 13083 381
13085 13086 197
13085 13059 27
13085 13094 15
13086 13085 197
13087 12941 183
13088 13065 78
13088 13054 41
13088 13099 79
13088 13120 40
13089 13055 184
13089 13026 86
13089 13097 49
13090 13068 99
13090 13056 40
13090 13104 86
13090 13121 36
13091 13049 54
13091 13114 229
13091 13132 52
13092 13064 261
13092 13057 43
13092 13119 244
13092 13380 417
13093 13061 38
13093 13100 19
13093 13103 63
13094 13085 15
13094 13115 214
13094 13122 37
13095 13096 199
13096 13095 199
13097 13089 49
13097 13030 86
13097 13138 56
13098 13083 90
13098 13101 28
13098 13181 125
13099 13088 79
13099 13062 41
13099 13128 40
13100 13093 19
13100 13127 39
13100 13129 153
13101 13098 28
13101 12804 429
13101 13113 69
13102 13055 56
13102 13138 226
13102 13144 59
13103 13093 63
13103 13068 36
13103 13118 75
13104 13090 86
13104 13065 40
13104 13120 78
13104 13131 35
13105 13060 54
13105 13116 165
13105 13206 129
13106 13082 255
13106 13063 47
13106 13133 36
13107 13108 344
13107 12878 305
13107 13119 393
13108 13107 344
13109 13110 219
13110 13109 219
13110 13067 44
13110 13163 82
13111 13112 183
13111 13076 37
13111 13117 185
13111 13136 34
13112 13111 183
13113 13101 69
13113 13124 104
13113 13143 46
13114 13091 229
13114 13064 55
13114 13146 54
13115 13094 214
13115 13082 39
13115 13133 258
13115 13142 41
13116 13105 165
13116 13066 107
13116 13183 103
13117 13111 185
13118 13103 75
13118 13121 25
13118 13129 19
13119 13092 244
13119 13081 43
13119 13107 393
13119 13406 473
13120 13104 78
13120 13088 40
13120 13128 79
13120 13141 35
13121 13118 25
13121 13090 36
13121 13126 65
13122 13123 197
13122 13094 37
13122 13125 5
13123 13122 197
13124 13113 104
13124 13127 12
13124 13155 46
13125 13122 5
13125 13142 214
13125 13152 39
13126 13121 65
13126 13131 21
13126 13140 18
13127 13124 12
13127 13100 39
13127 13149 158
13128 13120 79
13128 13099 40
13128 13150 34
13129 13100 153
13129 13118 19
13129 13140 91
13129 13149 34
13130 13021 176
13130 12894 343
13130 13145 45
13131 13126 21
13131 13104 35
13131 13141 78
13132 13091 52
13132 13146 229
13132 13167 54
13133 13115 258
13133 13106 36
13133 13159 42
13134 13135 126
13135 13134 126
13136 13137 185
13136 13111 34
13136 13139 179
13136 13156 37
13137 13136 185
13138 13102 226
13138 13097 56
13138 13164 45
13139 13136 179
13140 13129 91
13140 13126 18
13140 13154 98
13140 13162 35
13141 13131 78
13141 13120 35
13141 13150 79
13141 13154 18
13142 13125 214
13142 13115 41
13142 13159 262
13142 13170 41
13143 13113 46
13143 13155 103
13143 13169 38
13144 13102 59
13144 13172 215
13144 13178 54
13145 13130 45
13145 12913 338
13145 13158 44
13146 13132 229
13146 13114 54
13146 13191 55
13147 13148 72
13148 13147 72
13148 13168 68
13148 13218 84
13149 13127 158
13149 13129 34
13149 13162 91
13149 13174 42
13150 13141 79
13150 13128 34
13150 13151 8
13150 13160 16
13151 13150 8
13152 13153 193
13152 13125 39
13152 13170 213
13152 13180 45
13153 13152 193
13154 13140 98
13154 13141 18
13154 13160 80
13154 13173 36
13155 13143 103
13155 13124 46
13155 13174 169
13155 13175 38
13156 13157 189
13156 13136 37
13156 13161 184
13156 13176 34
13157 13156 189
13158 13145 44
13158 12933 322
13158 13171 42
13159 13142 262
13159 13133 42
13159 13193 42
13160 13154 80
13160 13150 16
13160 13189 36
13161 13156 184
13162 13149 91
13162 13140 35
13162 13173 97
13162 13196 44
13163 13110 82
13163 13181 143
13163 13210 50
13164 13138 45
13164 13172 8
13164 13210 220
13165 13166 108
13165 13228 192
13165 13252 118
13166 13165 108
13166 13254 449
13167 13132 54
13167 13191 229
13167 13215 53
13168 13148 68
13169 13143 38
13169 13175 102
13169 13207 41
13170 13152 213
13170 13142 41
13170 13193 265
13170 13209 42
13171 13158 42
13171 13053 176
13171 13184 85
13172 13144 215
13172 13164 8
13172 13220 55
13173 13162 97
13173 13154 36
13173 13189 81
13173 13213 40
13174 13155 169
13174 13149 42
13174 13179 6
13175 13169 102
13175 13155 38
13175 13182 14
13175 13182 14
13176 13177 198
13176 13156 34
13176 13188 171
13176 13216 37
13177 13176 198
13178 13144 54
13178 13199 16
13178 13220 205
13179 13174 6
13179 13196 92
13179 13214 31
13180 13152 45
13180 13186 4
13180 13209 213
13181 13163 143
13181 13098 125
13181 13207 97
13181 13229 49
13182 13175 14
13182 13175 14
13182 13214 156
13182 13223 41
13183 13116 103
13183 13185 18
13183 13211 75
13184 13171 85
13184 13195 48
13184 13341 233
13185 13183 18
13185 13192 99
13185 13237 55
13186 13187 158
13186 13180 4
13186 13219 33
13187 13186 158
13188 13176 171
13189 13173 81
13189 13160 36
13189 13190 5
13189 13224 40
13190 13189 5
13191 13167 229
13191 13146 55
13191 13236 50
13192 13185 99
13192 13197 103
13192 13245 57
13193 13170 265
13193 13159 42
13193 13226 39
13194 13015 258
13195 13184 48
13195 13053 206
13195 13208 46
13195 13341 188
13196 13179 92
13196 13162 44
13196 13213 96
13196 13227 35
13197 13192 103
13197 13199 60
13197 13250 58
13198 13070 164
13198 13200 37
13198 13238 45
13199 13197 60
13199 13178 16
13199 13241 49
13200 13198 37
13200 13071 163
13200 13201 37
13201 13200 37
13201 13073 163
13201 13202 34
13202 13201 34
13202 13074 162
13202 13203 28
13203 13202 28
13203 13204 12
13203 13242 46
13204 13203 12
13204 13075 162
13204 13205 46
13205 13204 46
13206 13105 129
13206 13211 109
13206 13248 50
13207 13181 97
13207 13169 41
13207 13221 108
13207 13246 49
13208 13195 46
13208 13212 41
13208 13346 188
13209 13180 213
13209 13170 42
13209 13226 269
13209 13240 40
13210 13164 220
13210 13163 50
13210 13229 144
13210 13277 82
13211 13206 109
13211 13183 75
13211 13231 30
13212 13208 41
13212 12967 337
13212 13351 186
13213 13196 96
13213 13173 40
13213 13224 83
13213 13247 39
13214 13182 156
13214 13179 31
13214 13227 92
13214 13249 40
13215 13167 53
13215 13236 229
13215 13256 50
13216 13217 199
13216 13176 37
13216 13222 132
13216 13316 130
13217 13216 199
13218 13148 84
13218 13230 743
13218 13263 50
13219 13186 33
13219 13232 16
13219 13240 213
13220 13178 205
13220 13172 55
13220 13235 18
13221 13207 108
13221 13223 8
13221 13264 49
13222 13216 132
13223 13221 8
13223 13182 41
13223 13249 156
13224 13213 83
13224 13189 40
13224 13225 4
13224 13259 41
13225 13224 4
13226 13209 269
13226 13193 39
13226 13268 44
13227 13214 92
13227 13196 35
13227 13247 95
13227 13265 42
13228 13001 398
13228 13165 192
13228 13339 592
13229 13210 144
13229 13181 49
13229 13234 26
13230 13218 743
13231 13211 30
13231 13237 74
13231 13251 21
13232 13233 199
13232 13219 16
13232 13253 22
13233 13232 199
13234 13229 26
13234 13246 72
13234 13297 81
13235 13220 18
13235 13273 46
13235 13277 220
13236 13215 229
13236 13191 50
13236 13279 51
13237 13231 74
13237 13185 55
13237 13245 99
13237 13282 50
13238 13239 24
13238 13198 45
13238 13242 136
13238 13275 42
13239 13238 24
13240 13219 213
13240 13209 40
13240 13268 272
13240 13272 38
13241 13199 49
13241 13273 184
13241 13291 66
13242 13238 136
13242 13203 46
13242 13278 42
13243 13244 33
13243 13261 110
13243 13299 77
13244 13243 33
13245 13237 99
13245 13192 57
13245 13250 101
13245 13286 54
13246 13234 72
13246 13207 49
13246 13264 107
13247 13227 95
13247 13213 39
13247 13259 84
13248 13206 50
13248 13251 111
13248 13288 57
13249 13223 156
13249 13214 40
13249 13265 92
13249 13283 47
13250 13245 101
13250 13197 58
13250 13290 55
13251 13248 111
13251 13231 21
13251 13280 33
13252 12993 357
13252 13165 118
13252 13266 289
13253 13232 22
13253 13269 17
13253 13272 212
13254 13255 199
13254 13166 449
13255 13254 199
13255 12908 479
13255 13360 148
13256 13215 50
13256 13279 229
13256 13363 152
13257 13258 267
13258 13257 267
13259 13247 84
13259 13224 41
13259 13260 3
13259 13271 13
13260 13259 3
13261 13243 110
13262 11609 3777
13262 13292 263
13262 13655 3083
13263 13218 50
13263 13274 15
13263 13287 95
13264 13246 107
13264 13221 49
13264 13283 164
13265 13249 92
13265 13227 42
13265 13276 48
13265 13296 43
13266 13252 289
13266 13267 159
13266 13350 490
13267 13266 159
13267 15274 203
13268 13240 272
13268 13226 44
13268 13293 40
13269 13270 201
13269 13253 17
13269 13284 23
13270 13269 201
13271 13259 13
13272 13253 212
13272 13240 38
13272 13293 276
13272 13301 43
13273 13241 184
13273 13235 46
13273 13281 7
13274 13263 15
13275 13238 42
13275 13278 137
13275 13298 37
13276 13265 48
13277 13235 220
13277 13210 82
13277 13297 170
13277 13300 40
13278 13275 137
13278 13242 42
13278 13303 38
13279 13256 229
13279 13236 51
13279 13311 53
13280 13251 33
13280 13282 75
13280 13289 21
13281 13273 7
13281 13304 37
13281 13306 220
13282 13280 75
13282 13237 50
13282 13285 7
13283 13264 164
13283 13249 47
13283 13296 93
13284 13269 23
13284 13294 17
13284 13301 212
13285 13282 7
13285 13286 99
13285 13318 54
13286 13285 99
13286 13245 54
13286 13290 96
13287 13263 95
13288 13248 57
13288 13289 110
13288 13323 51
13289 13280 21
13289 13288 110
13289 13309 31
13290 13286 96
13290 13250 55
13290 13330 54
13291 13241 66
13291 13312 175
13291 13329 52
13292 13262 263
13292 13317 368
13292 13397 403
13293 13272 276
13293 13268 40
13293 13320 42
13294 13295 197
13294 13284 17
13294 13308 24
13295 13294 197
13296 13283 93
13296 13265 43
13296 13326 47
13297 13277 170
13297 13234 81
13297 13313 178
13297 13319 38
13298 13275 37
13298 13303 137
13298 13322 37
13299 13243 77
13299 13302 91
13299 13305 11
13300 13277 40
13300 13306 11
13300 13319 170
13301 13284 212
13301 13272 43
13301 13320 279
13301 13328 39
13302 13299 91
13303 13298 137
13303 13278 38
13303 13324 35
13304 13281 37
13304 13312 18
13304 13333 220
13305 13299 11
13305 13307 99
13305 13355 66
13306 13281 220
13306 13300 11
13306 13333 36
13307 13305 99
13308 13294 24
13308 13328 210
13308 13342 42
13309 13289 31
13309 13318 76
13309 13323 130
13310 13311 228
13311 13310 228
13311 13279 53
13311 13348 49
13312 13291 175
13312 13304 18
13312 13332 25
13313 13297 178
13313 13314 74
13313 13315 1
13313 13344 41
13314 13313 74
13315 13313 1
13316 13216 130
13316 13323 293
13316 13343 38
13317 13292 368
13317 13322 173
13317 13397 187
13318 13309 76
13318 13285 54
13318 13331 177
13318 13338 25
13319 13300 170
13319 13297 38
13319 13321 4
13319 13344 177
13320 13301 279
13320 13293 42
13320 13353 38
13321 13319 4
13321 13383 120
13322 13317 173
13322 13298 37
13322 13324 138
13322 13352 37
13323 13288 51
13323 13309 130
13323 13316 293
13324 13322 138
13324 13303 35
13324 13356 40
13325 12963 1309
13326 13296 47
13326 13347 153
13326 13358 40
13327 13004 419
13327 13334 146
13328 13308 210
13328 13301 39
13328 13353 284
13328 13357 39
13329 13291 52
13329 13337 13
13329 13354 175
13330 13290 54
13330 13331 21
13330 13337 59
13331 13318 177
13331 13330 21
13331 13420 253
13332 13312 25
13332 13354 27
13332 13361 220
13333 13304 220
13333 13306 36
13333 13361 39
13334 13327 146
13334 13023 413
13334 13335 9
13334 13413 219
13335 13334 9
13335 13024 412
13335 13336 2
13335 13414 221
13336 13335 2
13336 13363 331
13337 13330 59
13337 13329 13
13337 13366 46
13337 13394 165
13338 13318 25
13339 13228 592
13339 12952 507
13339 13350 13
13339 13385 426
13340 12940 516
13340 13397 606
13341 13184 233
13341 13195 188
13341 13346 41
13342 13308 42
13342 13357 209
13342 13362 31
13343 13316 38
13344 13319 177
13344 13313 41
13344 13345 1
13344 13384 93
13345 13344 1
13346 13341 41
13346 13208 188
13346 13351 47
13347 13326 153
13347 13365 132
13347 13369 41
13348 13349 228
13348 13311 49
13348 13374 51
13349 13348 228
13350 13266 490
13350 13339 13
13350 13475 2570
13351 13346 47
13351 13212 186
13351 13360 62
13352 13322 37
13352 13356 139
13352 13370 42
13353 13328 284
13353 13320 38
13354 13329 175
13354 13332 27
13354 13359 9
13355 13305 66
13356 13352 139
13356 13324 40
13356 13372 38
13357 13342 209
13357 13328 39
13357 13385 83
13358 13326 40
13358 13369 150
13358 13371 37
13359 13354 9
13359 13375 220
13359 13377 46
13360 13351 62
13360 13255 148
13360 13367 20
13361 13332 220
13361 13333 39
13361 13375 39
13362 13342 31
13363 13336 331
13363 13256 152
13363 13364 1
13363 13382 60
13364 13363 1
13364 13374 228
13365 13347 132
13365 12928 577
13365 13378 41
13366 13337 46
13366 13377 158
13366 13395 116
13367 13360 20
13367 13423 208
13367 13633 2495
13368 12922 670
13368 12801 1820
13368 13425 333
13369 13358 150
13369 13347 41
13369 13378 137
13369 13379 38
13370 13352 42
13370 13372 139
13371 13358 37
13371 13376 52
13372 13370 139
13372 13356 38
13372 13373 56
13373 13372 56
13374 13364 228
13374 13348 51
13374 13380 260
13374 13388 61
13375 13359 220
13375 13361 39
13375 13381 28
13375 13383 166
13376 13371 52
13376 13379 99
13376 13386 40
13377 13366 158
13377 13359 46
13377 13398 91
13378 13369 137
13378 13365 41
13378 13387 40
13379 13376 99
13379 13369 38
13379 13387 138
13379 13391 40
13380 13374 260
13380 13092 417
13381 13375 28
13381 13389 31
13381 13390 166
13382 13363 60
13382 13388 230
13383 13375 166
13383 13321 120
13383 13390 32
13384 13344 93
13385 13339 426
13385 13357 83
13385 13413 458
13386 13376 40
13386 13391 99
13386 13392 42
13387 13379 138
13387 13378 40
13387 13396 41
13388 13382 230
13388 13374 61
13388 13434 181
13389 13381 31
13389 13393 170
13389 13400 42
13390 13381 166
13390 13383 32
13390 13393 26
13390 13407 197
13391 13386 99
13391 13379 40
13391 13396 143
13391 13404 41
13392 13386 42
13392 13404 99
13392 13408 41
13393 13389 170
13393 13390 26
13393 13405 19
13394 13337 165
13394 13395 37
13394 13444 262
13395 13394 37
13395 13366 116
13395 13398 147
13396 13391 143
13396 13387 41
13396 13411 41
13397 13292 403
13397 13317 187
13397 13340 606
13398 13395 147
13398 13377 91
13398 13400 222
13399 12615 2169
13399 13499 1283
13400 13398 222
13400 13389 42
13400 13405 173
13401 13402 241
13401 13403 60
13401 13419 63
13402 13401 241
13403 13401 60
13404 13392 99
13404 13391 41
13404 13411 144
13404 13412 40
13405 13400 173
13405 13393 19
13405 13407 189
13406 13119 473
13407 13405 189
13407 13390 197
13407 13415 306
13408 13392 41
13408 13412 98
13408 13415 37
13409 12756 1247
13409 13410 148
13409 13422 50
13410 13409 148
13410 15274 233
13411 13404 144
13411 13396 41
13411 13421 39
13412 13408 98
13412 13404 40
13412 13421 145
13412 13424 40
13413 13385 458
13413 13334 219
13413 13414 10
13414 13413 10
13414 13335 221
13414 13473 1678
13415 13407 306
13415 13408 37
13415 13424 96
13416 13417 48
13416 13426 40
13416 13429 246
13417 13416 48
13417 13418 237
13418 13417 237
13418 13419 6
13418 13429 41
13419 13418 6
13419 13401 63
13419 13423 63
13420 13331 253
13421 13412 145
13421 13411 39
13421 13427 29
13422 13409 50
13422 13459 580
13422 13620 2129
13423 13419 63
13423 13367 208
13423 13495 484
13423 15275 484
13424 13415 96
13424 13412 40
13424 13432 137
13425 13368 333
13425 13428 236
13425 13489 502
13426 13416 40
13426 13435 42
13426 13436 246
13427 13421 29
13427 13431 15
13427 13432 17
13428 13425 236
13428 13430 204
13428 13498 563
13429 13416 246
13429 13418 41
13429 13436 42
13430 13428 204
13431 13427 15
13431 13433 31
13431 13437 329
13432 13424 137
13432 13427 17
13432 13433 21
13433 13432 21
13433 13431 31
13433 13454 201
13434 13388 181
13435 13426 42
13435 13438 39
13435 13439 254
13436 13426 246
13436 13429 42
13436 13439 39
13437 13431 329
13438 13435 39
13438 13440 98
13438 13441 41
13439 13435 254
13439 13436 39
13439 13442 40
13440 13438 98
13440 13442 164
13440 13443 39
13441 13438 41
13441 13443 106
13441 13445 39
13442 13440 164
13442 13439 40
13442 13455 118
13443 13441 106
13443 13440 39
13443 13446 39
13444 13394 262
13444 13447 31
13444 13478 836
13445 13441 39
13445 13446 114
13445 13449 41
13446 13445 114
13446 13443 39
13446 13452 40
13447 13444 31
13447 13448 217
13447 13471 174
13448 13447 217
13448 13457 524
13448 13507 434
13449 13445 41
13449 13452 122
13449 13453 40
13450 13451 224
13450 13456 278
13450 13472 253
13451 13450 224
13452 13449 122
13452 13446 40
13452 13455 164
13452 13458 41
13453 13449 40
13453 13458 129
13453 13460 40
13454 13433 201
13454 13565 1128
13455 13452 164
13455 13442 118
13455 13464 42
13456 13450 278
13456 13459 233
13456 13472 531
13457 13448 524
13458 13453 129
13458 13452 41
13458 13464 165
13458 13465 39
13459 13422 580
13459 13456 233
13459 13461 16
13460 13453 40
13460 13465 137
13460 13466 41
13461 13459 16
13461 13485 178
13461 13491 600
13462 13463 466
13462 13564 3144
13462 13834 2824
13463 13462 466
13464 13458 165
13464 13455 42
13464 13467 39
13465 13460 137
13465 13458 39
13465 13467 166
13465 13468 40
13466 13460 41
13466 13468 145
13466 13469 42
13467 13465 166
13467 13464 39
13467 13474 40
13468 13466 145
13468 13465 40
13468 13474 166
13468 13476 41
13469 13466 42
13469 13476 154
13469 13477 46
13470 13471 74
13471 13470 74
13471 13447 174
13471 13492 89
13472 13450 253
13472 13456 531
13472 13501 356
13473 13414 1678
13473 13580 90
13474 13468 166
13474 13467 40
13474 13483 41
13475 13350 2570
13475 13581 91
13476 13469 154
13476 13468 41
13476 13483 167
13476 13484 42
13477 13469 46
13477 13484 164
13477 13490 43
13478 13444 836
13478 13479 375
13478 13486 50
13479 13478 375
13480 13481 306
13481 13480 306
13481 13482 203
13481 13523 231
13482 13481 203
13483 13476 167
13483 13474 41
13483 13493 43
13484 13477 164
13484 13476 42
13484 13493 168
13484 13496 45
13485 13461 178
13485 13488 91
13485 13500 63
13486 13478 50
13486 13487 124
13486 13517 139
13487 13486 124
13488 13485 91
13489 13425 502
13489 13498 289
13489 13498 1050
13490 13477 43
13490 13496 173
13490 13497 41
13491 13461 600
13492 13471 89
13492 13494 151
13492 13525 176
13493 13484 168
13493 13483 43
13493 13495 73
13493 13502 45
13494 13492 151
13495 13493 73
13495 13423 484
13495 15275 484
13495 13555 319
13496 13490 173
13496 13484 45
13496 13502 168
13496 13503 38
13497 13490 41
13497 13503 182
13497 13504 43
13498 13428 563
13498 13489 289
13498 13489 1050
13499 13399 1283
13499 13574 682
13499 13575 594
13500 13485 63
13501 13472 356
13501 13514 401
13501 13558 307
13502 13496 168
13502 13493 45
13502 13509 36
13503 13497 182
13503 13496 38
13503 13509 168
13503 13510 41
13504 13497 43
13504 13510 192
13504 13511 38
13505 13506 682
13505 13513 26
13506 13505 682
13507 13508 523
13507 13448 434
13507 13527 113
13508 13507 523
13509 13503 168
13509 13502 36
13509 13518 40
13510 13504 192
13510 13503 41
13510 13518 168
13510 13519 41
13511 13504 38
13511 13519 199
13511 13520 43
13512 13513 317
13512 13516 33
13513 13512 317
13513 13505 26
13514 13501 401
13514 13556 55
13515 13516 47
13515 13538 110
13516 13515 47
13516 13512 33
13517 13486 139
13517 13534 105
13517 13542 259
13518 13510 168
13518 13509 40
13518 13521 42
13519 13511 199
13519 13510 41
13519 13521 168
13519 13522 37
13520 13511 43
13520 13522 208
13520 13524 39
13521 13519 168
13521 13518 42
13521 13528 37
13522 13520 208
13522 13519 37
13522 13528 168
13522 13531 40
13523 13481 231
13523 13546 728
13523 13554 400
13524 13520 39
13524 13531 216
13524 13532 41
13525 13492 176
13525 13529 578
13525 13545 138
13526 13527 201
13527 13526 201
13527 13507 113
13527 13530 207
13527 13543 115
13528 13522 168
13528 13521 37
13528 13535 39
13529 13525 578
13529 13533 112
13529 13562 156
13530 13527 207
13531 13524 216
13531 13522 40
13531 13535 168
13531 13536 41
13532 13524 41
13532 13536 225
13533 13529 112
13533 13534 88
13533 13563 157
13534 13533 88
13534 13517 105
13534 13565 172
13535 13531 168
13535 13528 39
13535 13539 40
13536 13532 225
13536 13531 41
13536 13539 167
13536 13540 38
13537 13538 508
13537 13553 82
13538 13537 508
13538 13515 110
13539 13536 167
13539 13535 40
13539 13548 37
13540 13541 70
13540 13536 38
13540 13548 167
13541 13540 70
13542 13517 259
13542 13544 53
13542 13549 26
13543 13527 115
13543 13545 486
13543 13569 148
13544 13542 53
13545 13525 138
13545 13543 486
13545 13562 610
13546 13523 728
13546 12733 1912
13546 13547 11
13546 13593 398
13547 13546 11
13547 12733 1916
13547 13609 975
13548 13540 167
13548 13539 37
13548 13555 68
13549 13542 26
13550 13551 144
13550 13554 61
13550 13577 217
13551 13550 144
13552 13553 346
13552 13557 33
13553 13552 346
13553 13537 82
13554 13550 61
13554 13523 400
13555 13548 68
13555 13495 319
13555 13574 205
13556 13557 1194
13556 13514 55
13557 13556 1194
13557 13552 33
13558 13501 307
13558 13561 66
13558 13568 140
13559 13560 243
13560 13559 243
13561 13558 66
13562 13545 610
13562 13529 156
13562 13563 110
13563 13562 110
13563 13533 157
13563 13565 45
13564 13462 3144
13565 13563 45
13565 13534 172
13565 13454 1128
13565 13570 108
13566 13567 31
13567 13566 31
13568 13558 140
13569 13543 148
13569 13571 203
13569 13594 260
13570 13565 108
13571 13569 203
13572 13573 506
13573 13572 506
13574 13499 682
13574 13555 205
13574 13597 286
13575 13499 594
13575 13576 20
13575 13602 781
13576 13575 20
13576 13592 228
13577 13578 211
13577 13550 217
13577 13585 75
13578 13577 211
13579 13580 2320
13579 13587 125
13580 13579 2320
13580 13473 90
13581 13582 2319
13581 13475 91
13582 13581 2319
13582 13588 126
13583 13584 492
13584 13583 492
13585 13577 75
13585 13591 923
13585 13600 511
13586 13587 174
13587 13586 174
13587 13579 125
13588 13589 168
13588 13582 126
13589 13588 168
13590 13591 720
13591 13590 720
13591 13585 923
13591 13593 309
13592 13576 228
13592 13597 120
13593 13591 309
13593 13546 398
13593 13608 577
13594 13569 260
13594 13595 200
13594 13598 276
13595 13594 200
13595 13596 137
13596 13595 137
13597 13592 120
13597 13574 286
13597 13630 977
13598 13594 276
13598 13599 252
13598 13601 172
13599 13598 252
13600 13585 511
13601 13598 172
13601 13603 141
13601 13621 328
13602 13575 781
13603 13601 141
13603 13604 80
13603 13607 83
13604 13603 80
13605 13606 1066
13605 13608 103
13605 13614 370
13606 13605 1066
13607 13603 83
13608 13605 103
13608 13593 577
13608 13609 11
13608 13614 117
13609 13608 11
13609 13547 975
13609 13610 13
13610 13609 13
13610 13611 36
13610 13615 1886
13611 13610 36
13611 13619 433
13611 13626 209
13612 13613 247
13613 13612 247
13613 13633 366
13613 13648 422
13614 13608 117
13614 13605 370
13614 13840 1182
13615 13610 1886
13615 13627 650
13615 13696 608
13616 13617 116
13617 13616 116
13617 13618 297
13617 13622 87
13617 13624 160
13618 13617 297
13619 13611 433
13620 13422 2129
13620 13634 219
13620 13682 591
13621 13601 328
13622 13617 87
13622 13623 113
13622 13634 393
13623 13622 113
13624 13617 160
13624 13625 175
13624 13656 420
13625 13624 175
13626 13611 209
13626 13635 359
13626 13698 503
13627 13615 650
13627 13628 4
13627 13713 503
13628 13627 4
13628 13629 343
13628 13631 146
13629 13628 343
13630 13597 977
13631 13628 146
13631 13632 525
13631 13647 451
13632 13631 525
13633 13613 366
13633 13367 2495
13633 13675 413
13634 13620 219
13634 13622 393
13634 13645 289
13635 13626 359
13635 13640 187
13635 13712 479
13636 13637 61
13636 13638 55
13636 13639 40
13637 13636 61
13638 13636 55
13639 13636 40
13640 13635 187
13640 13643 82
13640 13669 236
13641 13642 49
13641 13650 96
13642 13641 49
13642 13657 98
13643 13640 82
13643 13644 166
13643 13652 328
13644 13643 166
13645 13646 58
13645 13634 289
13645 13656 160
13646 13645 58
13647 13631 451
13647 13665 631
13648 13613 422
13648 13651 26
13648 13654 57
13649 13650 235
13649 13651 27
13649 13653 72
13650 13649 235
13650 13641 96
13651 13649 27
13651 13648 26
13651 13654 37
13652 13643 328
13653 13649 72
13653 13658 58
13653 13661 79
13654 13651 37
13654 13648 57
13654 13677 158
13655 13262 3083
13655 13746 791
13655 14998 5310
13656 13645 160
13656 13624 420
13656 13684 123
13657 13658 153
13657 13642 98
13658 13657 153
13658 13653 58
13658 13662 24
13659 13660 57
13659 13674 61
13659 13687 253
13660 13659 57
13661 13653 79
13661 13663 74
13661 13683 187
13662 13658 24
13662 13663 14
13662 13664 17
13663 13662 14
13663 13661 74
13663 13664 21
13664 13662 17
13664 13663 21
13664 13670 147
13665 13647 631
13665 13834 1888
13666 13667 49
13666 13668 35
13666 13693 104
13667 13666 49
13668 13666 35
13669 13640 236
13670 13671 140
13670 13664 147
13670 13699 138
13671 13670 140
13672 13673 33
13672 13676 21
13672 13723 303
13673 13672 33
13674 13659 61
13674 13678 55
13674 13701 106
13675 13633 413
13675 13677 17
13675 13682 23
13676 13672 21
13676 13679 14
13676 13730 171
13677 13654 158
13677 13675 17
13677 13683 26
13678 13674 55
13679 13676 14
13679 13680 71
13679 13681 8
13680 13679 71
13681 13679 8
13682 13675 23
13682 13620 591
13682 13689 27
13683 13661 187
13683 13677 26
13683 13688 11
13684 13656 123
13685 13686 184
13685 13696 458
13686 13685 184
13687 13659 253
13687 13709 497
13687 13711 157
13688 13683 11
13688 13691 10
13688 13818 587
13689 13682 27
13689 13690 11
13689 13692 24
13690 13689 11
13690 13695 80
13690 13777 406
13691 13688 10
13691 13692 10
13692 13691 10
13692 13689 24
13692 13772 342
13693 13666 104
13693 13694 160
13693 13737 140
13694 13693 160
13695 13690 80
13695 13708 170
13695 13732 143
13696 13685 458
13696 13615 608
13696 13697 84
13697 13696 84
13697 13700 329
13697 13733 107
13698 13626 503
13698 13712 133
13698 13757 206
13699 13670 138
13699 13767 250
13700 13697 329
13700 13702 7
13701 13674 106
13702 13700 7
13702 13703 42
13702 13704 33
13703 13702 42
13704 13702 33
13704 13705 98
13704 13713 150
13705 13704 98
13706 13707 136
13707 13706 136
13708 13695 170
13708 13714 115
13708 13798 306
13709 13687 497
13709 13710 175
13709 13843 770
13710 13709 175
13711 13687 157
13711 13734 151
13711 13819 512
13712 13698 133
13712 13635 479
13712 13725 136
13713 13704 150
13713 13627 503
13713 13806 557
13714 13708 115
13714 13715 159
13714 13716 4
13715 13714 159
13716 13714 4
13716 13717 86
13716 13776 264
13717 13718 91
13717 13716 86
13717 13774 206
13718 13717 91
13718 13724 110
13718 13744 91
13719 13720 167
13719 13721 170
13719 13730 116
13720 13719 167
13721 13719 170
13721 13731 43
13721 13741 233
13722 13723 6
13722 13727 68
13722 13748 87
13723 13722 6
13723 13672 303
13723 13726 47
13724 13718 110
13724 13729 106
13724 13755 118
13725 13712 136
13725 13735 36
13725 13768 203
13726 13723 47
13726 13730 95
13726 13754 111
13727 13728 81
13727 13722 68
13727 13729 49
13728 13727 81
13729 13727 49
13729 13724 106
13729 13745 114
13730 13726 95
13730 13676 171
13730 13719 116
13731 13721 43
13731 13739 26
13731 13740 66
13732 13695 143
13733 13697 107
13734 13711 151
13735 13736 113
13735 13725 36
13735 13743 58
13736 13735 113
13737 13693 140
13737 13738 40
13737 13750 60
13738 13737 40
13739 13731 26
13740 13731 66
13741 13721 233
13741 13742 127
13741 13749 50
13742 13741 127
13743 13735 58
13744 13718 91
13745 13729 114
13745 13748 45
13745 13797 245
13746 13747 985
13746 13655 791
13746 13834 2508
13747 13746 985
13748 13745 45
13748 13722 87
13748 13793 257
13749 13741 50
13749 13752 26
13749 13758 51
13750 13737 60
13750 13751 29
13750 13765 34
13751 13750 29
13752 13749 26
13752 13753 101
13752 13773 83
13753 13752 101
13754 13726 111
13755 13724 118
13755 13756 90
13755 13789 110
13756 13755 90
13757 13698 206
13757 13768 211
13757 13842 331
13758 13759 38
13758 13749 51
13758 13785 81
13759 13758 38
13760 13761 35
13760 13763 64
13760 13792 239
13761 13760 35
13762 13763 28
13763 13762 28
13763 13764 19
13763 13760 64
13763 13786 86
13764 13763 19
13765 13750 34
13765 13766 20
13765 13783 68
13766 13765 20
13767 13699 250
13767 13782 96
13767 14017 1086
13768 13757 211
13768 13725 203
13768 13775 335
13769 13770 46
13770 13769 46
13770 13771 101
13770 13795 114
13771 13770 101
13772 13692 342
13772 13777 25
13772 13779 35
13773 13752 83
13773 13778 167
13773 13785 137
13774 13717 206
13774 13776 103
13774 13790 127
13775 13768 335
13776 13716 264
13776 13774 103
13776 13828 228
13777 13772 25
13777 13690 406
13777 13779 27
13777 13866 313
13778 13773 167
13778 13780 44
13778 13799 120
13779 13772 35
13779 13777 27
13779 13835 285
13780 13778 44
13780 13781 472
13780 13787 28
13781 13780 472
13782 13767 96
13782 13807 203
13782 13831 254
13783 13765 68
13783 13784 110
13783 13788 19
13784 13783 110
13785 13758 81
13785 13773 137
13785 13809 179
13786 13763 86
13787 13780 28
13787 13788 102
13787 13849 216
13788 13787 102
13788 13783 19
13788 13791 17
13789 13790 116
13789 13755 110
13789 13812 293
13790 13789 116
13790 13774 127
13790 13815 115
13791 13788 17
13791 13792 123
13791 13808 81
13792 13760 239
13792 13791 123
13792 13819 263
13793 13748 257
13793 13794 68
13793 13795 37
13794 13793 68
13795 13793 37
13795 13770 114
13795 13796 23
13796 13795 23
13796 13800 41
13796 13839 241
13797 13745 245
13798 13708 306
13798 13805 49
13798 13832 143
13799 13778 120
13800 13796 41
13800 13801 16
13800 13810 31
13801 13800 16
13802 13803 701
13803 13802 701
13803 13804 985
13803 14027 1088
13804 13803 985
13805 13798 49
13806 13713 557
13807 13782 203
13807 13814 39
13807 13818 37
13808 13791 81
13808 13811 22
13808 13849 156
13809 13785 179
13809 13817 125
13810 13800 31
13811 13808 22
13812 13789 293
13812 13813 26
13812 13823 117
13813 13812 26
13814 13807 39
13814 13820 41
13814 13825 60
13815 13790 115
13815 13816 61
13815 13824 31
13816 13815 61
13817 13809 125
13817 13836 78
13817 13850 250
13818 13807 37
13818 13688 587
13818 13998 791
13819 13792 263
13819 13711 512
13819 13896 340
13820 13814 41
13820 13833 68
13821 13822 33
13821 13824 110
13821 13827 41
13822 13821 33
13822 13826 230
13822 13829 37
13823 13812 117
13824 13815 31
13824 13821 110
13824 13828 236
13825 13814 60
13825 13830 63
13825 13833 61
13826 13822 230
13827 13821 41
13828 13776 228
13828 13832 172
13828 13824 236
13829 13822 37
13830 13825 63
13830 13848 61
13830 13854 84
13831 13782 254
13832 13798 143
13832 13828 172
13832 13838 49
13833 13825 61
13833 13820 68
13833 13854 55
13834 13665 1888
13834 13462 2824
13834 13746 2508
13834 14904 3233
13835 13779 285
13835 13886 221
13835 13911 408
13836 13837 76
13836 13817 78
13836 13859 77
13837 13836 76
13838 13832 49
13838 13847 51
13838 13868 118
13839 13796 241
13839 13846 36
13839 13874 192
13840 13841 1241
13840 13614 1182
13840 13842 11
13840 14092 1147
13841 13840 1241
13842 13840 11
13842 13757 331
13842 13853 30
13843 13709 770
13843 13844 65
13843 13845 67
13843 13916 474
13844 13843 65
13845 13843 67
13846 13839 36
13847 13838 51
13847 13860 292
13847 13868 105
13848 13830 61
13848 13856 61
13848 13865 107
13849 13787 216
13849 13808 156
13849 13862 54
13850 13817 250
13850 13851 16
13850 13891 197
13851 13850 16
13851 13852 115
13851 13863 132
13852 13851 115
13853 13842 30
13853 13855 354
13853 14089 1109
13854 13830 84
13854 13833 55
13854 13865 57
13855 13853 354
13856 13848 61
13856 13861 62
13856 13876 129
13857 13858 11
13858 13857 11
13858 13859 9
13858 13864 80
13859 13836 77
13859 13858 9
13859 13892 166
13860 13847 292
13860 13866 99
13860 13870 112
13861 13856 62
13861 13867 59
13861 13882 153
13862 13849 54
13862 13863 5
13862 13869 111
13863 13851 132
13863 13862 5
13863 13966 398
13864 13858 80
13865 13848 107
13865 13854 57
13865 13876 53
13866 13777 313
13866 13860 99
13866 13910 189
13867 13861 59
13867 13877 57
13867 13895 166
13868 13847 105
13868 13838 118
13868 13878 46
13869 13862 111
13870 13860 112
13871 13872 207
13871 13873 60
13871 13875 2
13872 13871 207
13873 13871 60
13874 13839 192
13874 13888 71
13874 13892 134
13875 13871 2
13875 13885 51
13875 13958 516
13876 13856 129
13876 13865 53
13876 13882 58
13877 13867 57
13877 13887 53
13877 13903 164
13878 13868 46
13878 13881 90
13878 13893 53
13879 13880 25
13879 13883 155
13879 13889 32
13880 13879 25
13881 13878 90
13882 13861 153
13882 13876 58
13882 13895 54
13883 13879 155
13883 13884 114
13883 13941 216
13884 13883 114
13885 13875 51
13886 13835 221
13886 13911 190
13886 13925 196
13887 13877 53
13887 13909 100
13887 13913 164
13888 13874 71
13889 13879 32
13889 13890 32
13889 13928 146
13890 13889 32
13891 13850 197
13891 13902 114
13891 13914 127
13892 13874 134
13892 13859 166
13892 13898 74
13893 13878 53
13893 13894 28
13893 13897 73
13894 13893 28
13895 13867 166
13895 13882 54
13895 13903 59
13896 13819 340
13897 13893 73
13898 13892 74
13898 13912 72
13898 13914 146
13899 13900 41
13899 13901 69
13899 13904 77
13900 13899 41
13901 13899 69
13902 13891 114
13903 13877 164
13903 13895 59
13903 13913 58
13904 13899 77
13904 13905 48
13904 13921 63
13905 13904 48
13906 13907 77
13907 13906 77
13907 13908 40
13907 13951 150
13908 13907 40
13909 13887 100
13909 13922 59
13909 13940 169
13910 13866 189
13910 13919 259
13910 13933 79
13911 13886 190
13911 13835 408
13911 13929 62
13912 13898 72
13912 13917 32
13912 13927 36
13913 13887 164
13913 13903 58
13913 13940 100
13914 13898 146
13914 13891 127
13914 13923 14
13915 13916 134
13916 13915 134
13916 13843 474
13916 13976 236
13917 13912 32
13917 13918 24
13917 13920 17
13918 13917 24
13919 13910 259
13919 13924 94
13919 13938 77
13920 13917 17
13921 13904 63
13921 13977 261
13921 14034 329
13922 13909 59
13922 13935 55
13922 13954 173
13923 13914 14
13923 13932 68
13923 13952 176
13924 13919 94
13924 13926 195
13924 13981 205
13925 13886 196
13925 13929 230
13925 14004 297
13926 13924 195
13926 13928 43
13926 13975 169
13927 13912 36
13928 13926 43
13928 13889 146
13928 13941 134
13929 13925 230
13929 13911 62
13929 13930 24
13930 13929 24
13930 13931 57
13930 13953 76
13931 13930 57
13931 13934 52
13931 13970 123
13932 13923 68
13933 13910 79
13933 13934 52
13934 13931 52
13934 13933 52
13934 13971 118
13935 13922 55
13935 13946 56
13935 13969 180
13936 13937 408
13937 13936 408
13937 13939 45
13937 13960 125
13938 13919 77
13938 13963 94
13938 13988 176
13939 13937 45
13940 13909 169
13940 13913 100
13940 13954 55
13941 13928 134
13941 13883 216
13941 13942 11
13942 13941 11
13942 13947 80
13942 14022 233
13943 13944 48
13943 13945 75
13943 13967 82
13944 13943 48
13945 13943 75
13946 13935 56
13946 13959 55
13946 13983 188
13947 13942 80
13947 13948 47
13947 13951 62
13948 13947 47
13949 13950 23
13949 15281 35
13950 13949 23
13950 13953 274
13950 13974 83
13951 13947 62
13951 13907 150
13951 13955 95
13952 13923 176
13952 13966 145
13952 13982 114
13953 13950 274
13953 13930 76
13953 13968 48
13954 13922 173
13954 13940 55
13954 13969 57
13955 13951 95
13955 13961 65
13955 14023 183
13956 13957 84
13956 13958 39
13956 13965 38
13957 13956 84
13958 13956 39
13958 13875 516
13958 13987 94
13959 13946 55
13959 13972 73
13959 14002 195
13960 13937 125
13961 13955 65
13961 13962 151
13961 13964 22
13962 13961 151
13963 13938 94
13964 13961 22
13964 13967 40
13964 13980 55
13965 13956 38
13966 13952 145
13966 13863 398
13966 13979 64
13967 13964 40
13967 13943 82
13967 13987 332
13968 13953 48
13968 13970 57
13968 13978 34
13969 13935 180
13969 13954 57
13969 13983 57
13970 13968 57
13970 13931 123
13970 13971 48
13970 13984 51
13971 13970 48
13971 13934 118
13972 13959 73
13972 13986 53
13972 14005 138
13973 13974 74
13974 13973 74
13974 13950 83
13974 13978 278
13974 13989 52
13975 13926 169
13976 13916 236
13977 13921 261
13977 13979 24
13977 13996 84
13978 13974 278
13978 13968 34
13978 14072 236
13979 13966 64
13979 13977 24
13979 14041 152
13980 13964 55
13981 13924 205
13981 13997 132
13981 14066 205
13982 13952 114
13982 14000 117
13982 14030 111
13983 13946 188
13983 13969 57
13983 14002 55
13984 13970 51
13984 13985 70
13984 14008 56
13985 13984 70
13986 13972 53
13986 14012 100
13986 14027 591
13987 13967 332
13987 13958 94
13987 13993 97
13988 13938 176
13988 14066 235
13989 13990 97
13989 13974 52
13989 13995 107
13989 14009 40
13990 13989 97
13991 13992 99
13991 13993 57
13991 13999 72
13992 13991 99
13993 13994 42
13993 13991 57
13993 13987 97
13994 13993 42
13995 13989 107
13996 13977 84
13997 13981 132
13997 14015 28
13997 14022 166
13998 13818 791
13998 14003 11
13998 14004 20
13999 13991 72
13999 14007 54
13999 14053 130
14000 13982 117
14001 14002 14
14001 14005 68
14001 14078 218
14002 14001 14
14002 13959 195
14002 13983 55
14002 14003 19
14003 14002 19
14003 13998 11
14003 14016 30
14004 13998 20
14004 13925 297
14004 14011 13
14005 13972 138
14005 14001 68
14005 14006 15
14006 14005 15
14006 14012 44
14006 14080 209
14007 13999 54
14007 14021 49
14007 14063 123
14008 13984 56
14008 14014 75
14008 14035 56
14009 14010 57
14009 13989 40
14009 14069 138
14010 14009 57
14010 14011 85
14010 14032 53
14011 14004 13
14011 14010 85
14011 14013 4
14012 13986 100
14012 14006 44
14012 14024 184
14012 14044 67
14013 14011 4
14013 14016 4
14014 14008 75
14015 13997 28
14015 14043 89
14015 14045 76
14016 14013 4
14016 14003 30
14016 14154 399
14017 13767 1086
14018 14019 35
14018 14020 129
14018 14070 216
14019 14018 35
14020 14018 129
14021 14007 49
14021 14025 31
14021 14064 105
14022 13997 166
14022 13942 233
14022 14037 45
14023 13955 183
14024 14012 184
14024 14029 167
14024 14051 65
14025 14021 31
14025 14026 103
14025 14028 111
14026 14025 103
14027 13803 1088
14027 13986 591
14027 14038 136
14028 14025 111
14028 14030 15
14028 14054 112
14029 14024 167
14029 14036 113
14029 14059 65
14030 14028 15
14030 13982 111
14030 14031 32
14031 14030 32
14031 14040 147
14031 14068 81
14032 14033 78
14032 14010 53
14032 14056 52
14033 14032 78
14034 13921 329
14034 14042 140
14034 14141 4148
14035 14008 56
14035 14039 79
14035 14060 56
14036 14029 113
14036 14038 56
14036 14065 64
14037 14022 45
14037 14048 145
14037 14090 256
14038 14036 56
14038 14027 136
14038 14104 218
14039 14035 79
14040 14031 147
14040 14041 31
14040 14178 375
14041 14040 31
14041 13979 152
14041 14042 93
14042 14041 93
14042 14034 140
14042 14067 68
14043 14015 89
14044 14012 67
14044 14047 55
14044 14082 137
14045 14046 30
14045 14015 76
14045 14050 16
14046 14045 30
14047 14044 55
14047 14049 62
14047 14094 180
14048 14037 145
14049 14047 62
14049 14051 74
14049 14120 250
14050 14045 16
14050 14058 47
14050 14074 92
14051 14024 65
14051 14049 74
14051 14052 58
14051 14131 253
14052 14051 58
14052 14055 53
14052 14130 246
14053 13999 130
14053 14088 155
14054 14028 112
14055 14052 53
14055 14059 59
14055 14132 241
14056 14057 87
14056 14032 52
14056 14071 51
14057 14056 87
14058 14050 47
14059 14029 65
14059 14055 59
14059 14062 55
14059 14138 240
14060 14035 56
14060 14061 80
14060 14073 55
14061 14060 80
14062 14059 55
14062 14065 60
14062 14137 233
14063 14007 123
14064 14021 105
14064 14088 251
14065 14036 64
14065 14062 60
14065 14105 159
14066 13981 205
14066 13988 235
14066 14100 186
14067 14042 68
14068 14031 81
14069 14009 138
14069 14072 272
14069 14076 57
14070 14018 216
14070 14083 74
14070 14087 116
14071 14056 51
14071 14077 160
14071 14085 57
14072 14069 272
14072 13978 236
14072 14084 51
14073 14060 55
14073 14075 80
14073 14086 50
14074 14050 92
14075 14073 80
14076 14069 57
14076 14081 151
14076 14091 57
14077 14071 160
14077 14085 105
14077 14095 53
14078 14001 218
14078 14079 19
14078 14080 42
14079 14078 19
14080 14006 209
14080 14078 42
14080 14082 49
14080 14161 199
14081 14076 151
14081 14084 126
14081 14097 55
14082 14044 137
14082 14080 49
14082 14093 47
14083 14070 74
14083 14087 142
14083 14096 55
14084 14081 126
14084 14072 51
14084 14086 43
14085 14077 105
14085 14071 57
14085 14098 50
14086 14084 43
14086 14073 50
14086 14101 60
14087 14083 142
14087 14070 116
14087 14099 89
14088 14053 155
14088 14064 251
14088 14108 64
14089 13853 1109
14089 14092 16
14089 14202 272
14090 14037 256
14090 14118 104
14090 14361 622
14091 14076 57
14091 14097 149
14091 14109 53
14092 13840 1147
14092 14089 16
14092 14113 107
14092 14208 271
14093 14082 47
14093 14094 72
14093 14117 77
14094 14047 180
14094 14093 72
14094 14116 76
14095 14077 53
14095 14098 98
14095 14110 52
14096 14083 55
14096 14099 241
14096 14107 43
14097 14091 149
14097 14081 55
14097 14101 167
14097 14112 53
14098 14095 98
14098 14085 50
14098 14114 59
14099 14096 241
14099 14087 89
14099 14102 137
14100 14066 186
14100 14127 136
14100 14192 206
14101 14097 167
14101 14086 60
14101 14106 121
14101 14115 53
14102 14099 137
14102 14103 117
14102 14122 60
14103 14102 117
14104 14038 218
14104 14105 54
14104 14162 126
14105 14104 54
14105 14065 159
14105 14136 68
14106 14101 121
14107 14096 43
14107 14111 89
14107 14139 68
14108 14088 64
14108 14178 481
14108 14362 1007
14109 14091 53
14109 14112 148
14109 14140 49
14110 14095 52
14110 14114 99
14110 14156 92
14111 14107 89
14111 14122 314
14112 14109 148
14112 14097 53
14112 14115 169
14112 14142 47
14113 14092 107
14113 14146 135
14113 14204 215
14114 14110 99
14114 14098 59
14114 14166 84
14115 14112 169
14115 14101 53
14115 14121 117
14115 14144 47
14116 14094 76
14116 14117 79
14116 14120 67
14116 14158 70
14117 14116 79
14117 14093 77
14117 14160 73
14118 14090 104
14118 14119 33
14118 14149 97
14119 14118 33
14120 14049 250
14120 14116 67
14120 14131 72
14120 14159 70
14121 14115 117
14122 14111 314
14122 14102 60
14122 14123 51
14122 14151 57
14123 14122 51
14123 14124 238
14123 14125 47
14124 14123 238
14125 14123 47
14125 14126 218
14125 14128 48
14126 14125 218
14127 14100 136
14128 14125 48
14128 14129 124
14128 14133 44
14129 14128 124
14130 14052 246
14130 14131 56
14130 14132 55
14131 14130 56
14131 14051 253
14131 14120 72
14131 14173 75
14132 14055 241
14132 14130 55
14132 14138 55
14133 14128 44
14133 14134 91
14133 14135 32
14134 14133 91
14135 14133 32
14135 14157 53
14136 14105 68
14136 14137 60
14136 14167 58
14137 14136 60
14137 14062 233
14137 14138 59
14137 14168 60
14138 14137 59
14138 14059 240
14138 14132 55
14138 14171 60
14139 14107 68
14139 14143 24
14139 14145 288
14140 14109 49
14140 14142 147
14140 14169 54
14141 14034 4148
14142 14140 147
14142 14112 47
14142 14144 168
14142 14174 58
14143 14139 24
14143 14177 61
14144 14142 168
14144 14115 47
14144 14147 113
14144 14179 57
14145 14139 288
14145 14148 8
14146 14113 135
14146 14204 124
14146 14204 311
14147 14144 113
14148 14145 8
14148 14151 136
14148 14181 52
14149 14118 97
14149 14150 129
14149 14191 163
14150 14149 129
14151 14148 136
14151 14122 57
14151 14157 222
14152 14153 88
14153 14152 88
14153 14155 55
14153 14265 270
14154 14016 399
14154 14156 18
14154 14324 387
14155 14153 55
14155 14206 126
14155 14260 258
14156 14154 18
14156 14110 92
14156 14166 87
14156 14196 68
14156 15283 68
14157 14151 222
14157 14135 53
14157 14162 103
14157 14190 50
14158 14116 70
14158 14159 54
14158 14160 88
14159 14120 70
14159 14158 54
14159 14175 21
14160 14158 88
14160 14117 73
14160 14161 47
14160 14199 72
14161 14160 47
14161 14080 199
14161 14165 57
14162 14157 103
14162 14104 126
14162 14167 57
14163 14164 271
14163 14258 574
14163 14274 381
14164 14163 271
14165 14161 57
14166 14156 87
14166 14114 84
14166 14169 58
14167 14162 57
14167 14136 58
14167 14168 60
14167 14195 61
14168 14167 60
14168 14137 60
14168 14171 59
14169 14166 58
14169 14140 54
14169 14170 19
14170 14169 19
14170 14172 64
14170 14203 70
14171 14168 59
14171 14138 60
14171 14173 164
14171 14200 64
14172 14170 64
14172 14174 65
14172 14252 225
14173 14171 164
14173 14131 75
14173 14175 82
14173 14197 57
14174 14172 65
14174 14142 58
14174 14176 79
14174 14227 125
14175 14173 82
14175 14159 21
14175 14198 50
14176 14174 79
14176 14179 89
14176 14209 63
14177 14143 61
14177 14183 11
14177 14188 310
14178 14040 375
14178 14108 481
14178 14476 786
14179 14176 89
14179 14144 57
14179 14180 114
14179 14211 61
14180 14179 114
14181 14148 52
14181 14182 46
14181 14188 12
14182 14181 46
14182 14184 64
14182 14212 58
14183 14177 11
14183 14193 57
14183 14201 38
14184 14182 64
14184 14185 48
14184 14214 58
14185 14184 48
14185 14186 46
14185 14244 169
14186 14185 46
14186 14187 50
14186 14275 238
14187 14186 50
14187 14189 53
14187 14241 160
14188 14177 310
14188 14181 12
14188 14210 41
14189 14187 53
14189 14190 56
14189 14243 161
14190 14189 56
14190 14157 50
14190 14269 218
14191 14149 163
14192 14100 206
14193 14183 57
14193 14205 52
14193 14263 199
14194 14195 56
14194 14233 104
14195 14194 56
14195 14167 61
14195 14200 121
14195 14215 51
14196 14156 68
14196 15283 68
14196 14203 156
14196 14219 67
14197 14173 57
14197 14198 68
14197 14223 67
14198 14197 68
14198 14175 50
14198 14199 156
14198 14225 69
14199 14198 156
14199 14160 72
14199 14224 65
14200 14195 121
14200 14171 64
14200 14218 51
14201 14183 38
14201 14210 310
14201 14216 45
14202 14089 272
14202 14208 14
14202 14398 496
14203 14196 156
14203 14170 70
14203 14228 67
14204 14146 124
14204 14113 215
14204 14146 311
14204 14208 382
14205 14193 52
14205 14261 177
14206 14155 126
14206 14207 187
14206 14222 55
14207 14206 187
14207 14302 327
14207 14305 278
14208 14092 271
14208 14202 14
14208 14204 382
14208 14731 1347
14209 14176 63
14209 14211 88
14209 14230 62
14210 14201 310
14210 14188 41
14210 14220 49
14211 14209 88
14211 14179 61
14211 14213 117
14211 14231 63
14212 14182 58
14212 14214 66
14212 14221 41
14213 14211 117
14214 14212 66
14214 14184 58
14214 14226 44
14215 14195 51
14215 14217 66
14215 14253 121
14216 14201 45
14216 14220 308
14216 14236 54
14217 14215 66
14217 14218 56
14217 14255 122
14218 14217 56
14218 14200 51
14218 14223 176
14218 14235 45
14219 14196 67
14219 14228 148
14219 14240 65
14220 14216 308
14220 14210 49
14220 14221 50
14220 14237 47
14221 14220 50
14221 14212 41
14221 14226 67
14222 14206 55
14222 14251 249
14222 14257 114
14223 14218 176
14223 14197 67
14223 14225 69
14223 14239 57
14224 14199 65
14224 14225 161
14224 14285 161
14225 14223 69
14225 14198 69
14225 14224 161
14225 14268 127
14226 14221 67
14226 14214 44
14227 14174 125
14227 14229 68
14227 14254 99
14228 14219 148
14228 14203 67
14228 14242 64
14229 14227 68
14229 14230 9
14229 14246 82
14230 14229 9
14230 14209 62
14230 14231 91
14231 14230 91
14231 14211 63
14231 14232 111
14232 14231 111
14233 14194 104
14233 14234 4
14233 14287 184
14233 14287 132
14234 14233 4
14235 14218 45
14235 14239 175
14235 14256 77
14236 14216 54
14236 14237 307
14236 14245 40
14237 14236 307
14237 14220 47
14237 14238 114
14237 14248 44
14238 14237 114
14239 14235 175
14239 14223 57
14239 14266 68
14240 14219 65
14240 14242 142
14240 14262 58
14241 14187 160
14241 14243 52
14241 14314 165
14242 14240 142
14242 14228 64
14242 14270 60
14243 14241 52
14243 14189 161
14243 14267 57
14244 14185 169
14245 14236 40
14245 14248 307
14245 14264 45
14246 14229 82
14246 14247 38
14247 14246 38
14247 14250 142
14247 14280 71
14248 14245 307
14248 14237 44
14248 14249 120
14248 14273 49
14249 14248 120
14250 14247 142
14251 14222 249
14251 14257 138
14251 14278 58
14252 14172 225
14252 14254 78
14252 14301 93
14253 14215 121
14253 14255 66
14253 14290 67
14254 14252 78
14254 14227 99
14254 14277 55
14255 14253 66
14255 14217 122
14255 14256 59
14256 14255 59
14256 14235 77
14256 14266 179
14256 14299 75
14257 14222 114
14257 14251 138
14257 14260 46
14258 14259 32
14258 14163 574
14258 14261 43
14259 14258 32
14259 14288 47
14260 14155 258
14260 14257 46
14260 14265 56
14261 14258 43
14261 14205 177
14261 14263 48
14262 14240 58
14262 14270 136
14262 14296 62
14263 14261 48
14263 14193 199
14263 14264 54
14264 14263 54
14264 14245 45
14264 14273 305
14264 14291 48
14265 14153 270
14265 14260 56
14265 14295 55
14266 14256 179
14266 14239 68
14266 14268 67
14266 14307 87
14267 14243 57
14267 14269 47
14267 14321 115
14268 14266 67
14268 14225 127
14268 14285 189
14268 14311 86
14269 14267 47
14269 14190 218
14269 14322 114
14270 14262 136
14270 14242 60
14270 14300 61
14271 14272 22
14271 14349 203
14271 14351 159
14272 14271 22
14273 14264 305
14273 14248 49
14273 14276 164
14273 14293 41
14274 14163 381
14275 14186 238
14276 14273 164
14277 14254 55
14277 14279 78
14277 14306 57
14278 14251 58
14278 14295 239
14278 14309 58
14279 14277 78
14279 14280 15
14279 14336 123
14280 14279 15
14280 14247 71
14280 14281 35
14281 14280 35
14281 14282 49
14281 14340 122
14282 14281 49
14282 14286 43
14282 14342 123
14283 14284 447
14283 14294 40
14283 14303 45
14284 14283 447
14285 14268 189
14285 14224 161
14285 14320 82
14286 14282 43
14286 14318 78
14287 14233 184
14287 14233 132
14287 14289 52
14287 14395 246
14288 14259 47
14288 14291 175
14288 14308 45
14289 14287 52
14289 14290 5
14289 14396 240
14290 14289 5
14290 14253 67
14290 14292 60
14291 14288 175
14291 14264 48
14291 14293 305
14291 14310 44
14292 14290 60
14292 14297 57
14292 14334 98
14293 14291 305
14293 14273 41
14293 14298 219
14293 14313 48
14294 14283 40
14294 14302 144
14294 14303 50
14295 14265 55
14295 14278 239
14295 14315 58
14296 14262 62
14296 14300 135
14296 14327 69
14297 14292 57
14297 14299 10
14297 14335 90
14298 14293 219
14299 14297 10
14299 14256 75
14299 14304 143
14300 14296 135
14300 14270 61
14300 14301 63
14301 14300 63
14301 14252 93
14301 14306 122
14302 14207 327
14302 14294 144
14302 14305 54
14303 14283 45
14303 14294 50
14303 14608 770
14304 14299 143
14304 14307 16
14304 14343 83
14305 14207 278
14305 14302 54
14305 14309 49
14306 14301 122
14306 14277 57
14306 14333 69
14307 14304 16
14307 14266 87
14307 14311 90
14308 14288 45
14308 14310 173
14308 14326 44
14309 14278 58
14309 14305 49
14309 14315 239
14310 14308 173
14310 14291 44
14310 14313 303
14310 14332 48
14311 14307 90
14311 14268 86
14311 14312 35
14312 14311 35
14312 14320 163
14312 14346 65
14313 14310 303
14313 14293 48
14313 14314 271
14313 14338 64
14314 14313 271
14314 14241 165
14314 14319 10
14315 14295 58
14315 14309 239
14315 14328 130
14315 14352 59
14316 14317 343
14316 14402 185
14317 14316 343
14318 14286 78
14318 14331 325
14318 14345 46
14319 14314 10
14319 14321 53
14319 14348 47
14320 14312 163
14320 14285 82
14320 14323 68
14321 14319 53
14321 14267 115
14321 14322 44
14321 14363 72
14322 14321 44
14322 14269 114
14322 14389 151
14323 14320 68
14323 14325 3
14323 14403 173
14324 14154 387
14324 14327 27
14324 14401 173
14325 14323 3
14326 14308 44
14326 14332 171
14326 14356 50
14327 14324 27
14327 14296 69
14327 14330 98
14328 14329 418
14328 14315 130
14328 14640 783
14329 14328 418
14330 14327 98
14330 14333 219
14330 14376 110
14331 14318 325
14331 14361 124
14331 14453 562
14332 14326 171
14332 14310 48
14332 14338 322
14332 14360 48
14333 14330 219
14333 14306 69
14333 14336 61
14334 14292 98
14334 14335 56
14334 14365 50
14335 14334 56
14335 14297 90
14335 14339 23
14336 14333 61
14336 14279 123
14336 14337 4
14337 14336 4
14337 14340 45
14337 14387 111
14338 14332 322
14338 14313 64
14338 14348 256
14338 14364 53
14339 14335 23
14339 14341 53
14339 14368 51
14340 14337 45
14340 14281 122
14340 14342 50
14341 14339 53
14341 14343 76
14341 14383 103
14342 14340 50
14342 14282 123
14342 14345 45
14343 14341 76
14343 14304 83
14343 14344 26
14344 14343 26
14344 14347 53
14344 14397 129
14345 14342 45
14345 14318 46
14346 14312 65
14346 14347 63
14346 14359 17
14347 14344 53
14347 14346 63
14347 14399 132
14348 14338 256
14348 14319 47
14348 14367 39
14349 14350 41
14349 14271 203
14349 14351 47
14350 14349 41
14351 14349 47
14351 14271 159
14351 14369 45
14352 14315 59
14352 14353 230
14352 14418 157
14353 14352 230
14354 14355 237
14354 14361 175
14354 14362 218
14355 14354 237
14356 14326 50
14356 14360 168
14356 14372 56
14357 14358 58
14357 14359 125
14357 14404 123
14358 14357 58
14358 14405 121
14359 14346 17
14359 14357 125
14359 14407 122
14360 14356 168
14360 14332 48
14360 14364 312
14360 14380 68
14361 14331 124
14361 14090 622
14361 14354 175
14361 14498 398
14362 14108 1007
14362 14354 218
14362 14366 190
14363 14321 72
14364 14360 312
14364 14338 53
14364 14367 265
14364 14388 71
14365 14334 50
14365 14368 82
14365 14381 57
14366 14362 190
14366 14373 190
14366 14454 250
14367 14364 265
14367 14348 39
14367 14392 113
14368 14365 82
14368 14339 51
14368 14384 55
14369 14370 299
14369 14351 45
14369 14371 16
14370 14369 299
14371 14369 16
14371 14372 57
14371 14385 30
14372 14371 57
14372 14356 56
14372 14377 13
14373 14366 190
14373 14374 334
14373 14375 20
14374 14373 334
14375 14373 20
14375 14443 429
14375 14699 875
14376 14330 110
14376 14379 86
14376 14468 226
14377 14372 13
14377 14378 69
14377 14525 382
14378 14377 69
14378 14380 97
14378 14410 60
14379 14376 86
14379 14387 197
14379 14413 58
14380 14378 97
14380 14360 68
14380 14388 312
14381 14365 57
14381 14382 71
14381 14421 85
14382 14381 71
14382 14384 20
14382 14425 84
14383 14341 103
14383 14384 53
14383 14420 81
14384 14382 20
14384 14368 55
14384 14383 53
14385 14386 401
14385 14371 30
14385 14411 48
14386 14385 401
14387 14379 197
14387 14337 111
14387 14400 34
14388 14380 312
14388 14364 71
14388 14390 172
14389 14322 151
14390 14388 172
14390 14391 72
14390 14419 54
14391 14390 72
14391 14393 55
14391 14543 380
14392 14367 113
14392 14393 9
14392 14394 46
14393 14391 55
14393 14392 9
14393 14569 473
14394 14392 46
14394 14395 128
14394 14445 130
14395 14394 128
14395 14287 246
14395 14396 47
14396 14395 47
14396 14289 240
14396 14417 41
14397 14344 129
14398 14202 496
14398 14733 861
14398 14904 4223
14399 14347 132
14400 14387 34
14400 14408 77
14400 14415 24
14401 14324 173
14401 14402 5
14401 14465 166
14402 14316 185
14402 14401 5
14402 14403 9
14402 14622 572
14403 14323 173
14403 14402 9
14403 14405 43
14403 14623 572
14404 14357 123
14404 14405 66
14404 14406 44
14405 14404 66
14405 14358 121
14405 14403 43
14405 14431 55
14406 14404 44
14406 14407 85
14406 14432 60
14407 14359 122
14407 14406 85
14407 14434 60
14408 14400 77
14408 14409 61
14408 14477 190
14409 14408 61
14410 14378 60
14410 14414 244
14410 14430 45
14411 14412 348
14411 14385 48
14411 14429 43
14412 14411 348
14413 14379 58
14413 14415 197
14413 14433 52
14414 14410 244
14414 14416 86
14414 14435 44
14415 14413 197
14415 14400 24
14415 14472 167
14416 14414 86
14416 14419 246
14416 14436 44
14417 14396 41
14417 14424 18
14418 14352 157
14419 14416 246
14419 14390 54
14419 14438 45
14420 14383 81
14420 14422 85
14420 14425 72
14420 14456 94
14421 14381 85
14421 14424 54
14421 14425 76
14421 14459 93
14422 14420 85
14422 14423 55
14422 14458 93
14423 14422 55
14424 14417 18
14424 14421 54
14424 14581 430
14425 14421 76
14425 14382 84
14425 14420 72
14425 14460 92
14426 14427 75
14426 14428 43
14426 14536 316
14427 14426 75
14428 14426 43
14428 14429 276
14428 14439 41
14429 14428 276
14429 14411 43
14429 14440 46
14430 14410 45
14430 14435 243
14430 14441 46
14431 14405 55
14431 14432 111
14431 14451 65
14432 14406 60
14432 14431 111
14432 14434 86
14432 14450 59
14433 14413 52
14433 14437 110
14433 14444 51
14434 14407 60
14434 14432 86
14434 14447 56
14435 14430 243
14435 14414 44
14435 14442 45
14436 14416 44
14436 14438 246
14436 14446 48
14437 14433 110
14438 14436 246
14438 14419 45
14438 14452 46
14439 14428 41
14439 14440 275
14439 14455 47
14440 14439 275
14440 14429 46
14440 14461 48
14441 14430 46
14441 14442 245
14441 14462 46
14442 14441 245
14442 14435 45
14442 14463 47
14443 14375 429
14443 14476 179
14443 14564 489
14444 14433 51
14444 14448 77
14444 14469 63
14445 14394 130
14445 14572 345
14445 14573 394
14446 14436 48
14446 14452 246
14446 14464 44
14447 14434 56
14447 14449 62
14447 14483 92
14448 14444 77
14449 14447 62
14449 14450 22
14449 14486 94
14450 14449 22
14450 14432 59
14450 14451 114
14451 14450 114
14451 14431 65
14451 14488 94
14452 14446 246
14452 14438 46
14452 14467 44
14453 14331 562
14454 14366 250
14455 14439 47
14455 14461 276
14455 14470 46
14456 14420 94
14456 14457 28
14456 14460 74
14457 14456 28
14457 14458 59
14457 14478 61
14458 14457 59
14458 14422 93
14458 14484 74
14459 14421 93
14459 14460 72
14459 14479 61
14460 14459 72
14460 14425 92
14460 14456 74
14461 14455 276
14461 14440 48
14461 14475 45
14462 14441 46
14462 14463 247
14462 14474 44
14463 14462 247
14463 14442 47
14463 14464 86
14463 14481 47
14464 14463 86
14464 14446 44
14464 14467 245
14464 14485 51
14465 14401 166
14465 14466 42
14465 14531 181
14466 14465 42
14466 14468 48
14466 14493 69
14467 14464 245
14467 14452 44
14467 14490 48
14468 14466 48
14468 14376 226
14468 14469 91
14469 14468 91
14469 14444 63
14469 14471 123
14470 14455 46
14470 14473 209
14470 14491 44
14471 14469 123
14471 14472 74
14471 14496 68
14472 14471 74
14472 14415 167
14472 14477 78
14473 14470 209
14473 14475 66
14473 14492 47
14474 14462 44
14474 14481 247
14474 14494 47
14475 14473 66
14475 14461 45
14475 14514 92
14476 14443 179
14476 14178 786
14476 14564 234
14476 14717 2617
14477 14472 78
14477 14408 190
14477 14480 80
14478 14457 61
14478 14479 173
14478 14501 68
14479 14459 61
14479 14478 173
14479 14504 74
14480 14477 80
14481 14474 247
14481 14463 47
14481 14495 46
14482 14483 71
14482 14484 53
14482 14506 68
14483 14482 71
14483 14447 92
14483 14486 67
14484 14458 74
14484 14482 53
14484 14505 66
14485 14464 51
14485 14487 81
14485 14497 42
14486 14483 67
14486 14449 94
14486 14488 137
14486 14509 67
14487 14485 81
14487 14490 164
14487 14499 47
14488 14486 137
14488 14451 94
14488 14489 52
14488 14513 69
14489 14488 52
14490 14487 164
14490 14467 48
14490 14502 49
14491 14470 44
14491 14492 208
14491 14503 45
14492 14491 208
14492 14473 47
14492 14510 44
14493 14466 69
14493 14496 262
14493 14516 57
14494 14474 47
14494 14495 247
14494 14515 51
14495 14494 247
14495 14481 46
14495 14497 86
14495 14517 48
14496 14493 262
14496 14471 68
14496 14500 232
14496 14520 56
14497 14495 86
14497 14485 42
14497 14518 48
14498 14361 398
14498 14534 404
14498 14716 627
14499 14487 47
14499 14502 163
14499 14519 44
14500 14496 232
14501 14478 68
14501 14504 175
14501 14545 99
14502 14499 163
14502 14490 49
14502 14521 47
14503 14491 45
14503 14510 206
14503 14522 47
14504 14479 74
14504 14501 175
14504 14526 60
14505 14484 66
14505 14506 54
14505 14546 88
14506 14505 54
14506 14482 68
14506 14507 54
14506 14549 100
14507 14506 54
14507 14508 54
14507 14550 100
14508 14507 54
14508 14509 31
14508 14552 101
14509 14508 31
14509 14486 67
14509 14511 23
14510 14503 206
14510 14492 44
14510 14514 66
14511 14509 23
14511 14512 54
14511 14551 99
14512 14511 54
14512 14513 68
14512 14553 100
14513 14512 68
14513 14488 69
14513 14554 100
14514 14510 66
14514 14475 92
14514 14524 46
14515 14494 51
14515 14517 246
14515 14527 44
14516 14493 57
14516 14520 263
14516 14530 53
14517 14515 246
14517 14495 48
14517 14518 87
14518 14517 87
14518 14497 48
14518 14519 80
14519 14518 80
14519 14499 44
14519 14521 164
14520 14516 263
14520 14496 56
14520 14523 230
14520 14537 53
14521 14519 164
14521 14502 47
14521 14532 41
14522 14503 47
14522 14524 273
14522 14542 48
14523 14520 230
14524 14522 273
14524 14514 46
14524 14547 46
14525 14377 382
14525 14527 69
14525 14555 56
14526 14504 60
14526 14528 54
14526 14574 135
14527 14525 69
14527 14515 44
14527 14532 576
14528 14526 54
14528 14529 53
14528 14575 134
14529 14528 53
14529 14541 29
14530 14516 53
14530 14531 25
14530 14533 194
14530 14557 56
14531 14465 181
14531 14530 25
14531 14621 225
14532 14527 576
14532 14521 41
14532 14538 59
14533 14530 194
14533 14537 69
14533 14560 58
14534 14498 404
14534 14535 341
14534 14664 334
14535 14534 341
14536 14426 316
14536 14540 59
14536 14542 45
14537 14533 69
14537 14520 53
14537 14544 62
14538 14532 59
14538 14539 368
14538 14543 14
14538 14561 55
14539 14538 368
14540 14536 59
14540 14556 925
14541 14529 29
14541 14545 66
14541 14576 106
14542 14536 45
14542 14522 48
14542 14547 274
14542 14559 48
14543 14538 14
14543 14391 380
14543 14562 54
14544 14537 62
14544 14548 168
14544 14565 62
14545 14541 66
14545 14501 99
14545 14546 56
14545 14579 106
14546 14545 56
14546 14505 88
14546 14580 107
14547 14542 274
14547 14524 46
14547 14563 44
14548 14544 168
14549 14506 100
14549 14550 55
14549 14585 107
14550 14549 55
14550 14507 100
14550 14552 53
14550 14587 108
14551 14511 99
14551 14552 54
14551 14553 54
14551 14589 113
14552 14550 53
14552 14508 101
14552 14551 54
14552 14588 107
14553 14551 54
14553 14512 100
14553 14554 65
14553 14595 113
14554 14553 65
14554 14513 100
14554 14600 135
14555 14525 56
14555 14561 705
14555 14567 49
14556 14540 925
14557 14530 56
14557 14560 193
14557 14571 55
14558 14559 97
14559 14558 97
14559 14542 48
14559 14563 272
14560 14557 193
14560 14533 58
14560 14577 55
14561 14555 705
14561 14538 55
14561 14562 12
14562 14561 12
14562 14543 54
14562 14578 52
14563 14559 272
14563 14547 44
14563 14590 74
14564 14443 489
14564 14476 234
14564 14764 543
14565 14544 62
14565 14566 155
14565 14583 52
14566 14565 155
14567 14555 49
14567 14568 253
14567 14593 59
14568 14567 253
14568 14570 213
14568 14596 54
14569 14393 473
14569 14572 55
14569 14602 67
14570 14568 213
14570 14578 249
14570 14599 55
14571 14557 55
14571 14577 195
14571 14598 52
14572 14569 55
14572 14445 345
14572 14573 52
14573 14572 52
14573 14445 394
14573 14603 110
14574 14526 135
14574 14575 53
14574 14582 9
14575 14574 53
14575 14528 134
14575 14576 53
14576 14575 53
14576 14541 106
14576 14579 67
14577 14571 195
14577 14560 55
14577 14583 127
14578 14570 249
14578 14562 52
14578 14601 55
14579 14576 67
14579 14545 106
14579 14580 54
14580 14579 54
14580 14546 107
14580 14584 11
14581 14424 430
14581 14582 50
14581 14607 65
14582 14581 50
14582 14574 9
14582 14610 66
14583 14577 127
14583 14565 52
14583 14586 163
14584 14580 11
14584 14585 61
14584 14614 71
14585 14584 61
14585 14549 107
14585 14587 55
14586 14583 163
14587 14585 55
14587 14550 108
14587 14588 53
14588 14587 53
14588 14552 107
14588 14589 53
14589 14588 53
14589 14551 113
14589 14594 44
14590 14591 291
14590 14563 74
14590 14592 22
14591 14590 291
14591 14606 62
14591 14618 1165
14592 14590 22
14592 14593 45
14592 14612 57
14593 14592 45
14593 14567 59
14593 14596 251
14593 14609 47
14594 14589 44
14594 14595 6
14594 14600 100
14595 14594 6
14595 14553 113
14596 14593 251
14596 14568 54
14596 14597 102
14597 14596 102
14597 14599 111
14597 14615 47
14598 14571 52
14598 14604 462
14598 14626 63
14599 14597 111
14599 14570 55
14599 14601 248
14600 14594 100
14600 14554 135
14600 14620 50
14601 14599 248
14601 14578 55
14601 14602 61
14601 14624 48
14602 14601 61
14602 14569 67
14602 14603 145
14603 14602 145
14603 14573 110
14603 14605 32
14604 14598 462
14605 14603 32
14605 14607 73
14605 14632 55
14606 14591 62
14606 14612 311
14606 14628 47
14607 14605 73
14607 14581 65
14607 14610 46
14608 14303 770
14608 14618 65
14608 14625 49
14609 14593 47
14609 14611 57
14609 14693 197
14610 14607 46
14610 14582 66
14610 14613 208
14611 14609 57
14611 14615 290
14611 14634 49
14612 14606 311
14612 14592 57
14612 14637 45
14613 14610 208
14613 14614 21
14613 14635 42
14614 14613 21
14614 14584 71
14614 14616 79
14615 14611 290
14615 14597 47
14615 14624 357
14615 14639 54
14616 14614 79
14616 14617 223
14616 14641 56
14617 14616 223
14617 14619 38
14617 14644 57
14618 14608 65
14618 14591 1165
14618 14625 121
14619 14617 38
14619 14620 3
14619 14684 150
14620 14619 3
14620 14600 50
14620 14623 43
14621 14531 225
14621 14622 6
14621 14626 24
14621 14776 427
14622 14402 572
14622 14621 6
14622 14623 10
14622 14743 335
14623 14403 572
14623 14622 10
14623 14620 43
14623 14633 20
14624 14615 357
14624 14601 48
14624 14629 14
14625 14608 49
14625 14618 121
14625 14651 593
14626 14621 24
14626 14598 63
14626 14627 80
14627 14626 80
14627 14631 157
14627 14659 71
14628 14606 47
14628 14637 310
14628 14642 34
14629 14624 14
14629 14630 56
14629 14646 41
14630 14629 56
14630 14632 181
14630 14652 51
14631 14627 157
14631 14638 263
14631 14666 95
14632 14630 181
14632 14605 55
14632 14656 53
14633 14623 20
14634 14611 49
14634 14639 290
14634 14653 45
14635 14636 142
14635 14613 42
14635 14657 51
14636 14635 142
14637 14628 310
14637 14612 45
14637 14658 52
14638 14631 263
14639 14634 290
14639 14615 54
14639 14645 285
14639 14661 42
14640 14328 783
14640 14651 58
14640 14651 171
14641 14616 56
14641 14644 214
14641 14662 47
14642 14643 35
14642 14628 34
14642 14658 310
14643 14642 35
14644 14641 214
14644 14617 57
14644 14665 47
14645 14639 285
14645 14646 71
14645 14663 40
14646 14645 71
14646 14629 41
14646 14680 83
14647 14648 182
14648 14647 182
14648 14649 247
14648 14689 104
14649 14648 247
14649 14650 300
14649 14686 93
14650 14649 300
14651 14640 58
14651 14625 593
14651 14640 171
14652 14630 51
14652 14656 180
14652 14668 46
14653 14634 45
14653 14661 287
14653 14669 48
14654 14655 35
14654 14657 95
14654 14667 42
14655 14654 35
14656 14652 180
14656 14632 53
14656 14660 127
14656 14671 45
14657 14654 95
14657 14635 51
14657 14670 41
14658 14642 310
14658 14637 52
14658 14672 41
14659 14627 71
14660 14656 127
14661 14653 287
14661 14639 42
14661 14663 289
14661 14676 47
14662 14641 47
14662 14665 211
14662 14674 43
14663 14661 289
14663 14645 40
14663 14678 41
14664 14534 334
14664 14699 442
14664 14744 245
14665 14662 211
14665 14644 47
14665 14683 46
14666 14631 95
14667 14654 42
14667 14670 95
14668 14652 46
14668 14671 179
14668 14687 47
14669 14653 48
14669 14676 286
14669 14688 44
14670 14667 95
14670 14657 41
14670 14698 135
14671 14668 179
14671 14656 45
14671 14675 172
14672 14673 129
14672 14658 41
14672 14690 47
14673 14672 129
14674 14662 43
14674 14677 51
14674 14745 206
14675 14671 172
14676 14669 286
14676 14661 47
14676 14678 290
14676 14695 45
14677 14674 51
14677 14679 49
14677 14746 202
14678 14676 290
14678 14663 41
14678 14680 69
14678 14697 51
14679 14677 49
14679 14681 44
14679 14747 202
14680 14678 69
14680 14646 83
14680 14759 224
14681 14679 44
14681 14682 49
14681 14748 201
14682 14681 49
14682 14683 35
14682 14750 200
14683 14682 35
14683 14665 46
14683 14684 54
14683 14751 200
14684 14683 54
14684 14619 150
14684 14685 42
14684 14711 103
14685 14684 42
14686 14649 93
14686 14689 285
14686 14705 96
14686 14768 222
14687 14668 47
14687 14692 177
14687 14704 64
14688 14669 44
14688 14695 285
14688 14700 46
14689 14648 104
14689 14686 285
14689 14719 95
14690 14691 63
14690 14672 47
14690 14693 53
14691 14690 63
14692 14687 177
14692 14694 69
14693 14690 53
14693 14609 197
14693 14702 46
14694 14692 69
14694 14696 109
14694 14707 63
14695 14688 285
14695 14676 45
14695 14697 290
14695 14703 49
14696 14694 109
14697 14695 290
14697 14678 51
14697 14706 46
14698 14670 135
14698 14734 99
14699 14664 442
14699 14375 875
14699 14764 613
14699 14815 442
14700 14688 46
14700 14701 33
14701 14700 33
14701 14703 252
14701 14713 44
14702 14693 46
14703 14701 252
14703 14695 49
14703 14706 289
14703 14725 43
14704 14687 64
14704 14707 247
14704 14726 47
14705 14686 96
14705 14710 21
14705 14723 48
14706 14703 289
14706 14697 46
14706 14728 46
14707 14704 247
14707 14694 63
14707 14732 48
14708 14709 190
14709 14708 190
14709 14716 81
14709 14835 472
14710 14705 21
14710 14721 40
14710 14729 38
14711 14684 103
14711 14712 67
14711 14752 99
14712 14711 67
14713 14701 44
14713 14722 100
14714 14715 699
14715 14714 699
14716 14709 81
14716 14498 627
14716 14724 14
14717 14476 2617
14718 14719 484
14719 14718 484
14719 14689 95
14719 14772 135
14720 14721 19
14721 14720 19
14721 14710 40
14721 14730 43
14722 14713 100
14722 14725 153
14722 14736 44
14723 14705 48
14723 14727 249
14723 14735 50
14724 14716 14
14724 14739 247
14724 14794 248
14725 14722 153
14725 14703 43
14725 14728 287
14725 14738 47
14726 14704 47
14726 14732 247
14726 14740 46
14727 14723 249
14727 14731 165
14727 14928 848
14728 14725 287
14728 14706 46
14728 14741 46
14729 14710 38
14729 14730 4
14730 14729 4
14730 14721 43
14730 14735 23
14731 14727 165
14731 14208 1347
14731 14733 12
14731 14963 1090
14732 14726 247
14732 14707 48
14732 14742 44
14733 14731 12
14733 14398 861
14733 14964 1090
14734 14698 99
14734 14737 121
14734 14766 78
14735 14730 23
14735 14723 50
14735 14768 108
14736 14722 44
14736 14738 154
14737 14734 121
14738 14736 154
14738 14725 47
14738 14741 286
14738 14758 46
14739 14724 247
14740 14726 46
14740 14742 246
14740 14760 46
14741 14738 286
14741 14728 46
14741 14762 46
14742 14740 246
14742 14732 44
14742 14765 50
14743 14622 335
14744 14664 245
14745 14674 206
14745 14746 48
14745 14769 48
14746 14745 48
14746 14677 202
14746 14747 46
14747 14746 46
14747 14679 202
14747 14748 45
14748 14747 45
14748 14681 201
14748 14749 22
14749 14748 22
14749 14750 25
14749 14770 48
14750 14749 25
14750 14682 200
14750 14751 36
14751 14750 36
14751 14683 200
14751 14752 60
14752 14751 60
14752 14711 99
14752 14753 15
14752 14784 95
14753 14752 15
14753 14754 98
14753 14755 30
14754 14753 98
14755 14753 30
14755 14756 83
14755 14757 45
14756 14755 83
14757 14755 45
14758 14738 46
14758 14761 101
14758 14763 16
14759 14680 224
14759 14760 61
14759 14777 60
14760 14759 61
14760 14740 46
14760 14765 244
14761 14758 101
14761 14762 185
14761 14774 45
14762 14761 185
14762 14741 46
14762 14775 46
14763 14758 16
14764 14699 613
14764 14564 543
14764 14804 205
14765 14760 244
14765 14742 50
14765 14781 59
14766 14734 78
14766 14767 19
14767 14766 19
14767 14769 41
14767 14803 188
14768 14686 222
14768 14735 108
14768 14773 23
14769 14767 41
14769 14745 48
14769 14770 162
14769 14780 47
14770 14769 162
14770 14749 48
14770 14783 48
14771 14772 32
14772 14771 32
14772 14719 135
14772 14773 248
14772 14821 242
14773 14772 248
14773 14768 23
14773 14891 589
14774 14761 45
14774 14775 185
14775 14774 185
14775 14762 46
14775 14790 129
14776 14621 427
14776 14778 223
14776 14798 130
14777 14759 60
14777 14781 310
14777 14790 58
14778 14776 223
14778 14779 134
14778 14810 179
14779 14778 134
14780 14769 47
14780 14783 159
14780 14786 45
14781 14777 310
14781 14765 59
14781 14782 31
14782 14781 31
14783 14780 159
14783 14770 48
14783 14784 124
14783 14789 41
14784 14783 124
14784 14752 95
14784 14785 17
14785 14784 17
14785 14792 41
14786 14780 45
14786 14789 160
14786 14795 44
14787 14788 45
14788 14787 45
14788 14797 59
14788 14800 275
14789 14786 160
14789 14783 41
14789 14791 53
14789 14796 44
14790 14775 129
14790 14777 58
14790 14793 6
14791 14789 53
14791 14792 88
14791 14802 84
14792 14791 88
14792 14785 41
14792 14806 112
14793 14790 6
14793 14800 81
14794 14724 248
14795 14786 44
14795 14796 159
14795 14799 45
14796 14795 159
14796 14789 44
14796 14801 42
14797 14788 59
14797 14805 50
14797 14811 272
14798 14776 130
14798 14810 230
14798 14816 74
14799 14795 45
14799 14801 157
14799 14809 58
14800 14788 275
14800 14793 81
14800 14811 53
14801 14799 157
14801 14796 42
14801 14802 46
14801 14807 35
14802 14801 46
14802 14791 84
14802 14827 100
14803 14767 188
14804 14764 205
14805 14797 50
14805 14818 55
14805 14836 354
14806 14792 112
14807 14801 35
14808 14809 403
14808 14970 1025
14809 14808 403
14809 14799 58
14809 14827 213
14810 14798 230
14810 14778 179
14810 14826 183
14811 14797 272
14811 14800 53
14811 14823 91
14812 14813 18
14813 14812 18
14813 14814 30
14813 14816 20
14813 14834 99
14814 14813 30
14815 14699 442
14815 14825 454
14815 14835 847
14815 14871 356
14816 14813 20
14816 14798 74
14816 14817 12
14816 14828 37
14817 14816 12
14818 14805 55
14818 14819 8
14818 14820 2
14819 14818 8
14819 14820 8
14819 14840 349
14820 14818 2
14820 14819 8
14820 14824 107
14820 14832 51
14821 14822 433
14821 14772 242
14821 14890 530
14822 14821 433
14823 14811 91
14823 14829 58
14823 14836 53
14824 14820 107
14824 14844 196
14824 14875 1006
14825 14815 454
14826 14810 183
14826 14835 160
14827 14809 213
14827 14802 100
14827 14834 123
14828 14816 37
14828 14831 17
14828 14833 72
14829 14823 58
14829 14861 263
14830 14831 12
14830 14833 48
14830 14841 100
14831 14830 12
14831 14828 17
14831 14842 98
14832 14820 51
14832 14839 52
14832 14843 359
14833 14828 72
14833 14830 48
14833 14834 20
14834 14827 123
14834 14813 99
14834 14833 20
14835 14826 160
14835 14709 472
14835 14815 847
14836 14805 354
14836 14823 53
14836 14840 52
14837 14838 4277
14838 14837 4277
14839 14832 52
14839 14846 359
14840 14819 349
14840 14836 52
14840 14843 58
14841 14830 100
14841 14878 97
14842 14831 98
14842 14850 96
14843 14832 359
14843 14840 58
14843 14846 48
14844 14824 196
14844 14845 316
14844 14884 144
14845 14844 316
14846 14839 359
14846 14843 48
14846 14856 55
14847 14848 163
14847 14862 148
14848 14847 163
14848 14852 54
14848 14863 57
14849 14850 6
14849 14851 28
14849 14867 65
14850 14849 6
14850 14842 96
14851 14849 28
14851 14855 30
14852 14848 54
14852 14856 52
14852 14966 548
14853 14854 6
14853 14864 200
14853 14911 175
14854 14853 6
14855 14851 30
14855 14857 40
14855 14874 67
14856 14852 52
14856 14846 55
14856 14861 58
14856 14968 551
14857 14855 40
14857 14864 122
14857 14900 135
14858 14859 8
14859 14858 8
14859 14860 44
14859 14866 37
14860 14859 44
14861 14856 58
14861 14829 263
14861 14969 553
14862 14847 148
14862 14865 54
14862 14898 240
14863 14848 57
14863 14865 90
14863 14915 163
14864 14857 122
14864 14853 200
14864 14899 105
14865 14862 54
14865 14863 90
14865 14915 152
14866 14859 37
14866 14868 74
14866 14906 120
14867 14849 65
14867 14874 65
14867 14881 25
14868 14866 74
14868 14869 52
14868 14870 33
14869 14868 52
14870 14868 33
14870 14872 78
14870 14880 18
14871 14815 356
14872 14870 78
14872 14873 30
14872 14877 10
14873 14872 30
14874 14855 67
14874 14867 65
14874 14897 75
14875 14876 720
14875 14824 1006
14875 14939 218
14876 14875 720
14877 14872 10
14877 14882 45
14877 14885 20
14878 14879 91
14878 14841 97
14879 14878 91
14880 14870 18
14880 14885 76
14880 14894 52
14881 14867 25
14882 14877 45
14882 14883 15
14882 14902 78
14883 14882 15
14884 14844 144
14884 14898 62
14884 14920 324
14885 14880 76
14885 14877 20
14885 14901 60
14886 14887 82
14887 14886 82
14887 14888 62
14887 14889 21
14888 14887 62
14889 14887 21
14889 14890 109
14889 14907 76
14890 14889 109
14890 14821 530
14890 14891 73
14891 14890 73
14891 14773 589
14891 14927 141
14891 14961 362
14892 14893 55
14892 14895 67
14892 14903 35
14893 14892 55
14894 14880 52
14894 14896 60
14894 14924 79
14895 14892 67
14896 14894 60
14897 14874 75
14898 14884 62
14898 14862 240
14898 14937 121
14899 14864 105
14900 14857 135
14901 14885 60
14901 14902 38
14901 14916 43
14902 14901 38
14902 14882 78
14902 14903 56
14903 14902 56
14903 14892 35
14903 14905 73
14903 14930 66
14904 14398 4223
14904 13834 3233
14904 14974 1197
14905 14903 73
14906 14866 120
14906 14922 31
14907 14908 96
14907 14889 76
14907 14934 67
14908 14907 96
14909 14910 1085
14909 14999 823
14910 14909 1085
14911 14912 152
14911 14853 175
14911 14913 7
14912 14911 152
14913 14911 7
14913 14914 76
14913 14946 152
14914 14913 76
14915 14865 152
14915 14863 163
14915 14965 321
14916 14901 43
14916 14919 37
14916 14929 35
14917 14918 5
14918 14917 5
14919 14916 37
14920 14921 188
14920 14884 324
14920 14938 66
14921 14920 188
14921 14939 480
14921 14953 208
14922 14906 31
14922 14923 40
14922 14936 59
14923 14922 40
14923 14924 52
14924 14894 79
14924 14923 52
14924 14929 70
14924 14935 35
14925 14926 59
14925 14931 30
14925 14930 150
14926 14925 59
14927 14891 141
14927 14928 172
14927 14951 162
14928 14927 172
14928 14727 848
14928 14951 137
14929 14924 70
14929 14916 35
14929 14933 95
14930 14903 66
14930 14933 11
14930 14925 150
14931 14925 30
14931 14932 4
14932 14931 4
14933 14929 95
14933 14930 11
14933 14940 54
14934 14907 67
14935 14924 35
14935 14936 80
14935 14943 44
14936 14922 59
14936 14935 80
14936 14945 30
14937 14898 121
14937 14938 226
14937 14960 150
14938 14920 66
14938 14937 226
14938 14956 100
14939 14875 218
14939 14921 480
14939 14952 69
14940 14933 54
14941 14942 7
14941 14944 4
14941 14947 102
14942 14941 7
14943 14935 44
14943 14945 72
14943 14947 71
14944 14941 4
14945 14936 30
14945 14943 72
14945 14955 74
14946 14913 152
14947 14943 71
14947 14941 102
14947 14950 25
14948 14949 76
14949 14948 76
14950 14947 25
14951 14927 162
14951 14928 137
14951 14962 215
14952 14939 69
14952 14958 143
14952 14959 374
14953 14921 208
14953 14954 53
14953 14957 214
14954 14953 53
14954 14958 176
14954 14972 240
14955 14945 74
14956 14938 100
14956 14957 40
14956 14960 248
14957 14953 214
14957 14956 40
14957 14973 239
14958 14952 143
14958 14954 176
14958 14979 393
14959 14952 374
14959 14978 357
14960 14956 248
14960 14937 150
14960 14967 103
14961 14891 362
14961 14962 369
14961 15013 978
14962 14961 369
14962 14951 215
14962 14963 64
14963 14962 64
14963 14731 1090
14963 14964 12
14963 15013 648
14964 14963 12
14964 14733 1090
14964 15019 752
14965 14915 321
14966 14852 548
14966 14968 53
14967 14960 103
14967 14971 214
14967 14977 134
14968 14966 53
14968 14856 551
14968 14969 58
14969 14968 58
14969 14861 553
14969 14970 27
14969 14989 292
14970 14969 27
14970 14808 1025
14970 15014 648
14970 15286 648
14971 14967 214
14972 14954 240
14972 14985 499
14972 14995 315
14973 14957 239
14973 14975 30
14973 14977 316
14974 14904 1197
14974 14999 781
14974 15021 659
14975 14976 121
14975 14973 30
14975 14981 87
14976 14975 121
14977 14973 316
14977 14967 134
14977 14982 82
14978 14959 357
14978 14980 508
14978 14995 668
14979 14958 393
14980 14978 508
14981 14975 87
14981 14984 261
14981 14992 137
14982 14983 77
14982 14977 82
14982 14988 91
14983 14982 77
14984 14981 261
14985 14972 499
14986 14987 17
14987 14986 17
14988 14982 91
14988 14993 36
14988 14996 211
14989 14969 292
14989 14993 305
14990 14991 72
14990 14992 50
14990 14994 62
14991 14990 72
14992 14981 137
14992 14990 50
14992 14997 168
14993 14988 36
14993 14994 170
14993 14989 305
14994 14990 62
14994 14993 170
14994 15001 137
14995 14978 668
14995 14972 315
14995 14997 166
14996 14988 211
14997 14995 166
14997 14992 168
14997 15001 242
14998 13655 5310
14998 15002 45
14998 15003 91
14999 14974 781
14999 14909 823
14999 15000 31
15000 14999 31
15000 15023 486
15000 15028 865
15001 14997 242
15001 14994 137
15001 15007 86
15002 14998 45
15002 15003 94
15002 15006 236
15003 15002 94
15003 14998 91
15003 15014 2954
15004 15005 162
15004 15010 697
15004 15011 95
15005 15004 162
15006 15002 236
15007 15001 86
15007 15010 10
15007 15014 343
15008 15009 237
15008 15286 174
15009 15008 237
15010 15004 697
15010 15007 10
15010 15015 264
15011 15012 644
15011 15004 95
15011 15015 507
15011 15020 150
15012 15011 644
15013 14963 648
15013 14961 978
15013 15042 966
15014 15007 343
15014 14970 648
15014 15286 648
15014 15018 140
15014 15003 2954
15015 15011 507
15015 15010 264
15015 15024 205
15016 15017 386
15016 15029 63
15017 15016 386
15018 15014 140
15019 14964 752
15019 15050 1616
15019 15059 5413
15020 15011 150
15021 15022 2166
15021 14974 659
15021 15023 533
15022 15021 2166
15023 15021 533
15023 15000 486
15023 15030 520
15023 15031 365
15024 15015 205
15025 15026 43
15025 15027 36
15025 15032 1175
15026 15025 43
15027 15025 36
15028 15000 865
15028 15029 1790
15028 15030 62
15029 15028 1790
15029 15016 63
15030 15023 520
15030 15028 62
15030 15037 491
15031 15023 365
15031 15032 18
15031 15033 217
15032 15025 1175
15032 15031 18
15032 15034 94
15033 15031 217
15034 15032 94
15034 15037 322
15034 15045 360
15035 15036 372
15036 15035 372
15037 15034 322
15037 15030 491
15037 15047 372
15038 15039 221
15039 15038 221
15040 15041 82
15041 15040 82
15042 15013 966
15042 15048 748
15043 15044 247
15044 15043 247
15045 15046 947
15045 15034 360
15045 15047 154
15046 15045 947
15047 15045 154
15047 15037 372
15047 15059 1301
15048 15049 13
15048 15042 748
15048 15050 8
15048 15053 522
15049 15048 13
15050 15048 8
15050 15019 1616
15050 15055 523
15051 15052 1778
15051 15061 6025
15051 15072 1353
15052 15051 1778
15052 15067 198
15053 15054 1851
15053 15048 522
15053 15055 8
15053 15057 142
15054 15053 1851
15055 15053 8
15055 15050 523
15055 15056 113
15056 15055 113
15056 15057 30
15057 15053 142
15057 15056 30
15057 15058 68
15058 15057 68
15058 15067 3199
15058 15080 1123
15059 15019 5413
15059 15047 1301
15059 15060 140
15060 15059 140
15060 15068 482
15060 15077 1922
15061 15051 6025
15061 15076 2778
15061 15088 1471
15062 15063 5741
15063 15062 5741
15063 15064 8023
15063 15065 23
15063 15066 14
15064 15063 8023
15065 15063 23
15065 15076 58
15066 15063 14
15067 15058 3199
15067 15052 198
15068 15060 482
15068 15069 1130
15068 15075 299
15069 15068 1130
15070 15071 2164
15070 15074 49
15071 15070 2164
15072 15051 1353
15072 15084 554
15072 15085 2515
15073 15074 222
15073 15077 23
15074 15073 222
15074 15070 49
15075 15068 299
15075 15081 1399
15075 15090 1467
15076 15061 2778
15076 15065 58
15077 15060 1922
15077 15073 23
15078 15079 1481
15079 15078 1481
15079 15080 1585
15079 15086 667
15080 15058 1123
15080 15079 1585
15080 15096 1843
15081 15075 1399
15082 15083 345
15083 15082 345
15084 15072 554
15084 15111 122
15085 15072 2515
15085 15087 1069
15086 15079 667
15087 15085 1069
15087 15088 2478
15087 15099 4161
15088 15061 1471
15088 15087 2478
15088 15089 288
15089 15088 288
15089 15099 4283
15089 15102 8627
15090 15075 1467
15090 15092 891
15090 15108 3729
15091 15092 627
15092 15091 627
15092 15090 891
15092 15093 1113
15092 15098 1490
15093 15094 1309
15093 15092 1113
15093 15095 957
15093 15098 1804
15094 15093 1309
15095 15093 957
15095 15096 1188
15095 15097 952
15096 15080 1843
15096 15095 1188
15096 15105 2609
15097 15095 952
15098 15093 1804
15098 15092 1490
15098 15108 2206
15099 15089 4283
15099 15087 4161
15099 15100 82
15100 15099 82
15100 15101 266
15100 15110 3977
15101 15100 266
15102 15089 8627
15102 15109 3684
15102 15166 6403
15103 15104 434
15104 15103 434
15104 15105 1943
15104 15106 1986
15105 15096 2609
15105 15104 1943
15105 15107 1372
15105 15125 4006
15106 15104 1986
15107 15105 1372
15107 15116 4693
15107 15130 3637
15108 15098 2206
15108 15090 3729
15108 15116 2540
15109 15102 3684
15110 15111 5981
15110 15100 3977
15110 15112 114
15111 15110 5981
15111 15084 122
15112 15110 114
15112 15114 502
15112 15120 1361
15113 15114 307
15114 15113 307
15114 15112 502
15114 15115 1847
15115 15114 1847
15115 15117 151
15116 15108 2540
15116 15107 4693
15116 15119 437
15117 15118 1186
15117 15115 151
15118 15117 1186
15118 15125 3425
15119 15116 437
15119 15130 4530
15119 15132 1077
15120 15112 1361
15120 15121 450
15120 15122 222
15121 15120 450
15121 15124 560
15121 15135 2143
15122 15120 222
15122 15123 155
15123 15122 155
15123 15124 420
15123 15131 503
15124 15123 420
15124 15121 560
15124 15136 1252
15125 15118 3425
15125 15105 4006
15125 15126 1020
15125 15134 441
15126 15125 1020
15126 15128 560
15126 15142 964
15127 15128 208
15128 15127 208
15128 15126 560
15128 15129 512
15129 15128 512
15129 15130 191
15129 15141 883
15130 15129 191
15130 15107 3637
15130 15119 4530
15131 15123 503
15131 15152 1521
15131 15170 8218
15132 15119 1077
15132 15133 165
15132 15157 1868
15133 15132 165
15134 15125 441
15134 15143 1154
15134 15169 3611
15135 15121 2143
15135 15139 29
15136 15124 1252
15137 15138 633
15138 15137 633
15139 15140 701
15139 15135 29
15140 15139 701
15141 15129 883
15141 15142 1263
15141 15159 1313
15142 15126 964
15142 15143 273
15142 15141 1263
15143 15134 1154
15143 15142 273
15143 15147 90
15144 15145 95
15144 15146 107
15144 15148 349
15145 15144 95
15146 15144 107
15147 15143 90
15148 15144 349
15148 15158 137
15149 15150 446
15149 15151 2
15150 15149 446
15151 15149 2
15152 15131 1521
15152 15164 75
15153 15154 37
15153 15155 139
15153 15161 215
15154 15153 37
15155 15153 139
15155 15156 323
15155 15160 255
15156 15155 323
15157 15132 1868
15157 15158 2129
15157 15168 2800
15158 15157 2129
15158 15148 137
15159 15141 1313
15159 15160 30
15159 15162 227
15160 15155 255
15160 15159 30
15161 15153 215
15162 15159 227
15162 15163 141
15162 15167 417
15163 15162 141
15164 15165 893
15164 15152 75
15165 15164 893
15166 15102 6403
15167 15162 417
15168 15157 2800
15169 15134 3611
15170 15131 8218
15170 15171 1953
15170 15172 201
15171 15170 1953
15172 15170 201
15173 57 132
15174 37 164
15175 866 25
15176 2358 122
15176 2374 122
15176 2197 130
15177 3347 1656
15177 3875 1656
15177 15178 57
15178 3261 1670
15178 3762 1670
15178 15177 57
15179 4290 210
15180 5190 87
15180 5256 151
15180 5347 210
15181 5337 4
15182 5341 72
15182 15183 72
15183 5341 72
15183 15182 72
15184 15185 13
15185 15184 13
15186 5668 158
15186 5669 158
15186 15187 10
15187 5504 98
15187 5608 98
15187 15186 10
15188 5844 16
15188 15189 14
15188 15195 62
15189 5874 18
15189 5875 18
15189 15188 14
15190 5607 461
15190 5826 461
15190 15191 26
15191 15190 26
15192 15193 38
15193 15192 38
15194 5938 13
15194 5939 13
15194 15195 15
15195 15194 15
15195 15188 62
15195 15196 16
15196 5951 15
15196 5952 15
15196 15195 16
15197 15198 35
15198 15197 35
15199 6173 12
15199 6143 33
15199 15200 8
15199 15203 130
15200 15199 8
15200 15201 36
15200 6198 10
15200 15204 127
15201 6020 166
15201 6178 166
15201 15200 36
15202 15203 18
15203 15202 18
15203 15199 130
15203 15204 8
15203 15206 357
15204 15203 8
15204 15200 127
15204 15205 4
15204 15209 439
15205 15204 4
15206 15203 357
15206 6487 594
15206 15208 34
15207 6487 545
15207 15208 55
15207 15210 219
15208 15207 55
15208 15206 34
15208 15212 234
15209 15204 439
15209 15211 158
15209 15213 185
15210 15207 219
15210 15212 48
15211 15209 158
15211 15213 35
15212 15210 48
15212 15208 234
15212 15213 7
15212 7305 165
15213 15209 185
15213 15211 35
15213 15212 7
15213 15220 169
15214 7114 566
15214 7115 566
15214 15215 32
15215 6941 349
15215 6977 349
15215 15214 32
15216 15217 51
15217 15216 51
15218 15219 22
15219 15218 22
15220 7120 191
15220 7220 191
15220 15213 169
15221 7276 27
15222 15223 19
15223 15222 19
15224 7635 20
15225 15226 41
15226 15225 41
15227 8429 27
15227 15228 27
15228 8429 27
15228 15227 27
15229 15230 28
15230 15229 28
15231 15232 47
15232 15231 47
15232 15233 39
15232 15234 29
15233 15232 39
15234 15232 29
15235 8981 24
15235 8982 24
15235 15236 27
15236 8986 23
15236 8987 23
15236 15235 27
15237 8661 654
15237 9187 654
15237 15238 289
15238 9262 596
15238 9659 596
15238 15237 289
15239 9391 29
15239 9393 29
15239 15240 25
15240 9399 28
15240 9400 28
15240 15239 25
15241 9632 64
15242 10155 14
15242 10156 14
15242 10172 32
15243 10340 21
15243 10341 21
15243 15244 33
15244 10334 23
15244 10335 23
15244 15243 33
15245 15246 38
15246 15245 38
15247 10542 102
15247 10543 102
15247 10630 155
15247 10642 155
15247 10643 155
15247 15248 155
15248 10630 155
15248 10642 155
15248 10643 155
15248 15247 155
15249 10973 369
15249 11178 369
15249 11112 1252
15249 11126 1252
15249 11128 1252
15249 11141 1252
15249 11168 1252
15249 11192 1252
15249 11241 1252
15249 11248 1252
15249 11256 1252
15249 11321 1252
15250 11515 140
15251 15252 15
15252 15251 15
15252 15255 36
15253 15254 19
15254 15253 19
15254 15255 24
15254 15256 13
15255 15252 36
15255 15254 24
15255 15257 33
15256 15254 13
15257 15258 14
15257 15255 33
15257 15259 17
15258 15257 14
15259 15257 17
15260 15261 30
15260 15262 30
15260 15263 38
15260 15264 30
15261 15260 30
15262 15260 30
15263 15260 38
15264 15260 30
15265 12145 614
15265 12406 614
15265 15266 465
15266 15265 465
15266 15269 327
15267 12376 1729
15267 12725 1729
15267 15270 1729
15267 15268 550
15268 12242 379
15268 12376 379
15268 15267 550
15269 15266 327
15269 15270 224
15269 15271 189
15269 12860 1267
15270 12376 1729
15270 12725 1729
15270 15267 1729
15270 15269 224
15271 15269 189
15271 12625 43
15271 12642 0
15271 15272 83
15272 12406 1455
15272 12677 1455
15272 15271 83
15273 12731 231
15273 12787 311
15273 13002 236
15274 13058 211
15274 13267 203
15274 13410 233
15275 13423 484
15275 13495 484
15275 15276 52
15276 15275 52
15277 15278 40
15278 15277 40
15279 15280 51
15280 15279 51
15281 13949 35
15282 15283 47
15283 14156 68
15283 14196 68
15283 15282 47
15284 15285 37
15285 15284 37
15286 14970 648
15286 15014 648
15286 15008 174
15287 7985 128
15287 8143 128
15287 15288 26
15288 15287 26
