8315 22342
0 1 99
0 5 534
1 0 99
2 3 108
3 2 108
3 8 535
4 5 454
4 6 1
4 7 1
5 4 454
5 0 534
6 4 1
7 4 1
8 9 461
8 3 535
9 8 461
10 11 798
11 10 798
12 13 144
12 15 492
12 21 556
13 12 144
13 14 436
14 13 436
15 12 492
16 17 21
17 16 21
17 18 18
17 21 510
18 17 18
19 20 320
19 219 1628
20 19 320
21 17 510
21 12 556
21 22 356
21 24 22
22 21 356
22 23 16
22 26 20
23 22 16
23 25 253
23 27 20
24 21 22
24 26 369
24 42 556
24 68 479
25 23 253
26 24 369
26 22 20
26 27 15
26 37 165
27 26 15
27 23 20
27 28 243
27 41 172
28 27 243
29 30 216
29 33 430
29 36 259
30 29 216
31 32 67
31 33 47
31 34 74
32 31 67
33 31 47
33 29 430
33 59 275
34 31 74
35 36 13
36 35 13
36 29 259
36 40 226
37 26 165
37 43 261
37 55 157
38 39 80
38 41 108
38 53 137
39 38 80
40 36 226
41 27 172
41 38 108
41 90 351
42 24 556
43 37 261
44 45 57
45 44 57
46 47 112
46 50 61
46 50 109
47 46 112
48 49 29
49 48 29
50 46 61
50 46 109
50 51 24
51 50 24
51 52 177
51 54 12
52 51 177
53 38 137
54 51 12
54 62 59
54 64 111
55 37 157
55 58 213
55 93 202
56 57 190
56 59 23
56 77 390
57 56 190
58 55 213
59 56 23
59 33 275
59 64 22
60 61 84
60 61 376
60 70 122
61 60 84
61 60 376
61 63 122
62 54 59
62 65 199
62 161 705
63 61 122
63 69 123
63 70 86
64 59 22
64 54 111
64 88 186
65 62 199
65 66 266
65 67 14
66 65 266
67 65 14
67 74 82
67 75 106
68 24 479
68 73 39
68 81 200
68 103 337
69 63 123
70 63 86
70 60 122
70 86 134
71 72 21
72 71 21
73 68 39
73 78 295
73 83 64
74 67 82
74 104 188
74 104 211
75 67 106
75 76 111
75 79 90
76 75 111
77 56 390
77 101 157
77 110 166
78 73 295
79 75 90
79 80 52
79 84 19
80 79 52
81 68 200
81 82 187
81 98 135
82 81 187
83 73 64
83 157 65
84 79 19
84 124 205
85 86 61
86 85 61
86 70 134
86 89 36
87 88 130
88 87 130
88 64 186
88 92 79
88 108 78
89 86 36
90 41 351
90 91 13
90 93 16
90 94 8
91 90 13
92 88 79
92 97 114
92 111 69
93 55 202
93 90 16
93 96 8
93 99 340
94 90 8
94 95 9
94 96 16
94 102 20
95 94 9
96 93 8
96 94 16
96 103 354
96 109 55
97 92 114
98 81 135
98 99 13
98 103 8
99 98 13
99 100 191
99 93 340
100 99 191
101 77 157
102 94 20
103 68 337
103 98 8
103 96 354
103 177 406
104 74 188
104 74 211
104 117 91
105 106 116
106 105 116
107 108 132
108 107 132
108 88 78
108 111 108
108 118 69
109 96 55
110 77 166
110 115 61
110 130 115
111 108 108
111 92 69
111 114 115
111 122 65
112 113 39
112 116 39
112 117 37
113 112 39
114 111 115
114 129 84
115 110 61
116 112 39
117 104 91
117 112 37
117 123 61
118 108 69
118 122 133
118 125 56
119 120 47
120 119 47
120 121 92
120 132 56
121 120 92
122 118 133
122 111 65
122 129 133
122 134 57
123 117 61
123 127 79
123 127 52
124 84 205
124 127 36
124 161 230
125 126 72
125 118 56
125 128 19
126 125 72
127 123 79
127 124 36
127 123 52
127 142 239
128 125 19
128 140 138
128 145 129
129 122 133
129 114 84
129 137 52
130 131 42
130 110 115
130 139 121
130 140 88
131 130 42
132 120 56
132 133 56
132 139 63
133 132 56
134 122 57
135 136 43
135 138 42
135 141 36
136 135 43
137 129 52
138 135 42
139 132 63
139 130 121
139 144 42
140 130 88
140 128 138
140 147 48
141 135 36
141 143 56
141 148 40
142 127 239
143 141 56
144 139 42
145 128 129
145 146 202
145 151 71
145 167 167
146 145 202
147 140 48
147 154 135
147 166 133
148 141 40
148 149 47
148 150 57
148 152 51
149 148 47
150 148 57
151 145 71
151 155 69
151 170 143
152 148 51
152 156 82
152 173 219
152 192 198
153 154 139
154 153 139
154 147 135
154 159 6
154 169 101
155 151 69
155 166 57
155 179 120
156 152 82
156 162 79
156 192 224
157 158 372
157 83 65
158 157 372
158 255 22
159 160 131
159 154 6
159 165 26
159 168 91
160 159 131
161 62 705
161 124 230
161 223 767
162 163 118
162 156 79
162 167 134
163 162 118
164 165 57
165 164 57
165 159 26
165 171 48
166 147 133
166 155 57
166 178 103
167 145 167
167 162 134
167 170 77
168 159 91
168 169 10
168 171 75
168 190 135
169 168 10
169 154 101
169 178 36
170 151 143
170 167 77
170 179 70
171 172 51
171 165 48
171 168 75
171 199 138
172 171 51
173 152 219
174 175 358
174 176 158
174 177 102
175 174 358
176 174 158
177 103 406
177 174 102
177 182 16
178 169 36
178 166 103
178 187 63
179 155 120
179 170 70
179 187 157
180 181 72
180 185 133
180 188 52
181 180 72
181 184 35
181 186 29
182 177 16
182 183 256
182 230 562
183 182 256
184 181 35
184 186 37
184 194 239
185 180 133
185 191 134
185 202 121
186 181 29
186 184 37
186 188 33
187 178 63
187 179 157
187 189 32
188 180 52
188 186 33
188 196 68
189 187 32
189 190 6
189 191 11
190 168 135
190 189 6
190 193 65
190 201 102
191 189 11
191 185 134
191 200 89
192 156 224
192 152 198
192 195 215
193 190 65
193 199 126
193 216 263
194 184 239
194 215 252
194 215 489
195 192 215
196 188 68
196 197 122
196 202 129
197 196 122
198 199 21
199 198 21
199 171 138
199 193 126
199 207 49
200 191 89
200 201 6
200 213 156
201 190 102
201 200 6
201 205 34
201 221 416
202 185 121
202 196 129
202 208 66
203 204 60
203 212 114
203 214 123
204 203 60
205 206 45
205 201 34
205 209 90
206 205 45
207 199 49
208 202 66
209 205 90
210 211 468
211 210 468
212 203 114
212 213 74
212 214 44
213 200 156
213 212 74
213 217 125
214 212 44
214 203 123
214 217 74
215 194 252
215 194 489
215 218 114
216 193 263
217 213 125
217 214 74
217 218 88
218 217 88
218 215 114
218 220 46
219 19 1628
219 224 59
220 218 46
220 221 6
220 225 144
221 201 416
221 220 6
221 222 31
221 226 144
222 221 31
222 229 146
222 234 224
223 161 767
223 224 18
223 287 639
224 223 18
224 219 59
225 220 144
225 226 6
225 227 13
226 221 144
226 225 6
226 228 13
226 235 146
227 225 13
227 228 6
227 250 259
228 226 13
228 227 6
228 236 146
228 251 259
229 222 146
230 182 562
230 231 139
230 232 8
231 230 139
232 230 8
232 233 137
232 265 291
233 232 137
234 222 224
234 235 26
234 240 50
235 234 26
235 226 146
235 236 12
235 258 185
236 235 12
236 228 146
236 259 185
237 238 10
237 239 79
237 245 46
237 247 80
238 237 10
239 237 79
240 234 50
241 242 57
242 241 57
243 244 224
244 243 224
245 237 46
245 246 75
245 248 44
245 252 73
246 245 75
247 237 80
248 245 44
248 249 73
248 253 38
248 257 70
249 248 73
250 227 259
250 251 6
250 260 83
250 275 387
251 228 259
251 250 6
251 262 82
251 266 251
251 297 766
252 245 73
253 248 38
253 254 62
253 258 34
253 261 73
254 253 62
255 256 918
255 158 22
256 255 918
256 263 77
257 248 70
258 253 34
258 235 185
258 259 11
258 268 248
259 258 11
259 236 185
259 269 250
260 250 83
260 299 981
261 253 73
262 251 82
262 302 987
263 264 532
263 312 665
263 256 77
264 263 532
265 232 291
266 251 251
266 279 146
266 317 711
267 268 249
268 267 249
268 258 248
268 269 11
268 288 336
269 268 11
269 259 250
269 277 126
270 271 43
271 270 43
272 273 22
272 274 62
272 276 25
272 282 90
273 272 22
274 272 62
275 250 387
275 278 48
275 279 67
276 272 25
277 269 126
277 289 212
277 297 214
278 275 48
278 281 43
278 287 352
279 266 146
279 275 67
279 280 10
280 279 10
280 281 45
280 286 56
281 280 45
281 278 43
281 284 31
281 286 27
282 272 90
282 283 297
282 285 20
283 282 297
284 281 31
284 293 340
284 294 105
285 282 20
285 288 31
285 291 99
286 280 56
286 281 27
286 292 36
287 278 352
287 223 639
287 290 20
287 300 438
288 285 31
288 268 336
288 289 11
288 295 141
289 288 11
289 277 212
289 296 130
290 287 20
290 293 10
291 285 99
292 286 36
292 294 64
292 304 126
293 284 340
293 290 10
293 301 427
293 325 667
294 292 64
294 284 105
294 305 84
295 288 141
296 289 130
296 298 23
296 306 215
297 277 214
297 251 766
297 306 348
297 307 214
298 296 23
299 300 170
299 260 981
300 299 170
300 287 438
300 374 203
301 293 427
301 302 168
301 377 207
302 301 168
302 262 987
303 304 330
304 303 330
304 292 126
304 305 89
304 319 407
305 304 89
305 294 84
305 320 422
306 296 215
306 297 348
306 314 112
306 316 257
307 297 214
307 314 388
307 317 318
308 309 15
309 308 15
309 310 24
310 309 24
310 311 15
310 315 972
311 310 15
312 263 665
312 313 418
312 338 55
313 312 418
314 306 112
314 307 388
314 322 277
315 310 972
316 306 257
317 307 318
317 266 711
317 318 109
317 319 346
318 317 109
318 323 346
318 329 318
319 317 346
319 304 407
319 320 131
319 323 112
320 319 131
320 305 422
320 324 115
320 325 418
321 322 232
322 321 232
322 314 277
322 329 614
323 318 346
323 319 112
323 324 130
323 326 103
324 323 130
324 320 115
324 327 102
325 320 418
325 293 667
325 332 177
326 323 103
326 327 130
326 328 240
326 330 104
327 326 130
327 324 102
327 336 213
328 326 240
328 330 138
328 331 206
329 322 614
329 318 318
329 331 87
330 328 138
330 326 104
330 335 110
331 329 87
331 328 206
331 335 258
332 325 177
332 340 253
332 342 266
333 334 47
334 333 47
335 331 258
335 330 110
335 336 127
336 335 127
336 327 213
336 337 159
336 348 355
337 336 159
337 340 249
337 354 390
338 339 663
338 312 55
339 338 663
339 341 476
339 343 74
340 337 249
340 332 253
340 349 439
340 356 422
341 339 476
342 332 266
343 344 480
343 355 295
343 339 74
344 343 480
345 346 502
346 345 502
347 348 289
348 347 289
348 336 355
348 354 229
348 364 375
349 340 439
349 350 213
349 351 142
350 349 213
351 349 142
351 356 441
351 359 128
352 353 73
352 354 200
352 361 226
353 352 73
354 348 229
354 337 390
354 352 200
354 362 160
355 343 295
355 360 75
356 340 422
356 351 441
356 361 98
357 358 395
357 360 207
358 357 395
359 351 128
359 376 946
359 388 724
360 357 207
360 363 1020
360 368 314
360 355 75
361 352 226
361 356 98
361 378 384
362 354 160
362 365 219
362 370 306
363 360 1020
364 348 375
364 365 274
364 380 820
364 382 508
364 384 318
365 364 274
365 362 219
365 370 119
366 367 79
367 366 79
367 385 343
367 388 369
368 360 314
368 369 612
368 373 53
369 368 612
370 365 119
370 362 306
370 378 160
370 387 225
371 372 609
372 371 609
372 373 8
372 400 610
373 372 8
373 368 53
374 375 1833
374 300 203
375 374 1833
375 376 9
375 386 1150
375 401 699
376 377 1819
376 375 9
376 359 946
376 438 1450
377 376 1819
377 301 207
378 370 160
378 361 384
378 379 20
379 378 20
379 388 437
379 398 707
380 364 820
380 381 136
380 395 550
381 380 136
381 382 230
381 389 128
382 381 230
382 364 508
382 383 40
383 382 40
383 384 211
383 390 129
384 383 211
384 364 318
384 391 130
385 367 343
386 375 1150
387 370 225
388 359 724
388 367 369
388 379 437
389 381 128
389 390 268
389 392 105
390 389 268
390 383 129
390 391 211
390 393 103
391 390 211
391 384 130
391 394 102
392 389 105
392 393 269
392 396 125
393 392 269
393 390 103
393 394 209
393 397 125
394 393 209
394 391 102
394 398 125
395 380 550
395 396 556
395 414 602
396 395 556
396 392 125
396 397 270
396 404 231
397 396 270
397 393 125
397 398 207
397 405 229
398 397 207
398 394 125
398 379 707
398 406 229
399 400 572
400 399 572
400 372 610
400 402 48
401 375 699
401 412 503
401 441 753
402 403 528
402 421 381
402 400 48
403 402 528
404 396 231
404 405 271
404 420 322
405 404 271
405 397 229
405 406 205
405 418 277
406 405 205
406 398 229
406 436 482
407 408 6
407 409 21
407 424 486
408 407 6
409 407 21
410 411 376
410 413 192
410 425 204
411 410 376
411 413 224
412 401 503
412 419 157
412 444 360
413 410 192
413 411 224
413 415 42
414 395 602
414 417 229
414 420 786
415 413 42
415 416 303
415 427 145
416 415 303
417 414 229
417 424 801
417 443 270
418 405 277
419 412 157
419 423 144
419 444 324
420 414 786
420 404 322
420 422 136
421 402 381
421 429 82
422 420 136
422 426 140
422 461 407
423 419 144
423 467 332
423 491 481
424 407 486
424 417 801
424 481 486
425 410 204
425 427 187
425 472 362
426 422 140
426 436 268
426 461 221
427 425 187
427 415 145
427 430 213
427 488 284
428 429 254
429 428 254
429 445 126
429 421 82
430 427 213
430 431 103
430 457 169
431 430 103
431 432 25
431 433 70
431 435 37
432 431 25
433 431 70
433 434 50
433 437 47
434 433 50
435 431 37
436 426 268
436 406 482
436 448 184
436 464 135
437 433 47
438 376 1450
438 557 454
439 440 31
439 446 160
439 451 173
440 439 31
440 455 11
441 401 753
441 554 454
442 443 251
443 442 251
443 417 270
443 505 307
444 412 360
444 419 324
444 467 155
444 494 516
445 429 126
445 446 32
445 599 732
446 445 32
446 439 160
446 447 29
446 470 131
447 446 29
447 450 14
448 436 184
448 499 385
448 472 277
448 477 277
449 450 23
450 449 23
450 452 14
450 454 76
450 447 14
451 439 173
451 453 25
451 492 437
452 450 14
453 451 25
453 459 12
454 450 76
454 455 57
454 456 39
454 465 13
455 454 57
455 440 11
456 454 39
457 430 169
457 458 26
457 490 118
458 457 26
458 462 69
458 475 101
459 460 24
459 453 12
460 459 24
460 479 12
461 422 407
461 426 221
461 464 275
461 530 428
462 458 69
462 463 27
462 468 70
462 475 34
463 462 27
464 461 275
464 436 135
464 499 177
465 466 26
465 454 13
466 465 26
466 471 16
466 473 85
467 444 155
467 423 332
467 491 210
468 462 70
468 469 28
468 475 103
469 468 28
470 446 131
470 471 27
470 527 527
471 470 27
471 466 16
471 480 80
472 425 362
472 448 277
472 477 277
473 466 85
473 474 13
473 478 36
473 480 16
474 473 13
475 458 101
475 462 34
475 468 103
476 477 53
476 488 318
476 553 451
477 476 53
477 562 518
477 448 277
477 472 277
478 473 36
478 479 52
478 482 10
479 478 52
479 460 12
480 471 80
480 473 16
480 482 34
481 424 486
481 484 516
481 585 780
482 480 34
482 478 10
482 485 37
483 484 246
484 483 246
484 481 516
484 487 339
484 519 256
485 482 37
485 486 20
485 489 6
486 485 20
487 484 339
488 476 318
488 427 284
488 490 172
488 526 307
489 485 6
489 503 46
490 488 172
490 457 118
490 496 250
491 467 210
491 423 481
491 513 207
492 451 437
492 493 452
492 508 141
493 492 452
494 495 131
494 444 516
494 512 169
495 494 131
496 490 250
496 497 59
497 496 59
497 498 28
498 497 28
498 500 113
498 551 329
499 464 177
499 448 385
499 523 191
500 498 113
500 501 150
500 515 127
501 500 150
501 502 311
501 512 144
502 501 311
503 504 123
503 489 46
504 503 123
504 516 37
505 506 535
505 443 307
505 507 183
505 586 364
506 505 535
507 505 183
508 492 141
508 509 119
508 522 96
509 508 119
509 510 29
510 511 310
510 509 29
511 510 310
512 501 144
512 494 169
512 535 391
512 583 331
513 514 265
513 491 207
513 531 145
514 513 265
515 500 127
515 547 175
515 561 289
516 517 54
516 504 37
517 516 54
517 518 54
517 537 139
518 517 54
518 520 22
519 484 256
519 585 277
519 589 546
520 521 60
520 518 22
521 520 60
521 528 240
521 529 97
522 508 96
522 534 36
523 499 191
523 530 131
523 544 102
524 525 230
524 526 177
524 569 153
525 524 230
526 488 307
526 524 177
526 576 181
527 470 527
527 536 92
527 548 104
528 521 240
528 529 65
528 533 73
529 521 97
529 528 65
529 537 109
530 461 428
530 523 131
530 586 1378
531 532 381
531 513 145
531 574 149
532 531 381
533 528 73
533 534 107
533 552 55
534 533 107
534 522 36
535 512 391
535 574 249
535 646 431
536 527 92
536 548 47
536 549 67
537 517 139
537 529 109
537 549 51
538 539 18
538 540 16
538 542 16
539 538 18
540 538 16
540 541 9
540 559 92
541 540 9
541 559 128
542 543 23
542 538 16
542 550 15
543 542 23
544 523 102
544 588 341
544 687 658
545 546 132
545 553 100
545 577 106
546 545 132
547 515 175
547 551 61
547 561 111
548 527 104
548 536 47
548 560 60
548 621 284
549 536 67
549 537 51
549 558 33
550 542 15
550 552 73
550 572 112
551 498 329
551 547 61
551 555 71
552 533 55
552 550 73
552 567 136
552 571 78
553 476 451
553 545 100
553 562 66
554 555 144
554 441 454
555 554 144
555 551 71
555 556 17
555 674 540
556 557 152
556 555 17
556 569 190
556 673 535
557 556 152
557 438 454
558 549 33
558 560 61
558 568 77
559 541 128
559 540 92
559 563 31
560 548 60
560 558 61
560 630 272
561 547 111
561 515 289
561 583 196
562 477 518
562 553 66
562 582 75
563 559 31
563 564 4
563 565 63
564 563 4
564 565 9
564 566 11
565 564 9
565 563 63
565 573 32
566 564 11
566 572 17
566 573 31
567 552 136
567 570 24
567 571 82
568 558 77
568 570 42
568 637 293
569 524 153
569 556 190
569 576 210
570 567 24
570 568 42
570 640 307
571 552 78
571 567 82
571 592 86
572 550 112
572 566 17
572 575 29
573 566 31
573 565 32
573 575 18
573 579 53
574 535 249
574 531 149
574 581 83
575 572 29
575 573 18
575 584 52
576 526 181
576 569 210
576 577 116
576 639 267
577 545 106
577 576 116
577 578 28
578 577 28
578 582 131
578 636 234
579 573 53
579 580 16
579 584 14
579 593 47
580 579 16
580 8000 27
581 574 83
581 614 415
581 635 236
582 562 75
582 578 131
582 600 77
583 561 196
583 512 331
583 650 284
584 575 52
584 579 14
584 598 55
585 519 277
585 481 780
585 623 279
585 697 580
586 587 268
586 505 364
586 530 1378
587 586 268
588 544 341
588 591 65
588 591 755
589 590 112
589 519 546
589 628 166
590 589 112
591 588 65
591 594 53
591 588 755
592 571 86
592 608 39
593 579 47
593 611 101
593 611 124
594 591 53
594 595 62
594 596 79
594 652 236
595 594 62
596 594 79
596 597 274
596 600 154
597 596 274
598 584 55
598 601 23
598 601 37
599 445 732
599 602 458
599 607 16
600 596 154
600 582 77
600 633 127
601 598 23
601 598 37
601 613 47
602 599 458
603 604 17
604 603 17
605 606 368
606 605 368
607 599 16
607 619 37
608 609 27
608 592 39
609 608 27
609 610 4
609 612 35
610 609 4
610 612 25
611 593 101
611 593 124
612 610 25
612 609 35
612 647 147
613 601 47
613 615 16
613 651 200
614 581 415
614 634 222
614 668 303
615 613 16
615 616 19
615 641 134
616 615 19
616 620 39
616 638 103
617 618 572
617 619 30
617 704 510
618 617 572
619 617 30
619 607 37
620 616 39
620 624 21
620 638 74
621 622 17
621 548 284
621 630 69
622 621 17
623 585 279
623 628 211
623 670 237
624 620 21
624 625 4
624 643 87
625 624 4
625 629 25
625 632 314
626 627 329
626 628 60
626 669 225
627 626 329
628 626 60
628 589 166
628 623 211
629 625 25
629 631 14
629 644 75
630 621 69
630 560 272
630 637 102
631 629 14
631 632 30
631 645 74
632 631 30
632 625 314
633 600 127
633 636 112
633 656 94
634 614 222
634 648 137
634 686 337
635 581 236
635 642 208
635 646 332
635 671 223
636 633 112
636 578 234
636 639 146
637 630 102
637 568 293
637 640 51
638 616 103
638 620 74
638 641 17
639 636 146
639 576 267
639 657 73
640 637 51
640 570 307
640 647 94
641 615 134
641 638 17
641 643 20
642 635 208
642 661 91
642 662 113
643 641 20
643 624 87
643 644 18
644 643 18
644 629 75
644 645 14
644 651 19
645 644 14
645 631 74
645 654 18
646 535 431
646 635 332
646 675 185
647 640 94
647 612 147
647 653 76
648 634 137
648 649 191
648 666 316
649 648 191
650 583 284
651 613 200
651 644 19
651 654 14
652 594 236
653 647 76
654 651 14
654 645 18
654 655 61
655 654 61
656 633 94
656 658 24
656 657 271
657 639 73
657 656 271
657 699 308
658 656 24
658 692 260
658 713 615
659 660 65
660 659 65
660 663 47
661 642 91
661 667 116
661 672 122
662 642 113
662 667 86
662 668 119
663 660 47
663 664 149
663 691 238
664 665 456
664 663 149
664 666 164
665 664 456
666 648 316
666 664 164
666 693 197
667 661 116
667 662 86
667 677 89
667 682 113
668 662 119
668 614 303
668 676 82
668 677 95
669 626 225
669 670 246
669 689 155
670 669 246
670 623 237
670 696 178
671 635 223
671 672 181
671 675 289
671 678 35
672 671 181
672 661 122
672 682 109
673 556 535
673 804 113
674 555 540
674 806 115
675 646 185
675 671 289
675 683 339
675 688 142
676 668 82
676 685 81
676 686 127
677 667 89
677 668 95
677 679 26
678 671 35
678 695 283
678 707 403
679 677 26
679 684 81
679 685 164
680 681 1065
680 687 1440
680 860 1701
681 680 1065
681 697 414
681 729 422
682 672 109
682 667 113
682 684 33
683 675 339
683 688 340
683 699 725
684 682 33
684 679 81
684 695 87
684 728 567
685 676 81
685 679 164
685 698 136
686 676 127
686 634 337
686 698 86
686 700 133
687 680 1440
687 544 658
687 758 673
688 675 142
688 683 340
688 707 301
689 669 155
689 696 212
689 726 1519
690 691 102
690 693 158
690 716 265
691 690 102
691 663 238
691 694 116
691 715 258
692 658 260
692 703 78
692 711 322
693 666 197
693 690 158
693 710 165
694 691 116
695 678 283
695 684 87
695 701 71
695 701 982
696 689 212
696 670 178
696 697 346
696 721 274
697 696 346
697 585 580
697 681 414
697 733 333
698 685 136
698 686 86
698 709 127
699 657 308
699 683 725
699 708 310
700 686 133
700 705 144
700 706 131
701 695 71
701 702 38
701 695 982
702 701 38
703 692 78
703 708 78
703 711 233
704 617 510
704 752 46
705 700 144
705 712 91
705 710 470
705 728 269
706 700 131
707 688 301
707 678 403
707 725 204
708 703 78
708 699 310
708 723 327
709 698 127
710 693 165
710 705 470
710 720 101
711 692 322
711 703 233
711 713 112
712 705 91
712 714 112
712 739 281
713 658 615
713 711 112
713 723 68
714 712 112
714 731 166
714 742 274
715 691 258
715 716 70
715 746 502
716 690 265
716 715 70
716 720 121
717 718 148
717 719 198
717 724 672
717 786 471
718 717 148
719 717 198
720 710 101
720 716 121
720 746 233
721 722 189
721 696 274
721 730 83
722 721 189
723 713 68
723 708 327
723 727 107
724 717 672
724 726 111
724 779 416
725 707 204
726 724 111
726 689 1519
726 750 259
727 723 107
727 759 643
727 763 380
728 684 567
728 705 269
728 732 18
729 681 422
729 733 379
729 757 659
730 721 83
730 735 130
730 741 178
730 756 283
731 714 166
731 740 85
731 751 263
732 728 18
732 739 90
732 743 145
733 697 333
733 729 379
733 734 146
733 757 267
734 733 146
735 730 130
735 736 50
735 766 280
736 735 50
736 737 245
736 738 75
737 736 245
738 736 75
739 732 90
739 712 281
739 742 108
739 749 147
740 731 85
740 745 91
740 755 240
741 730 178
742 739 108
742 714 274
742 744 24
743 732 145
743 749 90
743 794 378
744 742 24
744 751 145
744 749 272
745 740 91
745 747 17
745 773 227
746 720 233
746 747 38
746 715 502
747 745 17
747 746 38
747 748 19
748 747 19
748 785 208
749 743 90
749 739 147
749 744 272
749 754 86
750 726 259
750 760 130
750 762 116
751 744 145
751 731 263
751 755 80
752 753 452
752 704 46
753 752 452
753 764 68
754 749 86
755 751 80
755 740 240
755 773 87
756 730 283
756 765 538
756 767 35
757 733 267
757 729 659
757 766 267
757 843 680
758 687 673
758 759 33
758 814 517
759 758 33
759 727 643
759 763 173
760 761 70
760 750 130
760 769 52
761 760 70
761 768 251
761 768 113
762 750 116
762 770 96
762 790 174
763 759 173
763 727 380
763 803 1258
764 753 68
765 756 538
766 735 280
766 757 267
766 767 64
767 756 35
767 766 64
767 782 60
768 761 251
768 761 113
768 781 71
769 760 52
769 770 113
769 781 56
770 762 96
770 769 113
770 792 190
771 772 10
772 771 10
773 755 87
773 745 227
773 1089 2422
774 775 248
775 774 248
775 776 208
775 786 405
775 983 1750
776 775 208
777 778 125
778 777 125
778 787 27
779 780 147
779 724 416
779 789 79
779 791 85
780 779 147
780 797 280
780 808 408
781 768 71
781 769 56
781 789 47
782 783 165
782 767 60
782 793 111
783 782 165
783 784 223
783 795 188
784 783 223
785 748 208
786 775 405
786 717 471
786 798 350
787 788 28
787 778 27
788 787 28
788 811 695
788 850 618
789 779 79
789 781 47
789 792 97
790 762 174
790 809 238
790 815 433
791 779 85
791 796 60
792 789 97
792 770 190
792 818 277
793 782 111
793 807 162
793 813 217
794 743 378
794 800 106
795 783 188
796 791 60
796 797 22
796 819 370
797 780 280
797 796 22
797 817 232
798 786 350
798 799 230
798 808 158
798 983 1014
799 798 230
800 794 106
800 823 941
800 826 188
801 802 2
802 801 2
802 811 46
803 763 1258
803 804 971
803 805 19
803 862 445
804 803 971
804 673 113
805 803 19
805 806 973
805 925 781
806 805 973
806 674 115
807 793 162
807 813 138
807 824 133
808 798 158
808 780 408
808 817 175
809 790 238
809 812 68
809 880 469
810 811 43
811 810 43
811 788 695
811 822 100
811 802 46
812 809 68
812 815 119
812 839 351
813 793 217
813 807 138
813 821 262
813 824 207
814 758 517
814 860 588
814 915 734
815 790 433
815 812 119
815 816 59
816 815 59
816 818 89
816 839 193
817 808 175
817 797 232
817 820 13
818 792 277
818 816 89
818 819 81
818 837 161
819 796 370
819 818 81
819 842 268
820 817 13
820 836 172
820 841 285
821 813 262
822 811 100
822 895 435
823 800 941
824 813 207
824 807 133
824 825 53
825 824 53
826 800 188
826 827 187
826 848 228
827 826 187
827 828 79
827 835 166
828 827 79
829 830 170
830 829 170
830 831 1
830 893 819
831 830 1
831 832 10
832 831 10
833 834 544
833 838 78
833 840 237
834 833 544
834 893 2490
834 8011 2490
834 8012 2490
835 827 166
836 820 172
837 818 161
837 839 70
837 854 140
838 833 78
839 837 70
839 816 193
839 812 351
840 833 237
840 8009 2429
840 8010 2429
841 820 285
841 842 5
841 857 100
842 841 5
842 819 268
842 852 199
843 757 680
843 855 187
843 859 62
844 845 107
844 847 41
844 851 305
844 867 159
845 844 107
845 846 8
845 847 76
846 845 8
847 845 76
847 844 41
847 853 35
848 826 228
848 884 167
848 905 286
849 850 966
850 849 966
850 788 618
850 876 114
851 844 305
851 859 35
851 867 232
852 842 199
852 854 12
852 861 29
853 847 35
854 852 12
854 837 140
854 858 28
855 843 187
855 856 305
855 881 129
855 896 275
856 855 305
857 841 100
857 869 89
857 886 134
858 854 28
858 864 102
858 866 42
859 851 35
859 843 62
859 896 158
860 680 1701
860 814 588
860 930 432
861 852 29
861 863 55
861 865 24
861 865 79
862 803 445
862 871 251
862 949 442
863 861 55
863 865 37
863 877 97
864 858 102
864 872 128
864 875 41
865 863 37
865 861 24
865 861 79
865 868 12
866 858 42
866 875 104
866 883 128
867 844 159
867 851 232
867 894 109
868 865 12
869 857 89
869 878 69
869 901 135
870 871 316
870 915 951
870 954 464
871 870 316
871 862 251
871 955 395
872 864 128
872 880 58
872 907 138
873 874 231
874 873 231
874 882 89
874 889 44
875 866 104
875 864 41
875 883 27
875 906 172
876 850 114
877 863 97
878 879 94
878 869 69
878 885 58
879 878 94
880 872 58
880 809 469
880 913 428
880 1087 1891
881 855 129
881 904 130
881 922 184
882 874 89
883 866 128
883 875 27
883 903 134
884 848 167
885 878 58
885 892 117
885 929 256
886 857 134
887 888 16
888 887 16
889 874 44
889 897 122
889 938 1227
890 891 136
890 894 36
890 921 248
891 890 136
892 885 117
893 830 819
893 834 2490
893 8011 2490
893 8012 2490
894 890 36
894 867 109
894 921 215
895 822 435
895 898 582
895 900 313
896 859 158
896 855 275
896 927 151
897 889 122
897 899 25
897 911 54
898 895 582
899 897 25
899 904 479
899 923 260
900 895 313
901 869 135
902 903 31
903 902 31
903 883 134
903 906 26
903 919 82
904 881 130
904 899 479
904 920 110
905 848 286
905 934 236
905 945 234
906 903 26
906 875 172
906 907 32
906 919 62
907 906 32
907 872 138
907 919 94
908 909 316
908 910 73
908 926 98
909 908 316
910 908 73
911 897 54
911 912 310
911 958 275
912 911 310
913 880 428
913 914 238
913 916 83
914 913 238
915 814 734
915 870 951
915 953 283
915 984 684
916 913 83
916 917 49
916 951 175
917 916 49
917 918 270
917 926 309
918 917 270
919 903 82
919 906 62
919 907 94
920 904 110
920 923 19
920 924 45
921 890 248
921 894 215
921 937 55
922 881 184
922 924 146
922 943 88
923 920 19
923 899 260
923 941 85
924 922 146
924 920 45
924 944 205
925 805 781
925 935 48
925 942 65
926 917 309
926 908 98
926 928 25
927 896 151
927 939 36
927 943 300
928 926 25
928 936 135
928 951 674
929 885 256
930 860 432
930 938 23
930 940 44
931 932 112
931 933 298
931 963 229
932 931 112
933 931 298
934 905 236
935 925 48
935 942 42
935 955 878
936 928 135
936 937 15
936 996 411
937 936 15
937 921 55
937 952 310
938 889 1227
938 930 23
938 1005 798
939 927 36
939 946 255
939 952 85
940 930 44
940 984 720
940 1012 595
941 923 85
941 958 269
941 988 254
942 925 65
942 935 42
942 948 36
943 927 300
943 922 88
943 944 13
944 943 13
944 924 205
944 947 18
945 905 234
946 939 255
946 950 50
946 960 106
947 944 18
947 950 10
947 974 202
948 942 36
948 1045 387
949 862 442
949 1123 383
950 946 50
950 947 10
950 961 110
951 916 175
951 956 51
951 928 674
952 937 310
952 939 85
952 957 153
952 959 60
953 915 283
953 954 638
953 1056 791
954 953 638
954 870 464
954 955 297
954 1060 675
955 954 297
955 871 395
955 935 878
955 1061 676
956 951 51
957 952 153
957 960 113
957 962 59
958 941 269
958 911 275
958 963 124
958 979 113
959 952 60
959 962 149
959 964 46
960 957 113
960 946 106
960 961 54
961 960 54
961 950 110
961 972 109
961 986 83
962 959 149
962 957 59
962 973 91
962 981 47
963 958 124
963 931 229
963 966 96
963 982 48
964 959 46
964 965 11
964 981 145
965 964 11
965 999 176
965 1087 753
966 963 96
966 967 255
966 975 27
967 966 255
968 969 401
969 968 401
970 971 484
970 1073 743
970 1074 733
971 970 484
972 961 109
972 974 8
972 1018 311
973 962 91
974 972 8
974 947 202
974 976 30
975 966 27
975 987 173
975 989 56
976 974 30
976 988 166
976 1019 309
977 978 463
978 977 463
979 980 56
979 958 113
979 985 30
980 979 56
981 964 145
981 962 47
981 986 188
981 999 153
982 963 48
982 989 111
982 991 49
983 798 1014
983 775 1750
983 1146 1063
984 940 720
984 915 684
984 1026 328
985 979 30
986 961 83
986 981 188
986 1013 232
987 975 173
988 976 166
988 941 254
988 993 133
988 1009 184
989 982 111
989 975 56
989 992 73
989 995 50
990 991 87
991 990 87
991 982 49
991 995 105
991 998 64
992 989 73
993 988 133
993 994 30
993 1004 138
994 993 30
994 998 123
994 1011 136
995 991 105
995 989 50
995 997 101
995 1000 66
996 936 411
997 995 101
998 994 123
998 991 64
998 1000 99
998 1016 173
999 965 176
999 981 153
999 1015 162
1000 998 99
1000 995 66
1000 1001 20
1001 1000 20
1001 1010 159
1001 1017 141
1002 1003 632
1003 1002 632
1003 1059 605
1004 993 138
1004 1009 96
1004 1011 141
1005 1006 191
1005 938 798
1005 1010 100
1005 1030 200
1006 1005 191
1007 1008 89
1007 1038 443
1007 1163 1371
1008 1007 89
1009 988 184
1009 1004 96
1009 1028 119
1010 1001 159
1010 1005 100
1010 1025 138
1010 1034 187
1011 1004 141
1011 994 136
1011 1032 130
1012 940 595
1012 1021 138
1012 1040 365
1013 986 232
1013 1014 8
1013 1029 177
1014 1013 8
1014 1018 100
1014 1020 38
1015 999 162
1015 1024 191
1015 1029 53
1016 998 173
1016 1017 106
1016 1032 134
1017 1016 106
1017 1001 141
1017 1025 95
1017 1031 48
1018 1014 100
1018 972 311
1018 1019 35
1019 1018 35
1019 976 309
1019 1028 121
1020 1014 38
1020 1042 213
1020 1042 345
1021 1012 138
1021 1030 69
1021 1057 395
1022 1023 87
1023 1022 87
1023 1027 60
1023 1035 57
1024 1015 191
1025 1017 95
1025 1010 138
1025 1037 114
1026 984 328
1026 1027 13
1026 1043 183
1027 1026 13
1027 1023 60
1027 1054 186
1028 1019 121
1028 1009 119
1028 1033 165
1028 1055 187
1029 1015 53
1029 1013 177
1029 1041 135
1030 1005 200
1030 1021 69
1030 1034 103
1031 1017 48
1032 1011 130
1032 1016 134
1032 1033 44
1032 1036 36
1033 1028 165
1033 1032 44
1033 1036 27
1034 1010 187
1034 1030 103
1034 1053 205
1034 1082 344
1035 1023 57
1036 1033 27
1036 1032 36
1036 1037 285
1036 1055 217
1037 1036 285
1037 1025 114
1037 1039 20
1038 1007 443
1039 1037 20
1039 1053 105
1039 1090 334
1040 1012 365
1040 1057 132
1040 1043 872
1041 1029 135
1041 1044 181
1041 1047 32
1042 1020 213
1042 1020 345
1042 1047 30
1043 1026 183
1043 1064 130
1043 1040 872
1043 1077 862
1044 1041 181
1045 1046 284
1045 948 387
1046 1045 284
1046 1093 295
1046 1101 342
1047 1041 32
1047 1042 30
1047 1051 15
1048 1049 79
1048 1050 98
1048 1071 142
1049 1048 79
1050 1048 98
1050 1054 403
1051 1052 63
1051 1047 15
1051 1069 116
1052 1051 63
1053 1039 105
1053 1034 205
1053 1086 239
1054 1027 186
1054 1050 403
1054 1058 47
1055 1028 187
1055 1036 217
1055 1090 372
1055 1099 368
1056 953 791
1056 1063 71
1056 1088 215
1057 1021 395
1057 1040 132
1057 1077 95
1057 1082 337
1058 1054 47
1058 1064 30
1058 1068 199
1059 1003 605
1059 1146 1006
1059 1177 660
1060 954 675
1060 1061 305
1060 1063 102
1060 1085 129
1061 1060 305
1061 955 676
1061 1062 231
1062 1061 231
1063 1056 71
1063 1060 102
1063 1085 159
1064 1043 130
1064 1058 30
1064 1134 435
1065 1066 178
1065 1067 24
1065 1071 49
1066 1065 178
1067 1065 24
1067 1080 189
1067 1084 119
1068 1058 199
1068 1078 145
1068 1114 339
1069 1070 367
1069 1051 116
1069 1079 53
1070 1069 367
1071 1048 142
1071 1065 49
1071 1078 61
1072 1073 2408
1073 1072 2408
1073 970 743
1073 1074 19
1073 1259 1030
1074 1073 19
1074 970 733
1074 1110 516
1074 1272 1093
1075 1076 66
1075 1080 36
1075 1081 46
1075 1083 440
1076 1075 66
1077 1057 95
1077 1043 862
1077 1111 353
1078 1071 61
1078 1068 145
1078 1084 70
1079 1069 53
1079 1091 172
1079 1099 192
1080 1067 189
1080 1075 36
1080 1081 49
1081 1080 49
1081 1075 46
1081 1083 104
1082 1034 344
1082 1057 337
1082 1086 221
1082 1111 188
1083 1081 104
1083 1075 440
1083 1088 324
1084 1078 70
1084 1067 119
1084 1097 119
1085 1063 159
1085 1060 129
1085 1094 89
1086 1053 239
1086 1082 221
1086 1156 434
1087 880 1891
1087 965 753
1087 1147 409
1088 1083 324
1088 1056 215
1088 1094 211
1088 1100 79
1089 773 2422
1089 1112 389
1089 1131 322
1090 1055 372
1090 1039 334
1090 1104 128
1090 1132 224
1091 1092 73
1091 1079 172
1091 1138 240
1092 1091 73
1093 1046 295
1093 1101 152
1093 1124 328
1094 1088 211
1094 1085 89
1094 1113 70
1095 1096 113
1095 1102 233
1095 1116 109
1096 1095 113
1097 1084 119
1097 1098 30
1097 1114 141
1098 1097 30
1098 1142 266
1099 1079 192
1099 1055 368
1099 1117 170
1100 1088 79
1100 1113 227
1100 1115 84
1101 1046 342
1101 1093 152
1101 1124 118
1102 1095 233
1102 1103 133
1102 1125 110
1103 1102 133
1104 1090 128
1104 1117 228
1104 1127 121
1105 1106 97
1106 1105 97
1106 1107 70
1106 1108 127
1106 1119 81
1107 1106 70
1108 1106 127
1108 1109 199
1108 1126 84
1109 1108 199
1110 1074 516
1111 1082 188
1111 1077 353
1111 1279 895
1112 1089 389
1113 1100 227
1113 1094 70
1113 1120 51
1114 1068 339
1114 1097 141
1114 1134 233
1114 1170 274
1115 1100 84
1116 1095 109
1116 1125 234
1116 1172 260
1117 1099 170
1117 1104 228
1117 1133 75
1118 1119 91
1119 1118 91
1119 1106 81
1119 1126 127
1119 1137 90
1120 1113 51
1120 1121 292
1120 1153 171
1121 1120 292
1121 1122 202
1121 1154 173
1122 1121 202
1122 1123 742
1122 1124 10
1122 1216 687
1123 1122 742
1123 949 383
1124 1122 10
1124 1101 118
1124 1093 328
1124 1220 701
1125 1116 234
1125 1102 110
1125 1174 264
1126 1119 127
1126 1108 84
1126 1141 88
1127 1104 121
1127 1128 72
1127 1135 67
1128 1127 72
1129 1130 561
1129 1158 174
1129 1162 1344
1130 1129 561
1131 1089 322
1132 1090 224
1132 1150 147
1132 1156 191
1133 1117 75
1133 1140 69
1133 1179 422
1134 1064 435
1134 1114 233
1134 1139 15
1135 1127 67
1135 1140 262
1135 1150 183
1136 1137 104
1137 1136 104
1137 1119 90
1137 1141 126
1137 1149 77
1138 1091 240
1139 1134 15
1139 1190 277
1139 1235 700
1140 1133 69
1140 1135 262
1140 1157 101
1141 1137 126
1141 1126 88
1141 1155 77
1142 1098 266
1142 1143 176
1142 1248 621
1143 1142 176
1144 1145 132
1144 1189 269
1144 1205 347
1145 1144 132
1145 1167 347
1145 1176 279
1146 1059 1006
1146 983 1063
1146 1168 223
1146 1198 224
1147 1087 409
1147 1173 120
1147 1195 212
1148 1149 101
1149 1148 101
1149 1137 77
1149 1155 126
1149 1164 56
1150 1135 183
1150 1132 147
1150 1159 39
1151 1152 193
1152 1151 193
1152 1167 153
1152 1173 92
1153 1120 171
1153 1154 293
1153 1185 163
1154 1153 293
1154 1121 173
1154 1185 384
1155 1149 126
1155 1141 77
1155 1166 55
1156 1132 191
1156 1086 434
1156 1238 401
1157 1140 101
1157 1175 136
1157 1179 434
1158 1129 174
1158 1178 113
1158 1186 309
1159 1150 39
1160 1161 100
1160 1163 221
1160 1171 70
1161 1160 100
1161 1165 589
1161 1206 433
1162 1129 1344
1162 1164 111
1162 1203 179
1163 1007 1371
1163 1160 221
1163 1227 307
1164 1162 111
1164 1149 56
1164 1166 126
1165 1161 589
1165 1228 7279
1165 8013 7279
1165 8014 7279
1166 1164 126
1166 1155 55
1166 1172 210
1166 1192 115
1167 1145 347
1167 1152 153
1167 1176 132
1167 1204 185
1168 1146 223
1168 1169 251
1168 1250 417
1168 1256 775
1169 1168 251
1170 1114 274
1170 1187 139
1170 1209 182
1171 1160 70
1171 1206 177
1171 1227 348
1172 1166 210
1172 1116 260
1172 1174 234
1172 1212 188
1173 1152 92
1173 1147 120
1173 1204 178
1174 1172 234
1174 1125 264
1174 1177 224
1174 1214 180
1175 1157 136
1175 1194 323
1175 1200 152
1176 1145 279
1176 1167 132
1176 1189 128
1176 1226 235
1177 1174 224
1177 1059 660
1177 1180 190
1177 1215 292
1178 1158 113
1178 1186 195
1178 1208 114
1179 1133 422
1179 1157 434
1179 1195 83
1180 1177 190
1180 1181 330
1180 1182 200
1181 1180 330
1182 1180 200
1182 1193 201
1182 1328 681
1183 1184 95
1184 1183 95
1184 1199 50
1184 1210 129
1185 1153 163
1185 1154 384
1185 1216 127
1186 1178 195
1186 1158 309
1186 1196 167
1187 1170 139
1187 1188 119
1187 1209 99
1188 1187 119
1189 1144 269
1189 1176 128
1189 1205 127
1189 1236 243
1190 1139 277
1190 1191 56
1190 1199 75
1190 1202 50
1191 1190 56
1192 1166 115
1193 1182 201
1193 1198 154
1193 1344 698
1194 1175 323
1194 1200 391
1194 1238 425
1195 1147 212
1195 1179 83
1195 1224 129
1195 1267 683
1196 1186 167
1196 1197 77
1196 1222 113
1197 1196 77
1198 1193 154
1198 1146 224
1198 1353 710
1199 1184 50
1199 1190 75
1199 1207 33
1200 1175 152
1200 1201 7
1200 1194 391
1201 1200 7
1201 1217 142
1201 1223 121
1202 1190 50
1202 1213 122
1202 1221 91
1203 1162 179
1203 1212 453
1203 1255 367
1204 1167 185
1204 1173 178
1204 1226 146
1205 1144 347
1205 1189 127
1205 1251 255
1206 1171 177
1206 1161 433
1206 1211 694
1206 1230 267
1207 1199 33
1208 1178 114
1208 1222 362
1208 1229 112
1209 1170 182
1209 1187 99
1209 1221 66
1210 1184 129
1211 1206 694
1211 1242 7274
1211 8017 7274
1211 8018 7274
1212 1203 453
1212 1172 188
1212 1214 228
1212 1262 254
1213 1202 122
1214 1212 228
1214 1174 180
1214 1215 106
1214 1265 257
1215 1214 106
1215 1177 292
1215 1266 258
1216 1185 127
1216 1122 687
1216 1220 10
1216 1248 391
1217 1201 142
1217 1223 108
1217 1234 217
1218 1219 32
1218 1225 173
1218 1298 454
1219 1218 32
1220 1216 10
1220 1124 701
1220 1249 387
1221 1202 91
1221 1209 66
1221 1237 110
1222 1208 362
1222 1196 113
1222 1239 106
1223 1217 108
1223 1201 121
1223 1261 347
1224 1195 129
1224 1234 62
1224 1254 275
1225 1218 173
1225 1229 189
1225 1322 502
1226 1176 235
1226 1204 146
1226 1236 129
1227 1163 307
1227 1171 348
1227 1228 21
1227 1230 34
1228 1227 21
1228 1165 7279
1228 8013 7279
1228 8014 7279
1229 1225 189
1229 1208 112
1229 1239 361
1229 1271 219
1230 1227 34
1230 1206 267
1230 1242 104
1230 1454 1091
1231 1232 551
1231 1263 916
1231 1273 1015
1232 1231 551
1232 1233 11
1232 1504 1310
1233 1232 11
1233 1505 1313
1234 1224 62
1234 1217 217
1234 1245 73
1235 1139 700
1235 1252 487
1235 1270 177
1236 1189 243
1236 1226 129
1236 1251 167
1237 1221 110
1237 1270 559
1237 1281 278
1238 1194 425
1238 1156 401
1238 1299 348
1239 1229 361
1239 1222 106
1239 1278 220
1239 1311 632
1240 1241 877
1241 1240 877
1242 1230 104
1242 1211 7274
1242 8017 7274
1242 8018 7274
1243 1244 121
1243 1246 370
1243 1256 57
1244 1243 121
1245 1234 73
1245 1254 136
1245 1261 72
1246 1243 370
1246 1247 316
1246 1317 496
1247 1246 316
1248 1142 621
1248 1216 391
1248 1249 9
1248 1281 508
1249 1248 9
1249 1220 387
1249 1284 509
1250 1168 417
1250 1293 247
1250 1363 608
1251 1205 255
1251 1236 167
1251 1257 49
1252 1235 487
1252 1253 176
1252 1276 145
1253 1252 176
1254 1224 275
1254 1245 136
1254 1260 54
1255 1203 367
1255 1262 377
1255 1323 460
1256 1168 775
1256 1243 57
1256 1317 333
1256 1339 471
1257 1258 472
1257 1251 49
1257 1267 68
1258 1257 472
1259 1073 1030
1259 1263 109
1259 1268 63
1260 1254 54
1260 1264 67
1260 1277 125
1261 1245 72
1261 1223 347
1261 1269 56
1262 1255 377
1262 1212 254
1262 1265 225
1262 1318 289
1263 1231 916
1263 1259 109
1263 1268 96
1264 1260 67
1265 1262 225
1265 1214 257
1265 1266 105
1265 1302 317
1266 1265 105
1266 1215 258
1266 1302 212
1267 1257 68
1267 1195 683
1267 1275 140
1268 1263 96
1268 1259 63
1268 1272 17
1268 1273 20
1269 1261 56
1269 1277 185
1269 1287 125
1270 1235 177
1270 1237 559
1270 1276 324
1270 1319 245
1271 1229 219
1271 1278 361
1271 1286 111
1272 1268 17
1272 1074 1093
1272 1274 20
1273 1231 1015
1273 1268 20
1273 1274 15
1273 1423 596
1274 1273 15
1274 1272 20
1274 1432 638
1275 1267 140
1275 1280 82
1275 1303 170
1276 1252 145
1276 1270 324
1276 1279 526
1276 1333 228
1277 1260 125
1277 1269 185
1277 1285 131
1278 1271 361
1278 1239 220
1278 1297 112
1278 1321 272
1279 1111 895
1279 1276 526
1279 1336 207
1280 1275 82
1280 1290 57
1280 1294 176
1281 1237 278
1281 1248 508
1281 1284 9
1281 1319 634
1282 1283 25
1282 1298 188
1282 1301 104
1283 1282 25
1284 1281 9
1284 1249 509
1284 1324 636
1284 1350 241
1285 1277 131
1286 1271 111
1286 1297 360
1286 1310 112
1287 1269 125
1287 1295 62
1287 1342 264
1288 1289 47
1288 1292 201
1288 1312 248
1289 1288 47
1289 1291 511
1289 1296 50
1290 1280 57
1290 1361 283
1290 1364 269
1291 1289 511
1291 1299 236
1291 1312 445
1292 1288 201
1292 1326 67
1293 1250 247
1293 1347 254
1293 1352 184
1294 1280 176
1294 1314 173
1294 1364 260
1295 1287 62
1295 1296 93
1295 1309 70
1296 1289 50
1296 1295 93
1296 1309 67
1296 1329 98
1297 1286 360
1297 1278 112
1297 1308 40
1298 1282 188
1298 1218 454
1298 1322 174
1298 1330 110
1299 1291 236
1299 1238 348
1299 1336 474
1300 1301 45
1301 1300 45
1301 1282 104
1301 1330 191
1301 1354 172
1302 1265 317
1302 1266 212
1302 1328 349
1302 1351 151
1303 1275 170
1303 1313 64
1303 1361 307
1304 1305 521
1304 1306 2
1304 1307 22
1305 1304 521
1305 1320 153
1305 1325 290
1306 1304 2
1306 1307 22
1306 1325 396
1306 1368 237
1307 1306 22
1307 1304 22
1307 1341 455
1308 1297 40
1308 1321 221
1308 1338 72
1309 1295 70
1309 1296 67
1309 1329 60
1309 1342 257
1310 1286 112
1310 1338 360
1310 1356 115
1311 1239 632
1311 1327 64
1311 1337 116
1312 1288 248
1312 1291 445
1312 1587 244
1313 1303 64
1314 1294 173
1314 1375 302
1314 1414 440
1315 1316 521
1315 1349 268
1315 1366 291
1316 1315 521
1316 1366 307
1317 1256 333
1317 1246 496
1317 1339 99
1317 1414 421
1318 1262 289
1318 1323 195
1318 1406 303
1318 1410 461
1319 1270 245
1319 1281 634
1319 1324 9
1319 1333 337
1320 1305 153
1320 1628 239
1321 1308 221
1321 1278 272
1321 1337 104
1322 1298 174
1322 1225 502
1322 1356 199
1323 1255 460
1323 1318 195
1323 1391 260
1324 1319 9
1324 1284 636
1324 1340 338
1324 1380 226
1325 1326 107
1325 1305 290
1325 1306 396
1326 1325 107
1326 1292 67
1327 1311 64
1327 1359 174
1327 1365 314
1328 1302 349
1328 1182 681
1328 1344 207
1328 1360 125
1329 1309 60
1329 1296 98
1329 1369 194
1330 1301 191
1330 1298 110
1330 1374 404
1330 1379 214
1331 1332 155
1332 1331 155
1332 1666 1850
1333 1276 228
1333 1319 337
1333 1340 9
1333 1336 547
1334 1335 164
1334 1667 1849
1335 1334 164
1336 1299 474
1336 1279 207
1336 1341 10
1336 1333 547
1337 1321 104
1337 1311 116
1337 1359 107
1338 1310 360
1338 1308 72
1338 1393 232
1339 1256 471
1339 1317 99
1339 1440 409
1340 1333 9
1340 1324 338
1340 1343 261
1340 1383 199
1341 1307 455
1341 1336 10
1341 1343 287
1341 1386 491
1342 1287 264
1342 1309 257
1342 1355 119
1343 1340 261
1343 1341 287
1343 1386 194
1344 1328 207
1344 1193 698
1344 1353 121
1345 1346 42
1346 1345 42
1346 1351 100
1346 1421 291
1347 1293 254
1348 1349 249
1349 1348 249
1349 1315 268
1349 1416 290
1350 1284 241
1350 1357 37
1350 1367 345
1351 1346 100
1351 1302 151
1351 1431 324
1352 1293 184
1352 1363 240
1352 1377 139
1353 1344 121
1353 1198 710
1353 1482 526
1354 1301 172
1355 1342 119
1355 1362 142
1355 1413 252
1356 1322 199
1356 1310 115
1356 1374 115
1356 1393 378
1357 1350 37
1357 1358 273
1357 1371 88
1358 1357 273
1359 1337 107
1359 1327 174
1359 1378 122
1360 1328 125
1360 1444 361
1360 1478 675
1361 1290 283
1361 1303 307
1361 1385 144
1361 1387 151
1362 1355 142
1362 1382 190
1362 1407 174
1363 1352 240
1363 1250 608
1364 1294 260
1364 1290 269
1364 1384 117
1365 1327 314
1365 1376 184
1365 1426 227
1366 1315 291
1366 1316 307
1366 1389 192
1366 1390 107
1367 1350 345
1367 1380 347
1367 1417 180
1368 1306 237
1368 1370 52
1368 1445 287
1369 1329 194
1369 1373 579
1369 1487 515
1370 1368 52
1370 1373 54
1370 1447 305
1371 1357 88
1371 1372 299
1371 1396 79
1372 1371 299
1373 1369 579
1373 1370 54
1373 1451 310
1374 1330 404
1374 1356 115
1374 1427 175
1375 1314 302
1376 1365 184
1376 1378 128
1376 1419 142
1377 1352 139
1377 1452 375
1377 1459 297
1378 1359 122
1378 1376 128
1378 1381 116
1379 1330 214
1379 1388 205
1379 1420 145
1380 1324 226
1380 1367 347
1380 1383 348
1380 1433 171
1381 1378 116
1381 1429 302
1381 1446 234
1382 1362 190
1382 1400 123
1382 1407 136
1382 1441 215
1383 1340 199
1383 1380 348
1383 1386 279
1383 1433 523
1384 1364 117
1384 1385 92
1384 1399 58
1384 1428 139
1385 1384 92
1385 1361 144
1385 1435 184
1386 1343 194
1386 1383 279
1386 1341 491
1387 1361 151
1387 1400 43
1387 1415 105
1388 1379 205
1388 1427 295
1388 1516 711
1389 1366 192
1389 1390 156
1389 1416 139
1390 1389 156
1390 1366 107
1390 1394 402
1390 1474 297
1391 1392 102
1391 1323 260
1391 1406 208
1392 1391 102
1393 1356 378
1393 1338 232
1393 1429 237
1394 1390 402
1394 1395 1198
1394 1469 269
1395 1394 1198
1396 1371 79
1396 1411 48
1396 1417 317
1397 1398 485
1398 1397 485
1398 1534 42
1399 1384 58
1400 1387 43
1400 1382 123
1400 1481 712
1401 1402 120
1401 1403 104
1401 1408 24
1402 1401 120
1403 1401 104
1404 1405 498
1404 1570 42
1405 1404 498
1406 1391 208
1406 1318 303
1406 1410 86
1406 1511 496
1407 1362 174
1407 1382 136
1407 1413 89
1407 1442 140
1408 1401 24
1408 1409 124
1408 1411 48
1408 1424 50
1409 1408 124
1410 1406 86
1410 1318 461
1410 1412 52
1411 1396 48
1411 1408 48
1411 1466 211
1412 1410 52
1412 1421 113
1412 1509 455
1413 1407 89
1413 1355 252
1413 1456 178
1414 1317 421
1414 1314 440
1414 1510 504
1415 1387 105
1416 1349 290
1416 1389 139
1416 1418 424
1416 1477 232
1417 1367 180
1417 1396 317
1417 1433 346
1418 1416 424
1418 1422 106
1418 1473 214
1419 1376 142
1419 1426 129
1419 1460 169
1420 1379 145
1420 1443 199
1420 1531 718
1421 1412 113
1421 1346 291
1421 1431 137
1422 1418 106
1423 1273 596
1423 1434 53
1423 1438 74
1424 1408 50
1424 1425 128
1424 1430 35
1425 1424 128
1426 1419 129
1426 1365 227
1426 1476 241
1427 1388 295
1427 1374 175
1427 1449 149
1428 1384 139
1428 1435 40
1428 1458 571
1429 1393 237
1429 1381 302
1429 1446 193
1430 1424 35
1431 1421 137
1431 1351 324
1431 1444 119
1432 1274 638
1432 1434 19
1432 1436 14
1433 1380 171
1433 1417 346
1433 1383 523
1434 1423 53
1434 1432 19
1434 1437 14
1434 1438 51
1435 1428 40
1435 1385 184
1435 1453 98
1436 1432 14
1436 1437 18
1436 1638 1365
1437 1434 14
1437 1436 18
1437 1439 57
1437 1448 56
1438 1423 74
1438 1434 51
1438 1504 1204
1439 1437 57
1439 1448 85
1439 1507 1196
1440 1339 409
1440 1452 812
1440 1521 477
1441 1382 215
1441 1442 79
1441 1468 100
1442 1441 79
1442 1407 140
1442 1463 89
1443 1420 199
1444 1431 119
1444 1360 361
1444 1465 147
1444 1490 210
1445 1368 287
1445 1447 129
1445 1512 425
1446 1429 193
1446 1381 234
1446 1460 245
1446 1494 433
1447 1370 305
1447 1445 129
1447 1451 49
1448 1439 85
1448 1437 56
1448 1639 1315
1449 1427 149
1449 1450 209
1449 1470 119
1450 1449 209
1451 1373 310
1451 1447 49
1451 1464 133
1451 1492 221
1452 1377 375
1452 1440 812
1452 1459 92
1453 1435 98
1454 1230 1091
1454 1455 5621
1454 1461 23
1454 1479 766
1455 1454 5621
1456 1413 178
1456 1457 56
1456 1463 68
1456 1485 128
1457 1456 56
1458 1428 571
1459 1377 297
1459 1452 92
1459 1506 254
1460 1446 245
1460 1419 169
1460 1476 185
1461 1454 23
1461 1462 5613
1461 1479 745
1461 1641 1306
1462 1461 5613
1463 1442 89
1463 1456 68
1463 1468 91
1463 1484 107
1464 1451 133
1465 1444 147
1465 1478 96
1465 1480 67
1466 1411 211
1466 1467 144
1466 1538 1938
1467 1466 144
1468 1441 100
1468 1463 91
1468 1484 184
1469 1394 269
1469 1474 410
1469 1483 86
1470 1449 119
1470 1471 257
1470 1494 197
1471 1470 257
1472 1473 231
1473 1472 231
1473 1418 214
1473 1475 213
1473 1501 183
1474 1390 297
1474 1469 410
1474 1477 305
1474 1560 655
1475 1473 213
1475 1477 174
1475 1502 181
1476 1460 185
1476 1426 241
1476 1486 225
1476 1514 270
1477 1475 174
1477 1416 232
1477 1474 305
1477 1503 180
1478 1465 96
1478 1360 675
1478 1482 209
1478 1480 139
1479 1454 766
1479 1461 745
1480 1465 67
1480 1478 139
1480 1491 75
1481 1400 712
1482 1478 209
1482 1353 526
1482 1496 122
1483 1469 86
1483 1493 183
1483 1498 102
1484 1468 184
1484 1463 107
1484 1485 53
1485 1484 53
1485 1456 128
1485 1488 183
1485 1517 231
1486 1476 225
1486 1511 711
1486 1522 285
1487 1369 515
1487 1489 578
1487 1495 70
1488 1485 183
1488 1489 38
1489 1487 578
1489 1488 38
1490 1444 210
1490 1491 42
1490 1509 358
1491 1490 42
1491 1480 75
1491 1496 317
1492 1451 221
1492 1495 91
1492 1512 149
1493 1483 183
1493 1497 46
1493 1528 335
1494 1470 197
1494 1446 433
1494 1516 298
1494 1523 272
1495 1487 70
1495 1492 91
1495 1527 250
1496 1491 317
1496 1482 122
1496 1499 86
1496 1561 508
1497 1493 46
1497 1498 133
1497 1515 147
1498 1497 133
1498 1483 102
1498 1518 154
1499 1496 86
1499 1506 163
1500 1501 291
1501 1500 291
1501 1473 183
1501 1502 211
1501 1530 212
1502 1501 211
1502 1475 181
1502 1503 171
1502 1532 216
1503 1502 171
1503 1477 180
1503 1533 219
1504 1232 1310
1504 1438 1204
1504 1505 11
1504 1507 14
1505 1233 1313
1505 1504 11
1505 1508 14
1506 1499 163
1506 1459 254
1506 1524 948
1507 1504 14
1507 1439 1196
1507 1508 11
1507 1632 937
1508 1505 14
1508 1507 11
1508 1631 931
1509 1412 455
1509 1490 358
1509 1511 149
1510 1414 504
1510 1521 150
1510 1568 1114
1511 1406 496
1511 1509 149
1511 1486 711
1512 1492 149
1512 1445 425
1512 1527 201
1513 1514 228
1513 1523 418
1513 1542 346
1514 1513 228
1514 1476 270
1514 1522 228
1514 1551 401
1515 1497 147
1515 1518 109
1515 1528 194
1516 1388 711
1516 1494 298
1516 1531 169
1517 1485 231
1518 1498 154
1518 1515 109
1518 1541 181
1519 1520 214
1519 1536 139
1519 1559 405
1520 1519 214
1521 1440 477
1521 1510 150
1521 1524 34
1522 1514 228
1522 1486 285
1522 1565 615
1522 1574 439
1523 1494 272
1523 1513 418
1523 1540 135
1524 1506 948
1524 1521 34
1524 1525 14
1524 1545 305
1525 1526 1104
1525 1524 14
1525 1549 307
1525 1580 572
1526 1525 1104
1527 1495 250
1527 1512 201
1527 2357 5469
1528 1493 335
1528 1515 194
1528 1541 283
1529 1530 283
1529 1555 249
1530 1529 283
1530 1501 212
1530 1532 213
1530 1556 244
1531 1420 718
1531 1516 169
1531 1559 407
1532 1530 213
1532 1502 216
1532 1533 163
1532 1557 242
1533 1532 163
1533 1503 219
1533 1558 240
1534 1535 828
1534 1398 42
1535 1534 828
1535 1597 594
1535 1678 857
1536 1537 126
1536 1519 139
1536 1539 132
1536 1576 466
1537 1536 126
1538 1466 1938
1539 1536 132
1540 1523 135
1540 1542 170
1540 1567 211
1541 1528 283
1541 1518 181
1541 1566 181
1542 1540 170
1542 1513 346
1542 1548 148
1543 1544 15
1543 1546 53
1544 1543 15
1544 1546 19
1544 1547 33
1545 1524 305
1545 1549 13
1545 1609 806
1546 1544 19
1546 1547 35
1546 1543 53
1547 1546 35
1547 1544 33
1547 1552 69
1548 1542 148
1548 1550 63
1548 1551 75
1549 1525 307
1549 1545 13
1549 1579 279
1549 1611 807
1550 1548 63
1550 1567 154
1550 1581 241
1551 1548 75
1551 1514 401
1551 1574 218
1552 1553 98
1552 1547 69
1553 1552 98
1553 1554 2358
1553 1571 388
1553 1616 431
1554 1553 2358
1555 1529 249
1555 1556 284
1555 1563 531
1555 1585 200
1556 1555 284
1556 1530 244
1556 1557 208
1556 1588 203
1557 1556 208
1557 1532 242
1557 1558 176
1557 1589 201
1558 1557 176
1558 1533 240
1558 1560 245
1558 1590 199
1559 1519 405
1559 1531 407
1559 1576 150
1559 1608 415
1560 1558 245
1560 1474 655
1560 1564 215
1560 1594 204
1561 1496 508
1561 1562 96
1561 1618 390
1562 1561 96
1562 1565 1025
1562 1598 283
1563 1555 531
1563 1584 183
1563 1660 596
1564 1560 215
1564 1566 232
1564 1593 189
1565 1522 615
1565 1562 1025
1565 1612 476
1565 1614 546
1566 1564 232
1566 1541 181
1566 1620 394
1567 1540 211
1567 1550 154
1567 1602 240
1568 1510 1114
1569 1570 1117
1569 1605 534
1569 1687 601
1570 1569 1117
1570 1404 42
1571 1553 388
1571 1699 724
1571 8021 131
1572 1573 247
1573 1572 247
1573 1575 114
1573 1625 417
1574 1551 218
1574 1522 439
1574 1581 225
1574 1601 307
1575 1573 114
1575 1603 280
1575 1626 355
1576 1536 466
1576 1559 150
1576 1689 600
1577 1578 537
1577 1582 17
1577 1613 319
1577 1641 5212
1578 1577 537
1579 1549 279
1579 1595 259
1579 1617 233
1580 1525 572
1580 1603 135
1580 1606 263
1581 1550 241
1581 1574 225
1581 1602 160
1582 1583 120
1582 1577 17
1582 1615 330
1582 1700 624
1583 1582 120
1583 1591 3292
1583 1697 677
1584 1563 183
1584 1585 466
1584 1665 383
1585 1584 466
1585 1555 200
1585 1588 286
1585 1674 396
1586 1587 1435
1586 1609 445
1586 1627 244
1587 1586 1435
1587 1312 244
1588 1585 286
1588 1556 203
1588 1589 208
1588 1619 206
1589 1588 208
1589 1557 201
1589 1590 174
1589 1621 211
1590 1589 174
1590 1558 199
1590 1594 233
1590 1623 214
1591 1583 3292
1591 1645 1795
1591 1710 812
1592 1593 211
1593 1592 211
1593 1564 189
1593 1604 91
1594 1590 233
1594 1560 204
1594 1622 206
1595 1579 259
1596 1597 228
1596 1688 107
1597 1596 228
1597 1535 594
1597 1659 427
1598 1562 283
1598 1612 483
1598 1618 221
1599 1600 228
1599 1658 413
1599 1678 606
1600 1599 228
1600 1605 106
1601 1574 307
1601 1614 285
1601 1637 560
1602 1567 240
1602 1581 160
1602 1637 253
1603 1575 280
1603 1580 135
1603 1610 75
1604 1593 91
1604 1620 383
1604 1622 348
1605 1569 534
1605 1600 106
1606 1580 263
1606 1607 91
1606 1617 194
1606 1636 171
1607 1606 91
1608 1559 415
1608 1656 353
1608 1663 296
1609 1545 806
1609 1586 445
1609 1640 385
1610 1603 75
1610 1630 109
1610 1636 323
1611 1549 807
1611 1644 385
1611 1702 633
1612 1565 476
1612 1598 483
1612 1635 184
1613 1577 319
1614 1601 285
1614 1565 546
1614 1675 314
1614 1676 468
1615 1582 330
1616 1553 431
1617 1579 233
1617 1606 194
1617 1642 127
1618 1598 221
1618 1561 390
1618 2025 3186
1619 1588 206
1619 1621 204
1619 1679 214
1620 1604 383
1620 1566 394
1620 1694 435
1621 1619 204
1621 1589 211
1621 1623 175
1622 1594 206
1622 1623 220
1622 1604 348
1622 1690 261
1623 1621 175
1623 1590 214
1623 1622 220
1623 1643 98
1624 1625 39
1625 1624 39
1625 1573 417
1625 1626 124
1626 1625 124
1626 1575 355
1626 1630 348
1627 1586 244
1627 1703 114
1628 1629 1675
1628 1320 239
1629 1628 1675
1629 1640 344
1629 1685 115
1630 1626 348
1630 1610 109
1630 2003 3306
1631 1508 931
1631 1632 12
1631 1633 15
1632 1631 12
1632 1507 937
1632 1634 15
1632 1646 789
1633 1631 15
1633 1634 12
1633 1704 447
1634 1633 12
1634 1632 15
1634 1649 750
1634 1705 451
1635 1612 184
1635 1677 330
1635 1680 180
1636 1606 171
1636 1610 323
1636 1642 188
1637 1602 253
1637 1601 560
1637 1736 1219
1638 1436 1365
1638 1648 58
1638 1650 84
1639 1448 1315
1639 1646 56
1639 1647 42
1640 1609 385
1640 1629 344
1641 1461 1306
1641 1577 5212
1641 1645 15
1641 1756 3783
1642 1636 188
1642 1617 127
1642 1684 141
1643 1623 98
1644 1611 385
1644 1685 316
1645 1641 15
1645 1591 1795
1645 1757 3767
1645 1785 1730
1646 1632 789
1646 1639 56
1646 1647 43
1647 1646 43
1647 1639 42
1647 1648 13
1647 1655 15
1648 1647 13
1648 1638 58
1648 1650 53
1648 1657 15
1649 1634 750
1649 1655 86
1649 1682 133
1650 1648 53
1650 1638 84
1650 1692 928
1651 1652 221
1651 1666 349
1652 1651 221
1652 1653 320
1653 1654 188
1653 1652 320
1654 1653 188
1654 1658 100
1654 1779 1696
1655 1649 86
1655 1647 15
1655 1657 13
1655 1682 80
1656 1608 353
1657 1655 13
1657 1648 15
1657 1664 104
1657 1686 103
1658 1654 100
1658 1599 413
1658 1659 10
1658 1668 18
1659 1658 10
1659 1597 427
1659 1660 154
1659 1669 18
1660 1659 154
1660 1563 596
1660 1665 210
1661 1662 220
1661 1671 268
1662 1661 220
1662 1672 356
1663 1608 296
1664 1657 104
1664 1686 141
1664 1696 872
1665 1660 210
1665 1584 383
1665 1679 765
1666 1332 1850
1666 1651 349
1666 1667 10
1666 1672 19
1667 1334 1849
1667 1666 10
1667 1673 18
1667 1691 951
1668 1658 18
1668 1669 10
1668 1681 243
1668 1778 1771
1669 1668 10
1669 1659 18
1669 1683 1128
1670 1671 37
1670 1681 95
1671 1670 37
1671 1661 268
1672 1666 19
1672 1662 356
1672 1673 9
1672 1773 1660
1673 1667 18
1673 1672 9
1673 1693 940
1673 1772 1654
1674 1585 396
1675 1614 314
1676 1614 468
1677 1635 330
1678 1535 857
1678 1599 606
1678 1776 1408
1679 1665 765
1679 1619 214
1679 1683 16
1679 1690 601
1680 1635 180
1681 1668 243
1681 1670 95
1682 1649 133
1682 1655 80
1682 1715 631
1683 1669 1128
1683 1679 16
1683 1694 1466
1684 1642 141
1685 1644 316
1685 1805 1835
1685 1629 115
1686 1657 103
1686 1664 141
1686 1717 625
1687 1688 597
1687 1569 601
1687 1775 1363
1688 1687 597
1688 1596 107
1689 1576 600
1689 1695 83
1690 1679 601
1690 1622 261
1690 1694 860
1691 1667 951
1692 1650 928
1692 1725 663
1693 1673 940
1694 1620 435
1694 1695 100
1694 1690 860
1694 1683 1466
1695 1694 100
1695 1689 83
1696 1664 872
1697 1583 677
1697 1700 228
1697 1710 2836
1698 1699 3
1698 1701 82
1699 1698 3
1699 1571 724
1699 1701 34
1700 1697 228
1700 1582 624
1700 1708 697
1700 1714 424
1701 1699 34
1701 1698 82
1701 1723 1242
1702 1611 633
1702 1703 328
1702 1804 1510
1703 1702 328
1703 1627 114
1704 1633 447
1704 1705 11
1704 1706 9
1705 1704 11
1705 1634 451
1705 1707 9
1705 1715 882
1706 1704 9
1706 1707 11
1706 1723 488
1707 1706 11
1707 1705 9
1707 1716 880
1707 1724 488
1708 1700 697
1708 1709 121
1708 1718 336
1709 1708 121
1710 1591 812
1710 1697 2836
1710 1753 860
1711 1712 171
1712 1711 171
1712 1713 70
1712 1720 222
1713 1712 70
1713 8028 83
1714 1700 424
1714 1741 27
1715 1705 882
1715 1682 631
1715 1716 19
1715 1717 24
1716 1707 880
1716 1715 19
1716 1719 24
1716 1742 576
1717 1715 24
1717 1686 625
1717 1719 19
1718 1708 336
1718 1728 39
1719 1716 24
1719 1717 19
1719 1726 338
1719 1727 374
1720 1712 222
1720 1758 1171
1720 1864 2576
1721 1722 427
1721 1763 1175
1721 1766 1183
1722 1721 427
1723 1701 1242
1723 1706 488
1723 1724 14
1723 2106 3160
1724 1723 14
1724 1707 488
1724 1742 649
1724 2111 3165
1725 1692 663
1725 1726 704
1725 1750 396
1726 1719 338
1726 1725 704
1726 1750 636
1726 1832 964
1727 1719 374
1727 1735 131
1728 1729 245
1728 1718 39
1729 1728 245
1730 1731 595
1731 1730 595
1732 1733 259
1732 1734 213
1732 1740 143
1733 1732 259
1734 1732 213
1735 1727 131
1735 1743 71
1736 1637 1219
1736 1737 1125
1736 1738 10
1736 1739 9
1736 1919 1559
1737 1736 1125
1737 1738 1119
1738 1736 10
1738 1737 1119
1738 1739 10
1738 1941 1479
1739 1736 9
1739 1738 10
1739 1920 1548
1739 1940 1469
1740 1741 335
1740 1732 143
1740 1784 993
1740 1813 686
1741 1740 335
1741 1714 27
1742 1724 649
1742 1716 576
1742 1743 17
1742 1818 773
1743 1742 17
1743 1735 71
1743 1819 762
1744 1745 72
1745 1744 72
1745 1746 42
1745 1748 63
1746 1745 42
1747 1748 35
1748 1747 35
1748 1749 149
1748 1745 63
1749 1748 149
1750 1726 636
1750 1725 396
1750 1751 16
1751 1750 16
1751 1752 1060
1751 1756 291
1752 1751 1060
1753 1710 860
1753 1760 96
1753 1761 87
1754 1755 652
1755 1754 652
1756 1751 291
1756 1641 3783
1756 1757 15
1756 1764 57
1757 1756 15
1757 1645 3767
1757 1764 65
1757 1917 3398
1758 1759 29
1758 1720 1171
1758 1763 14
1759 1758 29
1759 1762 14
1759 1800 1073
1760 1753 96
1760 1761 68
1760 1784 2048
1761 1753 87
1761 1760 68
1761 1785 1786
1762 1759 14
1762 1763 29
1762 1765 13
1762 1801 1052
1763 1758 14
1763 1762 29
1763 1721 1175
1763 1766 12
1764 1756 57
1764 1757 65
1764 1865 940
1765 1762 13
1765 1766 29
1765 1861 621
1765 1863 1323
1766 1763 12
1766 1765 29
1766 1721 1183
1766 1860 619
1767 1768 388
1767 1774 125
1767 1777 436
1768 1767 388
1769 1770 540
1769 1771 221
1769 1824 615
1770 1769 540
1771 1769 221
1772 1673 1654
1772 1773 8
1772 2009 1617
1773 1772 8
1773 1672 1660
1773 1779 474
1773 2006 1606
1774 1767 125
1775 1687 1363
1775 1930 46
1776 1678 1408
1776 1914 46
1777 1767 436
1778 1668 1771
1778 1779 15
1778 1780 7
1778 1793 929
1779 1654 1696
1779 1778 15
1779 1773 474
1779 1780 16
1779 1781 24
1780 1779 16
1780 1778 7
1780 1781 15
1780 1796 928
1781 1779 24
1781 1780 15
1781 1955 37
1782 1783 964
1783 1782 964
1784 1760 2048
1784 1740 993
1784 1797 436
1785 1645 1730
1785 1761 1786
1785 1917 1177
1785 1970 3728
1786 1787 150
1787 1786 150
1787 8038 225
1788 1789 2187
1789 1788 2187
1789 1833 237
1789 1833 378
1790 1791 187
1791 1790 187
1791 1792 1
1791 1841 258
1791 1898 918
1792 1791 1
1793 1778 929
1794 1795 197
1794 8032 287
1795 1794 197
1795 8047 372
1796 1780 928
1797 1784 436
1797 1813 290
1797 1822 301
1798 1799 200
1798 8048 385
1799 1798 200
1799 8033 286
1800 1759 1073
1800 8053 511
1801 1762 1052
1801 1885 401
1802 1803 809
1803 1802 809
1803 1812 485
1804 1702 1510
1804 1805 13
1804 1856 449
1804 1856 346
1805 1804 13
1805 1685 1835
1805 1827 462
1805 2098 1775
1806 1807 920
1806 1812 20
1807 1806 920
1808 1809 687
1808 1825 100
1808 1826 237
1809 1808 687
1810 1811 928
1811 1810 928
1811 1815 34
1812 1803 485
1812 1806 20
1812 1814 13
1813 1797 290
1813 1740 686
1813 1822 68
1813 1823 389
1814 1812 13
1814 1815 22
1814 1843 160
1815 1814 22
1815 1811 34
1815 1816 192
1815 1846 182
1816 1815 192
1816 1820 159
1816 1834 105
1817 1818 93
1818 1817 93
1818 1742 773
1818 1819 16
1818 2076 1478
1819 1818 16
1819 1743 762
1819 1832 790
1819 2075 1475
1820 1816 159
1820 1821 104
1820 1825 329
1820 1835 106
1821 1820 104
1822 1797 301
1822 1813 68
1822 1852 311
1823 1813 389
1823 1831 206
1823 1932 513
1824 1769 615
1824 1826 24
1824 1891 399
1825 1820 329
1825 1808 100
1825 1826 155
1825 1847 118
1826 1808 237
1826 1824 24
1826 1825 155
1827 1805 462
1827 1833 184
1828 1829 96
1828 1830 66
1828 1848 299
1829 1828 96
1830 1828 66
1831 1823 206
1831 1836 438
1831 1953 697
1832 1819 790
1832 1726 964
1832 1865 415
1832 2104 1491
1833 1827 184
1833 1789 237
1833 1789 378
1833 2286 2130
1834 1816 105
1834 1835 157
1834 1877 185
1835 1834 157
1835 1820 106
1835 1847 330
1835 1880 182
1836 1831 438
1836 1837 16
1836 2160 1582
1837 1836 16
1837 1860 1504
1837 2161 1586
1838 1839 148
1839 1838 148
1839 1840 135
1839 1862 316
1840 1839 135
1840 8045 17
1840 8046 17
1841 1842 1
1841 1791 258
1841 1845 189
1841 1895 229
1842 1841 1
1843 1844 590
1843 1814 160
1843 1846 21
1844 1843 590
1845 1841 189
1846 1843 21
1846 1815 182
1846 1867 71
1847 1835 330
1847 1825 118
1847 1859 191
1848 1849 89
1848 1828 299
1848 1862 87
1849 1848 89
1849 8057 361
1850 1851 405
1851 1850 405
1852 1822 311
1852 1858 18
1852 1868 120
1853 1854 156
1853 1855 1
1853 1857 157
1853 1873 140
1854 1853 156
1855 1853 1
1856 1804 449
1856 1804 346
1856 2095 1431
1857 1853 157
1858 1852 18
1858 1912 333
1858 1946 603
1859 1847 191
1860 1837 1504
1860 1766 619
1860 1861 29
1861 1860 29
1861 1765 621
1861 1863 799
1862 1848 87
1862 1839 316
1862 1864 378
1862 8053 378
1862 1866 186
1862 8052 21
1863 1861 799
1863 1765 1323
1863 1864 41
1864 1863 41
1864 1720 2576
1864 1862 378
1864 8053 378
1865 1832 415
1865 1764 940
1865 2070 1616
1866 1862 186
1866 1885 519
1866 1909 394
1867 1846 71
1867 1870 90
1867 1913 233
1868 1852 120
1868 1869 229
1868 1916 773
1869 1868 229
1869 8035 652
1870 1867 90
1870 1874 29
1871 1872 168
1871 8047 302
1872 1871 168
1872 1884 55
1873 1853 140
1874 1870 29
1874 1911 432
1874 1907 521
1875 1876 1066
1876 1875 1066
1877 1834 185
1878 1879 194
1878 1881 194
1878 8047 287
1879 1878 194
1879 1882 32
1880 1835 182
1881 1878 194
1881 1893 31
1882 1883 98
1882 1888 101
1882 1879 32
1883 1882 98
1883 1884 79
1883 1921 238
1884 1883 79
1884 1872 55
1885 1866 519
1885 1801 401
1885 8052 452
1885 2084 183
1886 1887 127
1886 8061 262
1887 1886 127
1887 8048 292
1888 1882 101
1888 8059 197
1889 1890 196
1889 1906 32
1890 1889 196
1890 8048 277
1891 1824 399
1891 1892 16
1891 1904 58
1892 1891 16
1892 1899 24
1892 1903 34
1893 1894 128
1893 1881 31
1894 1893 128
1894 1910 30
1895 1841 229
1896 1897 230
1897 1896 230
1898 1791 918
1899 1892 24
1899 1902 1824
1899 1903 44
1899 1933 277
1900 1901 348
1900 1913 165
1901 1900 348
1901 8059 390
1902 1899 1824
1902 8058 679
1903 1892 34
1903 1899 44
1903 1904 31
1903 1927 258
1904 1891 58
1904 1903 31
1904 1911 601
1904 1926 250
1905 1906 136
1905 1908 30
1906 1905 136
1906 1889 32
1907 1908 5
1907 1922 399
1907 1874 521
1908 1907 5
1908 1905 30
1909 1866 394
1909 2082 1044
1910 1911 377
1910 1894 30
1911 1910 377
1911 1874 432
1911 1904 601
1912 1858 333
1912 2001 529
1913 1900 165
1913 1867 233
1913 1918 81
1914 1915 703
1914 1776 46
1915 1914 703
1915 1947 249
1915 1948 250
1916 1868 773
1916 1935 340
1916 1938 159
1917 1757 3398
1917 1785 1177
1917 2451 4749
1918 1913 81
1918 1921 26
1919 1736 1559
1919 1990 72
1920 1739 1548
1920 1992 72
1921 1918 26
1921 1883 238
1921 1928 163
1922 1907 399
1922 1926 388
1922 1928 355
1923 1924 167
1924 1923 167
1924 1925 844
1924 1964 416
1925 1924 844
1926 1922 388
1926 1904 250
1926 1927 24
1926 2017 689
1927 1926 24
1927 1903 258
1927 1933 456
1927 1985 532
1928 1921 163
1928 1922 355
1928 1939 304
1928 1962 427
1929 1930 791
1929 1949 166
1929 1950 163
1930 1929 791
1930 1775 46
1931 1932 364
1931 8037 703
1932 1931 364
1932 1823 513
1932 1935 14
1932 1954 322
1933 1899 277
1933 1934 1570
1933 1927 456
1933 2106 2408
1934 1933 1570
1934 8060 732
1935 1916 340
1935 1932 14
1935 1946 621
1935 1988 570
1936 1937 159
1936 1952 295
1937 1936 159
1937 8061 271
1938 1916 159
1938 2007 611
1939 1928 304
1939 1952 333
1940 1739 1469
1940 1966 68
1941 1738 1479
1941 1969 68
1942 1943 21
1942 1944 13
1942 1956 2075
1943 1942 21
1943 1945 13
1943 1960 1152
1944 1942 13
1944 1945 21
1944 1958 2076
1944 2136 992
1945 1944 21
1945 1943 13
1945 1961 1150
1945 2122 967
1946 1858 603
1946 1935 621
1946 2078 718
1947 1915 249
1947 2037 219
1948 1915 250
1948 2030 221
1949 1929 166
1949 2046 644
1950 1929 163
1950 2027 219
1951 1952 76
1951 8066 432
1952 1951 76
1952 1939 333
1952 1936 295
1953 1831 697
1953 1954 88
1953 1984 187
1954 1932 322
1954 1953 88
1954 1984 187
1955 1956 1014
1955 1957 1014
1955 1781 37
1956 1955 1014
1956 1942 2075
1956 1957 11
1956 1958 13
1957 1955 1014
1957 1956 11
1957 1959 13
1957 2006 934
1958 1956 13
1958 1944 2076
1958 1959 12
1958 2203 1801
1959 1957 13
1959 1958 12
1959 2010 928
1959 2210 1809
1960 1943 1152
1960 1961 13
1960 1989 762
1961 1945 1150
1961 1960 13
1961 1993 761
1961 2139 858
1962 1928 427
1962 1963 254
1962 1983 140
1963 1962 254
1963 8061 321
1964 1924 416
1964 2021 402
1965 1966 203
1965 1967 3
1965 1977 27
1966 1965 203
1966 1940 68
1967 1965 3
1967 1968 13
1968 1967 13
1968 1969 201
1968 1980 35
1969 1968 201
1969 1941 68
1970 1785 3728
1970 1998 170
1970 1999 177
1971 1972 218
1971 8070 439
1972 1971 218
1972 8067 228
1973 1974 489
1973 8058 1790
1974 1973 489
1974 2099 322
1975 1976 477
1975 2103 351
1976 1975 477
1976 8060 1780
1977 1965 27
1977 1980 18
1977 2019 241
1978 1979 209
1978 8068 209
1979 1978 209
1979 8069 236
1980 1968 35
1980 1977 18
1980 2020 239
1981 1982 109
1981 8068 316
1982 1981 109
1982 8069 237
1983 1962 140
1983 8070 287
1984 1954 187
1984 1953 187
1984 1988 66
1985 1927 532
1985 1986 120
1985 2018 166
1986 1985 120
1986 1987 87
1986 1995 74
1987 1986 87
1988 1935 570
1988 1984 66
1988 2144 678
1989 1960 762
1989 1990 462
1989 1991 10
1989 1993 13
1990 1989 462
1990 1919 72
1991 1989 10
1991 1992 462
1991 1994 14
1991 2019 649
1992 1991 462
1992 1920 72
1993 1961 761
1993 1989 13
1993 1994 10
1993 2194 960
1994 1993 10
1994 1991 14
1994 2023 650
1994 2191 937
1995 1986 74
1995 1996 35
1995 2036 207
1996 1995 35
1996 1997 96
1996 2002 52
1996 2039 206
1997 1996 96
1998 1970 170
1998 2246 96
1999 1970 177
1999 2242 96
2000 2001 2375
2000 2028 918
2000 2028 893
2001 2000 2375
2001 1912 529
2001 8035 1616
2002 1996 52
2003 1630 3306
2003 2216 784
2004 2005 729
2005 2004 729
2006 1773 1606
2006 1957 934
2006 2009 9
2006 2010 12
2007 2008 2716
2007 8037 1623
2007 1938 611
2008 2007 2716
2008 2032 571
2008 2109 897
2009 1772 1617
2009 2006 9
2009 2013 12
2009 2254 1497
2010 2006 12
2010 1959 928
2010 2013 9
2011 2012 687
2012 2011 687
2013 2009 12
2013 2010 9
2013 2256 1498
2014 2015 287
2015 2014 287
2016 2017 317
2017 2016 317
2017 1926 689
2017 2018 16
2017 2117 529
2018 2017 16
2018 1985 166
2018 2029 84
2018 2041 127
2019 1991 649
2019 1977 241
2019 2020 15
2019 2023 12
2020 2019 15
2020 1980 239
2020 2024 13
2020 2045 553
2021 1964 402
2021 2022 66
2021 2054 455
2022 2021 66
2023 1994 650
2023 2019 12
2023 2024 15
2023 2088 327
2024 2023 15
2024 2020 13
2024 2045 554
2024 2089 326
2025 1618 3186
2025 2069 101
2026 2027 270
2026 2108 68
2027 2026 270
2027 1950 219
2028 2000 918
2028 2000 893
2028 2032 18
2028 2038 252
2029 2018 84
2029 2035 69
2029 2049 125
2030 2031 278
2030 1948 221
2031 2030 278
2031 2058 67
2032 2028 18
2032 2008 571
2032 2040 251
2032 2048 97
2033 2034 146
2033 2037 567
2033 2107 1142
2034 2033 146
2034 2173 1038
2035 2029 69
2035 2036 4
2035 2052 92
2036 2035 4
2036 1995 207
2036 2039 40
2037 2033 567
2037 1947 219
2038 2028 252
2038 2085 3515
2038 8082 3515
2039 2036 40
2039 1996 206
2039 2044 70
2040 2032 251
2040 2096 3501
2040 8083 3501
2041 2018 127
2041 2049 94
2041 2077 171
2042 2043 202
2042 2119 851
2043 2042 202
2043 2046 197
2043 2059 561
2044 2039 70
2044 2050 85
2044 2053 70
2045 2024 554
2045 2020 553
2045 2060 230
2046 2043 197
2046 1949 644
2047 2048 29
2047 2086 168
2048 2047 29
2048 2032 97
2048 2074 130
2048 2109 420
2049 2041 94
2049 2029 125
2049 2052 70
2050 2044 85
2050 2051 185
2050 2097 278
2051 2050 185
2052 2049 70
2052 2035 92
2052 2053 90
2053 2052 90
2053 2044 70
2053 2091 178
2054 2021 455
2054 2061 695
2054 2182 682
2055 2056 240
2055 2057 220
2055 2121 445
2056 2055 240
2057 2055 220
2058 2059 141
2058 2031 67
2059 2058 141
2059 2043 561
2059 2810 7935
2060 2045 230
2060 2068 116
2060 2175 495
2061 2054 695
2062 2063 968
2063 2062 968
2063 2181 477
2064 2065 968
2064 2180 473
2065 2064 968
2066 2067 127
2066 2094 62
2067 2066 127
2068 2060 116
2068 2069 126
2068 2092 251
2069 2068 126
2069 2025 101
2070 1865 1616
2070 2071 349
2070 2072 16
2070 2192 498
2071 2070 349
2072 2070 16
2072 2073 353
2072 2155 860
2072 2212 535
2073 2072 353
2074 2048 130
2074 2096 1321
2074 2128 340
2074 2187 569
2075 1819 1475
2075 2076 17
2075 2080 750
2075 2167 342
2076 1818 1478
2076 2075 17
2076 2087 382
2076 2166 333
2077 2041 171
2077 2101 278
2077 2118 229
2078 2079 953
2078 1946 718
2078 2140 258
2078 2144 841
2079 2078 953
2080 2075 750
2080 2081 601
2080 2104 341
2080 2176 369
2081 2080 601
2082 1909 1044
2082 2193 436
2082 2334 1039
2083 2084 1012
2083 2195 433
2083 2335 1035
2084 2083 1012
2084 1885 183
2085 2086 1037
2085 2038 3515
2085 8082 3515
2086 2085 1037
2086 2047 168
2087 2076 382
2087 2093 47
2088 2023 327
2089 2024 326
2090 2091 134
2091 2090 134
2091 2053 178
2092 2068 251
2092 2148 308
2092 2148 488
2093 2094 172
2093 2087 47
2093 2166 395
2093 2237 572
2094 2093 172
2094 2066 62
2095 1856 1431
2095 2351 837
2096 2074 1321
2096 2040 3501
2096 8083 3501
2097 2050 278
2097 2101 15
2097 2171 277
2098 1805 1775
2098 2354 838
2099 2100 434
2099 1974 322
2100 2099 434
2100 8076 243
2101 2077 278
2101 2097 15
2101 2150 176
2102 2103 416
2102 2264 240
2103 2102 416
2103 1975 351
2104 2080 341
2104 1832 1491
2104 2105 4
2104 2110 253
2105 2104 4
2105 2401 1299
2106 1933 2408
2106 1723 3160
2106 2111 15
2106 2269 693
2107 2033 1142
2107 2108 527
2107 2808 7553
2108 2107 527
2108 2026 68
2109 2048 420
2109 2008 897
2109 2126 38
2110 2104 253
2110 2115 227
2110 2131 229
2111 2106 15
2111 1724 3165
2111 2237 615
2111 2272 691
2112 2113 85
2112 2114 99
2112 2123 35
2113 2112 85
2113 2120 71
2113 2124 33
2114 2112 99
2114 2125 146
2114 2127 40
2115 2110 227
2115 2199 40
2116 2117 857
2117 2116 857
2117 2017 529
2117 2118 19
2118 2117 19
2118 2077 229
2118 2150 280
2118 2274 542
2119 2042 851
2119 2250 397
2119 2241 771
2120 2113 71
2120 2129 33
2120 2135 142
2121 2055 445
2121 2137 173
2121 2159 106
2122 1945 967
2122 2142 76
2122 2151 68
2123 2112 35
2123 2124 27
2123 2127 163
2124 2123 27
2124 2113 33
2124 2129 125
2125 2114 146
2125 2130 82
2125 2132 36
2126 2109 38
2126 2393 1390
2127 2114 40
2127 2123 163
2127 2132 78
2128 2074 340
2128 2187 235
2129 2124 125
2129 2120 33
2129 2143 132
2130 2125 82
2130 2141 42
2130 2142 202
2131 2110 229
2131 2134 39
2132 2125 36
2132 2127 78
2132 2141 153
2133 2134 38
2133 2138 38
2133 2214 913
2134 2133 38
2134 2131 39
2135 2120 142
2135 2143 28
2135 2147 128
2136 1944 992
2136 2146 55
2136 2153 47
2137 2121 173
2137 2154 232
2137 2159 161
2138 2133 38
2138 8073 39
2139 1961 858
2139 2147 58
2139 2162 66
2139 2163 93
2140 2078 258
2140 2185 530
2140 2262 437
2141 2130 42
2141 2132 153
2141 2145 115
2142 2130 202
2142 2122 76
2142 2145 52
2143 2129 132
2143 2135 28
2143 2152 72
2144 2078 841
2144 1988 678
2144 2160 277
2144 2196 213
2145 2142 52
2145 2141 115
2145 2151 114
2146 2136 55
2146 2158 54
2146 2203 730
2147 2135 128
2147 2139 58
2147 2152 39
2148 2092 308
2148 2092 488
2148 2149 22
2148 2157 23
2148 2215 228
2149 2148 22
2149 2190 55
2150 2118 280
2150 2101 176
2150 2170 201
2151 2122 68
2151 2145 114
2151 2153 22
2151 2165 37
2152 2143 72
2152 2147 39
2152 2162 62
2153 2136 47
2153 2151 22
2153 2158 83
2153 2165 33
2154 2137 232
2154 2164 156
2154 2197 201
2155 2072 860
2155 2156 338
2155 2292 706
2156 2155 338
2157 2148 23
2157 2189 55
2158 2146 54
2158 2153 83
2158 2205 652
2159 2137 161
2159 2121 106
2159 2267 592
2160 2144 277
2160 1836 1582
2160 2161 40
2160 2240 249
2161 2160 40
2161 1837 1586
2161 2180 740
2161 2300 651
2162 2152 62
2162 2139 66
2162 2169 33
2162 2172 112
2163 2139 93
2163 2172 43
2163 2209 507
2164 2154 156
2164 2168 103
2164 2228 256
2165 2153 33
2165 2151 37
2165 2169 1040
2165 2221 726
2166 2093 395
2166 2076 333
2166 2167 23
2166 2281 518
2167 2166 23
2167 2075 342
2167 2176 758
2167 2284 521
2168 2164 103
2168 2174 375
2168 2253 305
2169 2165 1040
2169 2162 33
2169 2177 70
2169 2186 284
2170 2150 201
2170 2171 9
2170 2179 65
2171 2170 9
2171 2097 277
2171 2174 228
2172 2162 112
2172 2163 43
2172 2208 426
2173 2034 1038
2173 2223 372
2173 2249 225
2174 2171 228
2174 2168 375
2174 2259 363
2175 2060 495
2175 2337 738
2175 2340 741
2176 2167 758
2176 2080 369
2176 2372 886
2177 2169 70
2177 2217 311
2177 2347 1572
2178 2179 98
2179 2178 98
2179 2170 65
2179 2211 103
2180 2161 740
2180 2064 473
2180 2181 10
2180 2299 563
2181 2180 10
2181 2063 477
2181 2213 1435
2181 2298 562
2182 2054 682
2182 2201 598
2182 2202 109
2183 2184 1265
2184 2183 1265
2184 2198 212
2184 2220 214
2184 2213 507
2185 2140 530
2185 2243 777
2185 2262 542
2186 2169 284
2186 2239 337
2186 2404 1208
2187 2074 569
2187 2128 235
2187 2394 1153
2188 2189 1377
2188 2190 1379
2188 2286 1205
2189 2188 1377
2189 2157 55
2190 2188 1379
2190 2149 55
2191 1994 937
2191 2231 87
2191 2238 99
2192 2070 498
2192 2200 42
2192 2207 36
2193 2082 436
2193 2195 56
2193 2198 21
2194 1993 960
2194 2209 60
2194 2226 64
2195 2083 433
2195 2193 56
2195 2204 19
2196 2144 213
2196 2240 311
2196 2262 907
2196 2302 493
2197 2154 201
2197 2228 114
2197 2236 86
2198 2193 21
2198 2184 212
2198 2220 46
2199 2200 947
2199 2115 40
2200 2199 947
2200 2192 42
2200 2207 28
2201 2182 598
2202 2182 109
2202 2248 152
2202 2270 251
2203 1958 1801
2203 2146 730
2203 2205 26
2203 2210 23
2204 2195 19
2204 2206 8
2204 2213 213
2205 2203 26
2205 2158 652
2205 2210 43
2206 2204 8
2206 2224 37
2207 2200 28
2207 2192 36
2207 2212 18
2207 2219 21
2208 2172 426
2208 2209 46
2208 2226 81
2209 2163 507
2209 2194 60
2209 2208 46
2210 1959 1809
2210 2203 23
2210 2205 43
2210 2218 34
2210 2221 63
2211 2179 103
2212 2207 18
2212 2072 535
2212 2222 21
2213 2181 1435
2213 2204 213
2213 2224 217
2213 2184 507
2214 2133 913
2214 2219 22
2214 2235 39
2215 2148 228
2215 2216 64
2215 2388 883
2216 2215 64
2216 2003 784
2217 2177 311
2217 2225 38
2217 2233 94
2218 2210 34
2218 2223 47
2219 2214 22
2219 2207 21
2219 2222 18
2219 2235 29
2220 2198 46
2220 2184 214
2220 2227 18
2221 2210 63
2221 2165 726
2221 2232 87
2222 2219 18
2222 2212 21
2222 2252 78
2223 2218 47
2223 2173 372
2223 2255 594
2224 2213 217
2224 2206 37
2224 2234 19
2225 2217 38
2225 8077 28
2226 2208 81
2226 2194 64
2226 2231 13
2226 2239 20
2227 2220 18
2227 2234 73
2227 2334 536
2228 2164 256
2228 2197 114
2228 2253 152
2229 2230 151
2229 2257 126
2229 2265 351
2230 2229 151
2231 2226 13
2231 2191 87
2231 2238 32
2231 2244 19
2232 2221 87
2232 2241 47
2233 2217 94
2234 2224 19
2234 2227 73
2234 2335 535
2235 2214 39
2235 2219 29
2235 2251 39
2236 2197 86
2237 2111 615
2237 2093 572
2237 2281 495
2237 2315 661
2238 2231 32
2238 2191 99
2238 2337 1547
2239 2186 337
2239 2226 20
2239 2244 13
2239 2404 1243
2240 2196 311
2240 2160 249
2240 2301 408
2241 2232 47
2241 2119 771
2241 2291 399
2242 2243 871
2242 1999 96
2243 2242 871
2243 2185 777
2243 2245 15
2243 2421 1968
2244 2239 13
2244 2231 19
2244 2341 1578
2244 2407 1249
2245 2246 875
2245 2243 15
2245 2393 1782
2245 2423 1986
2246 2245 875
2246 1998 96
2247 8077 57
2248 2202 152
2249 2173 225
2249 2290 68
2250 2119 397
2250 2642 66
2251 2235 39
2251 2283 29
2252 2222 78
2252 2320 25
2253 2168 305
2253 2228 152
2253 2258 90
2253 2289 213
2254 2009 1497
2255 2223 594
2255 2642 67
2256 2013 1498
2257 2229 126
2257 2268 65
2258 2253 90
2258 2266 62
2258 2288 155
2259 2174 363
2260 2261 311
2261 2260 311
2261 2273 94
2261 2277 183
2262 2185 542
2262 2140 437
2262 2196 907
2262 2296 249
2263 2264 423
2263 2332 414
2263 2353 473
2264 2263 423
2264 2313 873
2264 2102 240
2265 2229 351
2265 2271 16
2265 2322 543
2266 2258 62
2267 2159 592
2267 2268 24
2267 2330 457
2268 2267 24
2268 2257 65
2269 2106 693
2270 2202 251
2271 2265 16
2271 2325 94
2272 2111 691
2273 2261 94
2274 2118 542
2275 2276 154
2275 8076 438
2276 2275 154
2276 2316 298
2276 2307 438
2277 2261 183
2278 2279 129
2279 2278 129
2279 2280 1
2279 2285 10
2279 2287 101
2280 2279 1
2281 2237 495
2281 2166 518
2281 2284 16
2281 2458 1302
2282 2283 185
2282 2307 226
2282 2319 245
2283 2282 185
2283 2251 29
2284 2281 16
2284 2167 521
2284 2372 1010
2284 2457 1294
2285 2279 10
2285 2287 52
2285 2295 200
2286 2188 1205
2286 1833 2130
2286 2309 1160
2286 2670 3903
2287 2279 101
2287 2285 52
2287 2294 519
2288 2258 155
2289 2253 213
2290 2291 261
2290 2249 68
2291 2290 261
2291 2241 399
2291 2640 3860
2292 2155 706
2293 2294 0
2294 2293 0
2294 2287 519
2294 2303 240
2294 2308 64
2295 2285 200
2296 2262 249
2296 2297 10
2296 2302 811
2297 2296 10
2297 2314 812
2297 2421 722
2298 2181 562
2298 2299 10
2298 2306 12
2299 2180 563
2299 2298 10
2299 2300 628
2299 2305 11
2300 2161 651
2300 2299 628
2300 2301 37
2300 2311 12
2301 2240 408
2301 2300 37
2301 2302 338
2301 2312 12
2302 2196 493
2302 2301 338
2302 2314 10
2302 2296 811
2303 2304 0
2303 2294 240
2303 2318 75
2303 2333 107
2304 2303 0
2305 2299 11
2305 2306 10
2305 2311 627
2305 2412 633
2306 2305 10
2306 2298 12
2306 2411 633
2307 2282 226
2307 2276 438
2308 2294 64
2308 2333 235
2308 2345 172
2309 2310 111
2309 2286 1160
2309 2317 107
2310 2309 111
2310 2359 51
2311 2300 12
2311 2305 627
2311 2312 37
2311 2414 637
2312 2301 12
2312 2311 37
2312 2314 338
2312 2415 637
2313 2264 873
2313 2323 45
2313 2326 484
2314 2302 10
2314 2312 338
2314 2297 812
2314 2413 637
2315 2237 661
2315 2322 49
2315 2328 49
2316 2276 298
2316 8082 1363
2317 2309 107
2317 2358 52
2318 2303 75
2318 2327 649
2318 2426 1037
2319 2282 245
2319 2336 22
2320 2321 424
2320 2252 25
2321 2320 424
2321 2339 22
2322 2265 543
2322 2315 49
2322 2324 9
2322 2328 50
2323 2313 45
2323 8089 796
2324 2325 429
2324 2322 9
2324 2403 584
2325 2324 429
2325 2271 94
2326 2313 484
2326 2329 58
2326 2332 152
2327 2318 649
2328 2322 50
2328 2315 49
2328 2402 534
2329 2326 58
2329 2336 230
2329 2338 70
2330 2331 192
2330 2267 457
2330 2377 337
2331 2330 192
2332 2263 414
2332 2326 152
2332 2352 107
2332 2353 156
2333 2303 107
2333 2308 235
2333 2363 164
2334 2227 536
2334 2904 5699
2334 2082 1039
2335 2234 535
2335 2904 5701
2335 2083 1035
2336 2329 230
2336 2319 22
2337 2238 1547
2337 2175 738
2337 2340 10
2337 2341 10
2338 2329 70
2338 2339 228
2338 2343 14
2339 2338 228
2339 2321 22
2340 2337 10
2340 2175 741
2340 2342 11
2340 2344 49
2341 2244 1578
2341 2337 10
2341 2342 10
2341 2561 2422
2342 2341 10
2342 2340 11
2342 2346 49
2342 2562 2422
2343 2338 14
2343 2360 104
2343 2362 84
2344 2340 49
2344 2364 264
2344 2365 301
2345 2308 172
2346 2342 49
2346 2367 264
2346 2371 301
2347 2177 1572
2348 2349 295
2349 2348 295
2350 2351 262
2350 2625 138
2351 2350 262
2351 2095 837
2352 2332 107
2352 2356 21
2352 2360 52
2353 2263 473
2353 2332 156
2353 2361 18
2353 2408 931
2354 2355 271
2354 2098 838
2355 2354 271
2355 2627 138
2356 2352 21
2356 2361 142
2356 2368 105
2357 2358 1393
2357 2359 1393
2357 1527 5469
2357 2366 955
2357 2432 809
2358 2357 1393
2358 2317 52
2359 2357 1393
2359 2310 51
2360 2352 52
2360 2343 104
2361 2353 18
2361 2356 142
2361 2390 204
2361 2409 908
2362 2343 84
2362 2368 98
2362 2396 750
2363 2333 164
2364 2344 264
2364 2382 349
2365 2344 301
2365 2384 64
2366 2357 955
2367 2346 264
2367 2387 349
2368 2356 105
2368 2362 98
2368 2392 185
2369 2370 681
2370 2369 681
2370 2375 180
2370 2381 121
2371 2346 301
2371 2386 63
2372 2284 1010
2372 2176 886
2372 2401 337
2372 2467 862
2373 2374 104
2373 2376 46
2373 2389 198
2374 2373 104
2374 2376 270
2374 2389 337
2375 2370 180
2375 2380 78
2375 2395 109
2376 2373 46
2376 2374 270
2376 2399 135
2377 2330 337
2378 2379 699
2378 2428 1011
2378 2470 955
2379 2378 699
2380 2375 78
2381 2370 121
2382 2383 29
2382 2364 349
2383 2382 29
2383 2384 282
2383 2388 50
2384 2383 282
2384 2365 64
2385 2386 282
2385 2387 29
2385 2391 50
2386 2385 282
2386 2371 63
2387 2385 29
2387 2367 349
2388 2383 50
2388 2215 883
2388 2391 8
2389 2374 337
2389 2373 198
2389 2399 361
2390 2361 204
2390 2424 469
2391 2385 50
2391 2388 8
2391 2628 2724
2392 2368 185
2392 2410 193
2392 2424 717
2393 2126 1390
2393 2245 1782
2393 2394 14
2393 2560 2187
2394 2187 1153
2394 2393 14
2394 2504 2541
2394 2563 2198
2395 2375 109
2396 2362 750
2396 8089 1446
2396 8094 1446
2397 2398 175
2397 2399 15
2397 2422 721
2398 2397 175
2399 2376 135
2399 2397 15
2399 2400 0
2399 2389 361
2400 2399 0
2401 2372 337
2401 2105 1299
2401 2408 205
2402 2328 534
2402 2460 620
2403 2324 584
2403 2459 617
2404 2186 1208
2404 2239 1243
2404 2407 12
2404 2464 928
2405 2406 601
2405 8083 2782
2405 8095 2782
2406 2405 601
2406 2451 531
2407 2404 12
2407 2244 1249
2407 2464 929
2408 2401 205
2408 2353 931
2408 2409 31
2408 2431 367
2409 2408 31
2409 2361 908
2409 2433 359
2410 2392 193
2410 2444 902
2410 2452 504
2411 2306 633
2411 2412 9
2411 2416 13
2412 2305 633
2412 2411 9
2412 2414 683
2412 2417 13
2413 2314 637
2413 2415 403
2413 2418 16
2413 2421 816
2414 2311 637
2414 2412 683
2414 2415 37
2414 2419 14
2415 2413 403
2415 2312 637
2415 2414 37
2415 2420 14
2416 2411 13
2416 2417 9
2416 2427 268
2417 2412 13
2417 2416 9
2417 2419 685
2417 2427 267
2418 2413 16
2418 2420 405
2418 2423 815
2419 2414 14
2419 2417 685
2419 2420 37
2419 2425 217
2420 2418 405
2420 2415 14
2420 2419 37
2420 2425 196
2421 2243 1968
2421 2297 722
2421 2413 816
2421 2423 18
2422 2397 721
2423 2245 1986
2423 2421 18
2423 2418 815
2423 2635 3190
2424 2390 469
2424 2392 717
2424 2442 281
2424 2443 274
2425 2420 196
2425 2419 217
2425 2463 281
2426 2318 1037
2427 2417 267
2427 2416 268
2427 2516 717
2428 2378 1011
2428 2432 34
2428 2434 34
2429 2430 650
2430 2429 650
2430 2468 336
2430 2485 511
2431 2408 367
2431 2433 68
2431 2446 128
2432 2357 809
2432 2428 34
2432 2434 17
2432 2583 2426
2433 2431 68
2433 2409 359
2433 2435 47
2434 2432 17
2434 2428 34
2434 2488 552
2434 2586 2424
2435 2433 47
2435 2441 29
2435 2445 95
2436 2437 253
2436 2438 152
2436 2468 237
2437 2436 253
2438 2436 152
2439 2440 1980
2440 2439 1980
2440 2523 1180
2441 2435 29
2441 2447 69
2442 2424 281
2442 2443 9
2442 2445 151
2443 2442 9
2443 2424 274
2443 2444 106
2443 2499 610
2444 2443 106
2444 2410 902
2444 2452 885
2445 2435 95
2445 2442 151
2445 2447 95
2446 2431 128
2446 2450 104
2446 2465 121
2447 2441 69
2447 2445 95
2447 2450 26
2448 2449 798
2449 2448 798
2449 2453 55
2449 2454 45
2450 2447 26
2450 2446 104
2450 2465 143
2451 2406 531
2451 1917 4749
2451 2452 12
2452 2410 504
2452 2451 12
2452 2444 885
2453 2449 55
2453 2456 33
2453 2518 1964
2454 2449 45
2454 2455 28
2454 2523 1739
2455 2454 28
2455 2456 5
2455 2632 1914
2456 2453 33
2456 2455 5
2457 2284 1294
2457 2458 17
2457 2462 286
2457 2521 645
2458 2281 1302
2458 2457 17
2458 2460 635
2458 2520 637
2459 2403 617
2459 2460 16
2459 2461 692
2459 2534 990
2460 2459 16
2460 2402 620
2460 2458 635
2460 2533 981
2461 2459 692
2462 2457 286
2462 2467 543
2462 2475 130
2463 2425 281
2464 2404 928
2464 2407 929
2465 2446 121
2465 2450 143
2465 2466 22
2466 2465 22
2466 2467 473
2466 2598 1945
2467 2462 543
2467 2372 862
2467 2466 473
2467 2469 17
2468 2436 237
2468 2430 336
2468 2472 303
2468 2478 180
2469 2467 17
2470 2378 955
2470 2471 1049
2470 2518 582
2470 2519 933
2471 2470 1049
2472 2468 303
2473 2474 242
2474 2473 242
2474 2476 295
2474 2478 209
2475 2462 130
2476 2477 475
2476 2474 295
2476 2483 60
2477 2476 475
2478 2474 209
2478 2468 180
2478 2479 16
2479 2478 16
2479 2489 106
2479 2492 153
2480 2481 440
2481 2480 440
2481 2482 37
2481 2555 1132
2481 2604 2959
2482 2481 37
2482 2487 523
2483 2476 60
2483 2484 153
2483 2493 65
2484 2483 153
2485 2430 511
2486 2487 701
2486 2490 211
2486 2592 1427
2487 2486 701
2487 2482 523
2488 2434 552
2488 2542 963
2488 2589 1205
2489 2479 106
2490 2491 154
2490 2486 211
2490 2494 484
2490 2513 320
2491 2490 154
2492 2479 153
2493 2483 65
2494 2495 616
2494 2490 484
2494 2496 451
2494 2528 495
2495 2494 616
2496 2494 451
2496 2498 335
2497 2498 204
2497 2500 23
2497 2532 505
2498 2497 204
2498 2496 335
2499 2443 610
2499 2554 1571
2499 8094 1571
2500 2497 23
2500 2501 43
2500 2596 1166
2501 2500 43
2501 2503 118
2502 2503 2856
2503 2502 2856
2503 2501 118
2504 2394 2541
2504 2731 2773
2505 2506 119
2506 2505 119
2506 2507 146
2506 2513 78
2507 2506 146
2508 2509 78
2508 2510 0
2508 2511 23
2508 2515 272
2509 2508 78
2510 2508 0
2511 2512 44
2511 2508 23
2511 2517 55
2512 2511 44
2513 2506 78
2513 2514 1
2513 2490 320
2513 2531 443
2514 2513 1
2515 2508 272
2516 2427 717
2517 2511 55
2518 2470 582
2518 2453 1964
2518 2544 918
2518 2612 1282
2519 2470 933
2520 2458 637
2520 2521 18
2520 2522 12
2521 2520 18
2521 2457 645
2521 2526 19
2521 2541 434
2522 2520 12
2522 2526 19
2522 2533 421
2523 2454 1739
2523 2440 1180
2523 2538 391
2523 2545 516
2524 2525 0
2524 2527 210
2525 2524 0
2526 2522 19
2526 2521 19
2526 2535 424
2526 2543 424
2527 2524 210
2528 2494 495
2528 2530 28
2528 2592 1226
2529 2530 325
2529 2537 531
2529 2539 360
2530 2529 325
2530 2528 28
2530 2550 451
2531 2513 443
2532 2497 505
2532 2537 389
2532 2597 667
2533 2460 981
2533 2522 421
2533 2534 16
2533 2535 17
2534 2459 990
2534 2533 16
2534 2536 16
2535 2533 17
2535 2526 424
2535 2536 16
2535 2551 294
2536 2534 16
2536 2535 16
2536 2552 294
2537 2532 389
2537 2529 531
2537 2539 182
2538 2523 391
2538 2618 918
2538 2618 926
2539 2537 182
2539 2529 360
2539 2550 204
2540 2541 7
2540 2543 43
2541 2540 7
2541 2521 434
2541 2546 58
2542 2488 963
2542 2544 68
2542 2548 76
2543 2526 424
2543 2540 43
2543 2547 55
2544 2542 68
2544 2518 918
2544 2549 85
2545 2523 516
2545 2614 736
2545 2614 748
2546 2541 58
2546 2547 73
2546 2598 428
2547 2543 55
2547 2546 73
2547 2576 298
2548 2542 76
2548 2549 50
2548 2589 838
2549 2544 85
2549 2548 50
2549 2619 594
2550 2539 204
2550 2530 451
2550 2580 318
2551 2535 294
2551 2576 413
2552 2536 294
2552 2600 472
2553 2554 387
2553 2593 297
2553 2659 1055
2554 2553 387
2554 2499 1571
2554 8094 1571
2555 2481 1132
2555 2558 420
2555 2833 2275
2556 2557 386
2556 8095 804
2557 2556 386
2557 2630 579
2557 2661 1054
2558 2555 420
2558 2559 627
2558 2638 615
2559 2558 627
2560 2393 2187
2560 2563 25
2560 2565 64
2561 2341 2422
2561 2562 10
2561 2564 11
2562 2561 10
2562 2342 2422
2562 2564 11
2562 2569 175
2563 2394 2198
2563 2560 25
2563 2566 201
2563 2567 68
2564 2561 11
2564 2562 11
2564 2568 148
2565 2560 64
2565 2567 26
2565 2635 1088
2566 2563 201
2566 2645 614
2567 2563 68
2567 2565 26
2567 2575 242
2567 2637 1092
2568 2564 148
2568 2572 55
2568 2579 58
2569 2562 175
2569 2570 38
2569 2572 25
2570 2569 38
2570 2571 115
2570 2572 19
2571 2570 115
2571 2584 268
2572 2568 55
2572 2569 25
2572 2570 19
2572 2579 50
2572 2581 62
2573 2574 651
2574 2573 651
2574 2595 59
2575 2567 242
2575 2651 612
2576 2547 298
2576 2551 413
2576 2600 141
2577 2578 193
2578 2577 193
2578 2580 110
2578 2594 116
2579 2568 58
2579 2572 50
2579 2663 1101
2580 2578 110
2580 2550 318
2580 2594 91
2581 2572 62
2581 2582 178
2581 2663 1086
2582 2581 178
2582 2588 271
2583 2432 2426
2583 2586 17
2583 2681 2489
2584 2585 59
2584 2571 268
2585 2584 59
2586 2583 17
2586 2434 2424
2586 2684 2483
2586 2721 1463
2587 2588 46
2588 2587 46
2588 2582 271
2589 2488 1205
2589 2548 838
2589 2656 630
2590 2591 462
2591 2590 462
2591 2615 396
2591 2847 2253
2592 2528 1226
2592 2486 1427
2592 2653 755
2593 2553 297
2593 8098 144
2594 2578 116
2594 2580 91
2594 2606 101
2595 2596 489
2595 2574 59
2596 2595 489
2596 2500 1166
2596 2597 22
2596 2726 1233
2597 2596 22
2597 2532 667
2597 2599 91
2597 2727 1231
2598 2546 428
2598 2466 1945
2598 2600 54
2598 2601 61
2599 2597 91
2599 2602 149
2600 2552 472
2600 2576 141
2600 2598 54
2600 2604 50
2601 2598 61
2601 2605 23
2601 2607 96
2602 2603 95
2602 2599 149
2603 2602 95
2603 2606 172
2603 2621 174
2604 2481 2959
2604 2600 50
2604 2608 23
2605 2601 23
2605 2609 33
2605 2610 93
2606 2603 172
2606 2594 101
2606 2616 456
2606 2629 177
2607 2601 96
2607 8099 38
2608 2604 23
2608 2611 22
2608 2788 2152
2609 2605 33
2609 2611 37
2609 2662 625
2610 2605 93
2610 8100 37
2611 2608 22
2611 2609 37
2611 2798 2157
2612 2518 1282
2612 2613 988
2612 2631 301
2613 2612 988
2614 2545 736
2614 2545 748
2614 2636 368
2615 2591 396
2615 2682 163
2616 2606 456
2616 2617 780
2616 2620 130
2617 2616 780
2618 2538 918
2618 2538 926
2618 2632 291
2619 2549 594
2619 2623 79
2619 2631 1053
2619 2656 1287
2620 2616 130
2620 2646 294
2620 2653 535
2621 2622 88
2621 2603 174
2621 2629 179
2622 2621 88
2623 2619 79
2624 2625 2689
2624 2626 13
2624 2628 1583
2624 2666 588
2625 2624 2689
2625 2350 138
2626 2624 13
2626 2627 2679
2626 2657 382
2626 2670 1172
2627 2626 2679
2627 2355 138
2628 2391 2724
2628 2624 1583
2628 2654 318
2628 2669 649
2629 2621 179
2629 2606 177
2629 2643 172
2630 2557 579
2630 8101 374
2631 2612 301
2631 2619 1053
2631 2649 1092
2632 2455 1914
2632 2618 291
2632 2636 16
2632 2835 7129
2633 2634 338
2633 2648 614
2633 2733 5485
2634 2633 338
2634 8100 465
2635 2565 1088
2635 2423 3190
2635 2637 13
2635 2905 5449
2636 2632 16
2636 2614 368
2636 2877 4791
2636 2837 7142
2637 2567 1092
2637 2635 13
2637 2768 1305
2637 2907 5432
2638 2558 615
2638 2639 1416
2638 2833 1628
2639 2638 1416
2640 2291 3860
2640 2664 492
2640 2665 490
2641 2642 4120
2641 2667 489
2641 2672 493
2642 2641 4120
2642 2255 67
2642 2250 66
2643 2629 172
2643 2650 215
2643 2655 420
2644 2645 928
2644 2732 759
2645 2644 928
2645 2566 614
2646 2620 294
2647 2648 340
2647 8098 254
2648 2647 340
2648 2633 614
2648 2661 280
2649 2631 1092
2650 2643 215
2651 2652 897
2651 2575 612
2652 2651 897
2652 2734 814
2653 2620 535
2653 2592 755
2653 2671 411
2653 2673 632
2654 2628 318
2654 2658 112
2654 2668 347
2655 2643 420
2655 2671 548
2655 2725 678
2656 2589 630
2656 2619 1287
2656 2721 1242
2657 2626 382
2657 2674 302
2657 2678 341
2658 2654 112
2658 8102 460
2659 2660 305
2659 2553 1055
2659 3661 7872
2660 2659 305
2660 8101 275
2661 2557 1054
2661 2648 280
2661 3659 7859
2662 2609 625
2662 2735 47
2663 2579 1101
2663 2581 1086
2663 2664 170
2663 2686 238
2664 2640 492
2664 2663 170
2664 2665 30
2665 2640 490
2665 2664 30
2665 2667 34
2665 2686 192
2666 2624 588
2666 2679 145
2666 2699 329
2667 2641 489
2667 2665 34
2667 2672 62
2667 2701 230
2668 2654 347
2668 2675 254
2668 2669 291
2669 2628 649
2669 2668 291
2669 2685 146
2670 2626 1172
2670 2286 3903
2670 2681 232
2670 2747 773
2671 2655 548
2671 2653 411
2671 2719 648
2671 2983 2904
2672 2641 493
2672 2667 62
2672 2723 340
2672 2769 1454
2673 2653 632
2674 2657 302
2674 2679 136
2674 2716 168
2675 2668 254
2675 2680 243
2675 2703 268
2676 2677 75
2677 2676 75
2677 2709 60
2678 2657 341
2678 2702 216
2679 2666 145
2679 2674 136
2679 2692 46
2680 2675 243
2680 2688 77
2680 2699 416
2681 2670 232
2681 2583 2489
2681 2684 18
2681 2780 817
2682 2683 1967
2682 2615 163
2683 2682 1967
2683 2697 78
2684 2681 18
2684 2586 2483
2684 2783 816
2685 2669 146
2685 2703 150
2685 2722 170
2686 2665 192
2686 2663 238
2686 2701 49
2686 2737 636
2687 2688 387
2687 8102 91
2688 2687 387
2688 2680 77
2688 2700 274
2689 2690 361
2689 2691 86
2689 2702 371
2690 2689 361
2690 8103 112
2691 2689 86
2691 2693 263
2691 2694 122
2692 2679 46
2692 2695 47
2692 2716 134
2692 2724 218
2693 2691 263
2693 2703 79
2693 2730 235
2694 2691 122
2694 2696 45
2694 2710 68
2695 2692 47
2695 2700 185
2695 2707 113
2696 2694 45
2696 2707 363
2696 2712 64
2697 2698 20
2697 2683 78
2698 2697 20
2698 2726 495
2698 2824 755
2699 2680 416
2699 2666 329
2699 2700 67
2700 2688 274
2700 2699 67
2700 2695 185
2701 2667 230
2701 2686 49
2701 2723 121
2701 2738 626
2702 2689 371
2702 2678 216
2703 2693 79
2703 2675 268
2703 2685 150
2704 2705 41
2705 2704 41
2705 2706 123
2705 2748 347
2706 2705 123
2706 2708 130
2706 2751 347
2707 2696 363
2707 2695 113
2707 2715 18
2707 2724 229
2708 2706 130
2708 2709 67
2708 2710 123
2708 2755 347
2709 2708 67
2709 2677 60
2710 2708 123
2710 2694 68
2710 2711 6
2711 2710 6
2711 2712 7
2711 2756 347
2712 2711 7
2712 2696 64
2712 2713 117
2713 2712 117
2713 2714 124
2713 2758 347
2714 2713 124
2714 2715 122
2714 2760 347
2715 2714 122
2715 2707 18
2715 2762 348
2716 2692 134
2716 2674 168
2716 2720 81
2717 2718 1434
2718 2717 1434
2718 2776 687
2718 2779 475
2719 2671 648
2720 2716 81
2720 2784 866
2721 2586 1463
2721 2656 1242
2721 2835 1288
2722 2685 170
2722 2730 250
2722 2773 384
2723 2672 340
2723 2701 121
2723 3021 3042
2724 2707 229
2724 2692 218
2724 2785 869
2725 2655 678
2726 2698 495
2726 2596 1233
2726 2727 21
2726 2831 720
2727 2726 21
2727 2597 1231
2727 2828 716
2728 2729 1545
2728 2772 329
2728 2803 623
2729 2728 1545
2730 2722 250
2730 2693 235
2730 2742 185
2731 2504 2773
2731 2732 854
2731 2733 16
2731 2771 5804
2732 2731 854
2732 2644 759
2733 2731 16
2733 2734 814
2733 2633 5485
2733 2968 3869
2734 2733 814
2734 2652 814
2735 2736 593
2735 2662 47
2736 2735 593
2737 2686 636
2737 2770 499
2737 2777 495
2738 2701 626
2738 2791 758
2738 2811 624
2739 2740 74
2739 8103 259
2740 2739 74
2740 2748 116
2740 2767 54
2741 2742 303
2741 8103 45
2742 2741 303
2742 2730 185
2742 2775 138
2743 2744 4358
2744 2743 4358
2744 2745 16
2744 2832 575
2745 2746 4350
2745 2744 16
2745 2752 4503
2745 2834 582
2746 2745 4350
2747 2670 773
2748 2740 116
2748 2705 347
2748 2751 122
2748 2753 49
2748 2757 9
2749 2750 43
2749 2754 88
2750 2749 43
2751 2748 122
2751 2706 347
2751 2755 130
2751 2759 9
2752 2745 4503
2753 2754 41
2753 2748 49
2753 2757 49
2754 2753 41
2754 2749 88
2755 2751 130
2755 2708 347
2755 2756 130
2755 2761 9
2756 2755 130
2756 2711 347
2756 2758 124
2756 2763 8
2757 2753 49
2757 2748 9
2757 2759 122
2757 2767 127
2757 2818 330
2758 2756 124
2758 2713 347
2758 2760 124
2758 2764 8
2759 2757 122
2759 2751 9
2759 2761 130
2759 2819 330
2760 2758 124
2760 2714 347
2760 2762 121
2760 2765 8
2761 2759 130
2761 2755 9
2761 2763 130
2761 2820 330
2762 2760 121
2762 2715 348
2762 2766 8
2763 2761 130
2763 2756 8
2763 2764 123
2763 2822 330
2764 2763 123
2764 2758 8
2764 2765 124
2764 2823 329
2765 2764 124
2765 2760 8
2765 2766 121
2765 2826 329
2766 2765 121
2766 2762 8
2767 2740 54
2767 2757 127
2767 2775 102
2768 2637 1305
2768 2908 3541
2769 2672 1454
2770 2737 499
2770 2792 68
2771 2731 5804
2771 8099 467
2772 2728 329
2772 2782 280
2773 2722 384
2773 2774 434
2773 2800 246
2773 2807 217
2774 2773 434
2774 8102 62
2775 2742 138
2775 2767 102
2775 2809 213
2776 2718 687
2776 2803 644
2776 2915 4645
2777 2737 495
2777 2778 435
2777 2817 2750
2778 2777 435
2778 2812 69
2779 2718 475
2779 2830 255
2780 2681 817
2780 2784 91
2780 2790 57
2781 2782 310
2781 2802 749
2781 2918 4466
2782 2781 310
2782 2772 280
2783 2684 816
2783 2794 60
2783 2795 52
2784 2720 866
2784 2780 91
2784 2790 69
2785 2724 869
2785 2796 71
2785 2817 110
2786 2787 610
2786 2789 82
2786 2888 654
2787 2786 610
2788 2608 2152
2788 2797 14
2788 2798 19
2789 2786 82
2789 2825 46
2790 2784 69
2790 2780 57
2790 2794 15
2790 2796 11
2791 2738 758
2791 2793 334
2791 2821 2503
2792 2793 112
2792 2770 68
2793 2792 112
2793 2791 334
2793 2804 126
2794 2790 15
2794 2783 60
2794 2799 11
2794 2813 89
2795 2783 52
2795 2813 62
2795 2876 757
2796 2785 71
2796 2790 11
2796 2799 14
2796 2817 73
2797 2788 14
2797 2801 18
2797 2881 627
2798 2788 19
2798 2611 2157
2798 2801 13
2798 2848 597
2799 2796 14
2799 2794 11
2799 2816 90
2799 2821 73
2800 2773 246
2800 2806 83
2801 2797 18
2801 2798 13
2801 2848 595
2801 2883 628
2802 2781 749
2802 2829 448
2803 2728 623
2803 2776 644
2803 2841 531
2804 2793 126
2804 2805 75
2805 2804 75
2805 2806 89
2805 2870 714
2806 2805 89
2806 2800 83
2807 2773 217
2807 2866 99
2808 2107 7553
2808 2840 240
2808 2862 392
2809 2775 213
2809 2869 100
2809 2836 100
2810 2059 7935
2810 2852 330
2810 2867 399
2811 2738 624
2811 2812 206
2811 2815 53
2812 2811 206
2812 2778 69
2813 2794 89
2813 2795 62
2813 2876 696
2814 2815 48
2814 2836 616
2814 2865 485
2815 2814 48
2815 2811 53
2816 2799 90
2816 2821 128
2816 2890 1346
2817 2785 110
2817 2796 73
2817 2777 2750
2818 2757 330
2818 2819 122
2819 2818 122
2819 2759 330
2819 2820 131
2820 2819 131
2820 2761 330
2820 2822 131
2821 2799 73
2821 2816 128
2821 2791 2503
2822 2820 131
2822 2763 330
2822 2823 122
2823 2822 122
2823 2764 329
2823 2826 123
2824 2825 217
2824 2698 755
2824 2831 640
2824 2967 1642
2825 2824 217
2825 2789 46
2826 2823 123
2826 2765 329
2826 2827 117
2827 2826 117
2828 2727 716
2828 2831 20
2828 2970 1645
2829 2802 448
2829 2830 473
2829 2842 148
2830 2829 473
2830 2779 255
2831 2726 720
2831 2828 20
2831 2824 640
2831 2969 1639
2832 2744 575
2832 2849 152
2833 2555 2275
2833 2638 1628
2833 2881 346
2834 2745 582
2834 2861 168
2835 2721 1288
2835 2837 17
2835 2854 734
2835 2632 7129
2836 2814 616
2836 2809 100
2837 2835 17
2837 2859 715
2837 2636 7142
2838 2839 241
2839 2838 241
2839 2845 63
2839 2847 474
2840 2808 240
2840 2851 158
2841 2803 531
2841 2917 530
2842 2829 148
2842 2921 531
2843 2844 2165
2843 3483 8921
2844 2843 2165
2845 2846 239
2845 2839 63
2845 2850 476
2845 2879 204
2846 2845 239
2847 2839 474
2847 2591 2253
2847 2850 15
2847 2872 687
2848 2801 595
2848 2798 597
2848 2887 441
2849 2832 152
2849 2851 20
2849 2861 57
2850 2845 476
2850 2847 15
2850 2874 688
2850 2930 850
2851 2849 20
2851 2840 158
2851 2885 246
2852 2810 330
2852 2885 219
2853 2854 179
2854 2853 179
2854 2835 734
2854 2856 11
2854 2859 12
2855 2856 187
2856 2855 187
2856 2854 11
2856 2860 13
2856 2873 236
2857 2858 555
2857 2863 969
2858 2857 555
2858 2871 160
2858 2948 1069
2859 2854 12
2859 2837 715
2859 2860 17
2859 2884 209
2860 2856 13
2860 2859 17
2860 2875 240
2860 2882 166
2861 2834 168
2861 2849 57
2861 2868 26
2862 2808 392
2862 2910 245
2863 2857 969
2863 2864 96
2863 2898 575
2863 2944 1010
2864 2863 96
2865 2814 485
2865 2866 302
2865 2963 1282
2866 2865 302
2866 2807 99
2867 2810 399
2867 2928 252
2868 2861 26
2868 2878 93
2868 2892 250
2869 2870 304
2869 2809 100
2870 2869 304
2870 2805 714
2870 2964 1277
2871 2858 160
2871 2891 276
2871 2891 281
2872 2847 687
2872 2874 14
2873 2856 236
2873 2886 242
2874 2850 688
2874 2872 14
2875 2860 240
2875 2890 243
2876 2813 696
2876 2795 757
2876 2886 648
2877 2636 4791
2878 2868 93
2878 2895 82
2879 2845 204
2879 2880 34
2880 2879 34
2881 2833 346
2881 2797 627
2881 2883 23
2881 2898 231
2882 2860 166
2883 2881 23
2883 2801 628
2883 2900 228
2884 2859 209
2885 2851 246
2885 2852 219
2885 2889 34
2886 2876 648
2886 2873 242
2887 2848 441
2888 2786 654
2889 2885 34
2889 2892 91
2889 2903 168
2890 2816 1346
2890 2875 243
2891 2871 276
2891 2871 281
2891 2899 334
2892 2893 64
2892 2868 250
2892 2889 91
2892 2903 162
2893 2892 64
2893 2901 51
2894 2895 107
2894 2909 359
2895 2894 107
2895 2878 82
2896 2897 187
2897 2896 187
2898 2863 575
2898 2881 231
2898 2900 24
2898 2945 739
2899 2891 334
2900 2898 24
2900 2883 228
2900 2923 1103
2900 2946 733
2901 2902 155
2901 2893 51
2902 2901 155
2902 2929 535
2903 2892 162
2903 2889 168
2903 3207 3518
2904 2335 5701
2904 2334 5699
2904 2916 276
2904 2919 292
2905 2635 5449
2905 2906 1450
2905 2907 29
2905 2919 1456
2906 2905 1450
2907 2637 5432
2907 2905 29
2907 2922 1475
2907 3234 3746
2908 2768 3541
2908 3342 7211
2909 2894 359
2909 2910 462
2909 3178 5044
2910 2909 462
2910 2862 245
2911 2912 477
2911 2915 121
2912 2911 477
2912 2924 33
2913 2914 472
2913 2927 33
2914 2913 472
2914 2918 120
2915 2776 4645
2915 2911 121
2916 2904 276
2916 2917 1053
2916 2919 55
2916 2920 12
2917 2916 1053
2917 2841 530
2918 2781 4466
2918 2914 120
2919 2904 292
2919 2916 55
2919 2922 18
2919 2905 1456
2920 2916 12
2920 2921 1061
2920 2922 63
2920 2950 432
2921 2920 1061
2921 2842 531
2922 2919 18
2922 2920 63
2922 2907 1475
2922 2950 457
2923 2900 1103
2923 2976 845
2923 2977 853
2924 2925 399
2924 2912 33
2925 2924 399
2925 2998 32
2926 2927 397
2926 3001 31
2927 2926 397
2927 2913 33
2928 2929 692
2928 2867 252
2929 2928 692
2929 2902 535
2929 3172 4566
2930 2850 850
2930 2937 315
2930 2943 125
2931 2932 272
2931 2933 12
2931 2936 245
2931 2940 12
2932 2931 272
2933 2931 12
2933 2934 270
2933 2939 8
2934 2933 270
2935 2936 182
2936 2935 182
2936 2931 245
2936 2937 7
2936 2942 14
2937 2938 183
2937 2936 7
2937 2930 315
2937 2941 13
2938 2937 183
2939 2933 8
2939 2940 12
2939 2951 262
2940 2931 12
2940 2939 12
2940 2942 239
2940 2953 262
2941 2937 13
2941 2942 11
2941 2943 316
2941 2958 314
2942 2941 11
2942 2936 14
2942 2940 239
2942 2957 301
2943 2930 125
2943 2941 316
2943 2960 260
2944 2863 1010
2944 2945 212
2944 2947 549
2944 2962 258
2945 2944 212
2945 2898 739
2945 2946 23
2945 2965 265
2946 2945 23
2946 2900 733
2946 2966 265
2947 2944 549
2947 2948 174
2947 2971 410
2948 2858 1069
2948 2947 174
2948 2949 404
2948 2959 130
2949 2948 404
2950 2922 457
2950 2920 432
2950 3034 1016
2950 3143 2688
2951 2939 262
2951 2952 47
2951 2953 12
2951 2954 13
2952 2951 47
2953 2940 262
2953 2951 12
2953 2956 13
2953 2957 214
2954 2951 13
2954 2955 47
2954 2956 12
2955 2954 47
2956 2953 13
2956 2954 12
2956 2961 473
2957 2942 301
2957 2953 214
2957 2958 73
2958 2941 314
2958 2957 73
2958 2960 188
2959 2948 130
2960 2943 260
2960 2958 188
2960 2961 13
2961 2960 13
2961 2956 473
2961 3070 1169
2962 2944 258
2963 2865 1282
2963 2964 16
2963 3048 1022
2964 2963 16
2964 2870 1277
2964 3049 1021
2964 3065 2439
2965 2945 265
2965 2966 24
2965 2974 256
2966 2965 24
2966 2946 265
2966 2975 256
2966 2976 1175
2967 2824 1642
2967 3030 779
2967 3031 780
2968 2733 3869
2968 3342 4887
2969 2831 1639
2969 2970 21
2969 3037 789
2970 2969 21
2970 2828 1645
2970 2981 991
2970 3017 621
2971 2947 410
2971 2974 660
2971 3006 472
2972 2973 721
2972 2995 1494
2973 2972 721
2973 2980 458
2974 2971 660
2974 2965 256
2974 2975 23
2974 2984 172
2975 2974 23
2975 2966 256
2975 2990 1201
2975 3008 402
2976 2966 1175
2976 2923 845
2976 2977 15
2976 2990 230
2977 2976 15
2977 2923 853
2977 3062 734
2978 2979 5558
2978 2985 256
2979 2978 5558
2980 2973 458
2981 2970 991
2981 2982 172
2981 3004 291
2982 2981 172
2982 2983 103
2982 3093 868
2983 2982 103
2983 2671 2904
2983 2986 482
2983 3096 885
2984 2974 172
2984 2989 111
2984 2989 88
2985 2978 256
2985 3021 644
2986 2983 482
2986 2987 210
2986 2988 62
2986 3052 553
2987 2986 210
2988 2986 62
2988 3028 127
2989 2984 111
2989 2984 88
2989 3007 143
2990 2975 1201
2990 2976 230
2990 3061 506
2991 2992 170
2991 3094 699
2992 2991 170
2992 2995 300
2992 3071 575
2993 2994 245
2993 3036 524
2993 3100 731
2994 2993 245
2994 8070 8476
2995 2992 300
2995 2972 1494
2995 3071 565
2996 2997 422
2996 3032 562
2996 8069 8655
2997 2996 422
2997 3018 448
2997 3032 437
2998 2999 1435
2998 2925 32
2999 2998 1435
2999 3009 34
3000 3001 1421
3000 3051 32
3001 3000 1421
3001 2926 31
3002 3003 285
3002 3006 209
3002 3029 232
3003 3002 285
3004 3005 206
3004 2981 291
3004 3082 522
3005 3004 206
3006 3002 209
3006 2971 472
3006 3023 711
3006 3033 239
3007 2989 143
3007 3008 26
3007 3023 170
3008 3007 26
3008 2975 402
3008 3024 170
3008 3061 1283
3009 3010 116
3009 2999 34
3010 3009 116
3010 3042 380
3010 3086 520
3011 3012 174
3012 3011 174
3012 3013 130
3012 3014 16
3013 3012 130
3013 3020 462
3014 3015 177
3014 3012 16
3014 3016 129
3014 3036 225
3015 3014 177
3016 3014 129
3016 3019 462
3017 2970 621
3017 3035 618
3017 3038 168
3018 3019 207
3018 3020 207
3018 2997 448
3018 3030 307
3019 3018 207
3019 3016 462
3020 3018 207
3020 3013 462
3021 2985 644
3021 2723 3042
3021 3022 62
3021 3025 62
3021 3277 2245
3022 3021 62
3022 3047 45
3023 3006 711
3023 3007 170
3023 3024 27
3023 3074 270
3024 3023 27
3024 3008 170
3024 3075 272
3025 3021 62
3025 3057 47
3026 3027 135
3027 3026 135
3027 3028 929
3027 3029 200
3027 3104 500
3028 3027 929
3028 2988 127
3029 3027 200
3029 3002 232
3029 3033 209
3029 3106 521
3030 3018 307
3030 2967 779
3030 3031 14
3030 3123 763
3031 3030 14
3031 2967 780
3031 3037 455
3031 3095 445
3032 2996 562
3032 2997 437
3032 3099 414
3033 3029 209
3033 3006 239
3033 3074 747
3033 3110 479
3034 2950 1016
3034 3127 696
3034 3166 971
3035 3017 618
3035 3064 37
3036 3014 225
3036 2993 524
3036 3100 486
3037 3031 455
3037 2969 789
3037 3038 22
3037 3081 192
3038 3037 22
3038 3017 168
3038 3083 193
3039 3040 1895
3039 3496 6816
3040 3039 1895
3040 3103 459
3040 3103 5248
3040 3508 7673
3041 3042 120
3041 3092 107
3042 3041 120
3042 3010 380
3042 3084 305
3043 3044 144
3043 3085 268
3043 3086 274
3044 3043 144
3044 3079 104
3045 3046 608
3046 3045 608
3047 3048 626
3047 3022 45
3048 3047 626
3048 2963 1022
3048 3049 15
3048 3054 9
3049 3048 15
3049 2964 1021
3049 3055 10
3050 3051 426
3050 3079 322
3050 3088 216
3051 3050 426
3051 3000 32
3052 3053 111
3052 2986 553
3052 3059 42
3052 3076 118
3053 3052 111
3054 3048 9
3054 3056 7
3055 3049 10
3055 3058 7
3056 3057 625
3056 3054 7
3056 3058 15
3056 3332 2164
3057 3056 625
3057 3025 47
3058 3056 15
3058 3055 7
3058 3065 20
3059 3052 42
3059 3060 469
3059 3112 405
3060 3059 469
3061 3008 1283
3061 2990 506
3061 3062 15
3061 3258 1653
3062 3061 15
3062 2977 734
3062 3257 1649
3063 3064 203
3063 3082 244
3063 3171 951
3064 3063 203
3064 3035 37
3065 3058 20
3065 2964 2439
3065 3333 2148
3066 3067 124
3067 3066 124
3067 3068 131
3067 3077 204
3068 3067 131
3068 3069 203
3068 3077 68
3069 3068 203
3070 2961 1169
3070 3108 58
3071 2995 565
3071 2992 575
3071 3078 121
3072 3073 159
3073 3072 159
3073 3081 211
3073 3107 250
3074 3033 747
3074 3023 270
3074 3075 25
3074 3305 1866
3075 3074 25
3075 3024 272
3075 3304 1856
3076 3052 118
3077 3067 204
3077 3068 68
3077 3089 71
3078 3071 121
3078 3080 24
3078 3084 94
3079 3050 322
3079 3044 104
3080 3078 24
3080 3087 113
3080 3094 220
3081 3073 211
3081 3037 192
3081 3083 22
3081 3111 243
3082 3063 244
3082 3004 522
3082 3093 198
3083 3081 22
3083 3038 193
3083 3159 617
3084 3042 305
3084 3078 94
3084 3085 12
3084 3087 19
3085 3043 268
3085 3084 12
3085 3087 20
3085 3140 1085
3086 3010 520
3086 3043 274
3086 3132 241
3087 3085 20
3087 3084 19
3087 3080 113
3087 3144 1098
3088 3050 216
3088 8104 87
3089 3090 157
3089 3077 71
3089 3097 67
3090 3089 157
3091 3092 326
3091 8104 88
3092 3091 326
3092 3041 107
3093 3082 198
3093 2982 868
3093 3096 102
3093 3157 521
3094 3080 220
3094 2991 699
3094 3182 777
3095 3031 445
3095 3113 311
3095 3129 322
3096 3093 102
3096 2983 885
3096 3117 427
3096 3158 506
3097 3098 147
3097 3089 67
3097 3101 57
3098 3097 147
3099 3032 414
3099 8122 5874
3100 3036 486
3100 2993 731
3100 8121 5868
3101 3097 57
3101 3102 133
3101 3114 156
3102 3101 133
3103 3040 459
3103 3040 5248
3103 3148 459
3103 3223 1389
3104 3105 218
3104 3027 500
3104 3106 82
3105 3104 218
3106 3104 82
3106 3029 521
3106 3110 210
3107 3073 250
3107 3111 216
3107 3116 110
3108 3109 247
3108 3070 58
3109 3108 247
3109 3185 742
3109 3242 2845
3110 3106 210
3110 3033 479
3110 3331 1822
3111 3107 216
3111 3081 243
3111 3131 185
3112 3059 405
3112 3117 227
3112 3121 131
3113 3095 311
3113 3116 39
3113 3138 253
3114 3101 156
3114 3115 102
3114 3118 28
3115 3114 102
3115 3124 54
3116 3113 39
3116 3107 110
3116 3131 268
3117 3096 427
3117 3112 227
3117 3121 95
3117 3122 66
3118 3114 28
3119 3120 864
3120 3119 864
3121 3117 95
3121 3112 131
3121 3130 70
3122 3117 66
3123 3124 227
3123 3030 763
3123 3129 17
3123 3154 217
3124 3123 227
3124 3115 54
3125 3126 177
3125 3164 373
3125 3195 598
3126 3125 177
3126 8104 155
3127 3034 696
3127 3128 187
3127 3222 931
3128 3127 187
3129 3123 17
3129 3095 322
3129 3134 183
3129 3155 210
3130 3121 70
3131 3116 268
3131 3111 185
3131 3156 188
3132 3133 257
3132 3086 241
3133 3132 257
3133 3161 292
3133 3162 289
3134 3129 183
3134 3135 199
3134 3138 149
3135 3134 199
3136 3137 581
3136 3184 64
3137 3136 581
3138 3134 149
3138 3113 253
3138 3156 345
3138 3163 184
3139 3140 618
3140 3139 618
3140 3085 1085
3140 3141 9
3140 3144 19
3141 3142 620
3141 3140 9
3141 3145 35
3141 3146 19
3142 3141 620
3143 2950 2688
3143 3152 97
3143 3153 42
3144 3140 19
3144 3087 1098
3144 3146 9
3144 3214 559
3145 3141 35
3146 3141 19
3146 3144 9
3146 3149 32
3146 3212 549
3147 3148 2844
3148 3147 2844
3148 3103 459
3148 3152 17
3148 3226 798
3149 3146 32
3150 3151 18
3150 3160 106
3150 3167 151
3151 3150 18
3152 3143 97
3152 3148 17
3152 3153 86
3152 3225 784
3153 3143 42
3153 3152 86
3153 3222 1152
3154 3123 217
3154 3217 569
3155 3129 210
3155 3219 569
3156 3138 345
3156 3131 188
3156 3159 23
3156 3198 371
3157 3093 521
3157 3158 46
3157 3165 76
3158 3096 506
3158 3157 46
3158 3165 89
3159 3156 23
3159 3083 617
3159 3221 594
3160 3150 106
3160 3163 126
3160 3170 168
3161 3133 292
3161 3168 145
3162 3133 289
3162 8108 306
3163 3160 126
3163 3138 184
3163 3183 204
3164 3125 373
3164 8107 278
3165 3157 76
3165 3158 89
3165 3210 460
3166 3034 971
3166 3224 580
3166 3250 736
3167 3150 151
3168 3169 91
3168 3161 145
3169 3168 91
3169 3176 120
3170 3160 168
3171 3063 951
3171 3210 450
3171 3259 863
3172 2929 4566
3172 3173 39
3172 3181 242
3173 3172 39
3173 3186 202
3173 3201 242
3174 3175 17
3174 3180 115
3175 3174 17
3175 3176 18
3175 3177 48
3176 3175 18
3176 3169 120
3177 3175 48
3177 3178 54
3178 2909 5044
3178 3177 54
3178 3200 47
3179 3180 120
3179 3209 115
3180 3179 120
3180 3174 115
3181 3172 242
3181 3193 47
3182 3094 777
3182 3355 114
3183 3184 593
3183 3163 204
3183 3198 434
3184 3183 593
3184 3136 64
3185 3109 742
3185 3216 1318
3185 3268 966
3186 3173 202
3186 3187 46
3187 3188 49
3187 3186 46
3188 3187 49
3188 3189 47
3188 3192 154
3189 3188 47
3189 8108 349
3190 3191 218
3190 3196 96
3191 3190 218
3191 8110 252
3192 3188 154
3192 3194 74
3192 3205 199
3193 3194 273
3193 3181 47
3194 3193 273
3194 3192 74
3194 3197 283
3195 3125 598
3195 3196 355
3195 3199 130
3196 3195 355
3196 3190 96
3197 3194 283
3197 3206 305
3197 3243 854
3198 3183 434
3198 3156 371
3198 3220 227
3199 3195 130
3199 3200 606
3199 3239 819
3200 3199 606
3200 3178 47
3201 3173 242
3201 8110 127
3202 3203 231
3202 3204 562
3202 3231 320
3202 3231 1763
3203 3202 231
3204 3202 562
3205 3192 199
3205 8107 243
3206 3197 305
3206 3208 533
3206 8111 533
3207 2903 3518
3207 3211 23
3207 3479 3060
3208 3209 162
3208 3206 533
3208 8111 533
3209 3208 162
3209 3179 115
3210 3171 450
3210 3165 460
3210 3251 463
3211 3207 23
3211 3329 918
3211 3486 3044
3212 3146 549
3212 3213 8
3212 3215 10
3212 3253 549
3213 3212 8
3214 3144 559
3214 3215 11
3214 3353 1185
3215 3212 10
3215 3214 11
3215 3254 541
3215 3352 1180
3216 3185 1318
3216 3217 11
3216 3218 10
3216 3249 291
3217 3216 11
3217 3154 569
3218 3216 10
3218 3219 12
3218 3249 291
3219 3218 12
3219 3155 569
3220 3198 227
3220 3238 82
3221 3159 594
3221 3235 81
3222 3127 931
3222 3153 1152
3222 3244 195
3223 3103 1389
3223 3230 108
3223 3429 5595
3224 3166 580
3224 3233 148
3224 3252 412
3225 3152 784
3225 3226 11
3225 3256 1170
3225 3419 1256
3226 3225 11
3226 3148 798
3226 3230 198
3226 4209 6499
3227 3228 13
3227 8109 529
3228 3227 13
3228 3229 18
3228 3442 4053
3229 3228 18
3229 8110 264
3230 3226 198
3230 3223 108
3230 3509 4111
3231 3202 320
3231 3232 566
3231 3202 1763
3231 3310 499
3232 3231 566
3233 3224 148
3233 3261 277
3233 3262 277
3234 2907 3746
3234 3435 1970
3234 3403 9234
3234 3408 9251
3235 3236 111
3235 3221 81
3236 3235 111
3236 3237 18
3236 3240 10
3237 3238 111
3237 3236 18
3237 3241 10
3237 3242 300
3238 3237 111
3238 3220 82
3239 3199 819
3239 3337 423
3240 3236 10
3240 3241 19
3240 3441 1189
3241 3237 10
3241 3240 19
3241 3245 299
3241 3307 435
3242 3109 2845
3242 3237 300
3242 3245 9
3242 3248 285
3243 3197 854
3243 3346 423
3244 3222 195
3244 3262 562
3244 3363 794
3245 3242 9
3245 3241 299
3245 3248 285
3245 3273 279
3246 3247 280
3247 3246 280
3248 3242 285
3248 3245 285
3248 3249 111
3249 3216 291
3249 3218 291
3249 3248 111
3249 3272 253
3250 3166 736
3250 3252 66
3250 3255 77
3251 3210 463
3252 3250 66
3252 3224 412
3252 3255 86
3252 3261 282
3253 3212 549
3253 3284 43
3254 3215 541
3254 3289 43
3255 3250 77
3255 3252 86
3255 3267 128
3256 3225 1170
3257 3062 1649
3257 3258 17
3257 3467 1169
3258 3061 1653
3258 3257 17
3258 3260 150
3258 3466 1160
3259 3171 863
3259 3309 281
3260 3258 150
3260 3276 156
3260 3304 1009
3261 3252 282
3261 3233 277
3261 3269 136
3261 3279 191
3262 3233 277
3262 3244 562
3262 3266 116
3262 3330 388
3263 3264 35
3264 3263 35
3264 3265 106
3264 3285 178
3265 3264 106
3266 3262 116
3266 3269 48
3266 3274 38
3266 3326 318
3267 3255 128
3267 3270 13
3267 3279 291
3268 3185 966
3268 3272 772
3268 3430 1119
3269 3261 136
3269 3266 48
3269 3274 44
3270 3271 611
3270 3267 13
3270 3275 25
3271 3270 611
3272 3268 772
3272 3249 253
3272 3273 361
3272 3351 440
3273 3272 361
3273 3245 279
3273 3307 367
3274 3269 44
3274 3266 38
3274 3313 207
3275 3270 25
3275 3296 293
3275 3315 223
3276 3260 156
3276 3301 108
3276 3324 219
3277 3278 53
3277 3021 2245
3277 3311 104
3278 3277 53
3278 3294 341
3278 3314 294
3279 3267 291
3279 3261 191
3279 3296 17
3280 3281 89
3280 3294 259
3281 3280 89
3281 3303 42
3281 3312 146
3282 3283 141
3283 3282 141
3283 3284 317
3283 3288 10
3283 3292 11
3284 3283 317
3284 3253 43
3285 3264 178
3285 3295 13
3285 3298 28
3286 3287 998
3286 3291 64
3287 3286 998
3288 3283 10
3288 3289 319
3288 3297 11
3288 3321 181
3289 3288 319
3289 3254 43
3290 3291 72
3290 3302 67
3291 3290 72
3291 3286 64
3292 3293 140
3292 3283 11
3292 3297 10
3292 3306 42
3293 3292 140
3294 3280 259
3294 3278 341
3294 3314 123
3294 3318 237
3295 3285 13
3295 3300 28
3295 3312 82
3296 3279 17
3296 3275 293
3296 3313 176
3297 3292 10
3297 3288 11
3297 3308 40
3297 3321 178
3298 3299 115
3298 3285 28
3298 3300 13
3299 3298 115
3300 3298 13
3300 3295 28
3300 3328 449
3301 3276 108
3301 3302 46
3301 3319 122
3302 3301 46
3302 3290 67
3303 3281 42
3304 3075 1856
3304 3260 1009
3304 3305 22
3304 3377 452
3305 3074 1866
3305 3304 22
3305 3323 755
3305 3425 692
3306 3292 42
3307 3273 367
3307 3241 435
3307 3389 514
3308 3297 40
3309 3259 281
3310 3231 499
3310 3317 812
3310 3335 697
3310 3343 249
3311 3277 104
3311 3455 164
3312 3295 82
3312 3281 146
3312 3318 75
3313 3296 176
3313 3274 207
3313 3325 174
3314 3294 123
3314 3278 294
3314 3338 252
3314 3341 204
3315 3275 223
3315 3327 78
3315 3334 277
3316 3317 517
3317 3316 517
3317 3310 812
3317 3359 249
3318 3312 75
3318 3294 237
3318 3320 17
3319 3301 122
3319 3322 41
3319 3324 147
3320 3318 17
3320 3338 124
3320 3340 227
3321 3297 178
3321 3288 181
3321 8309 45
3322 3319 41
3323 3305 755
3323 3331 383
3323 3380 344
3324 3276 219
3324 3319 147
3324 3377 981
3325 3313 174
3325 3326 12
3325 3357 242
3326 3325 12
3326 3266 318
3326 3330 84
3327 3315 78
3327 3345 188
3327 3362 299
3328 3300 449
3329 3211 918
3329 3364 215
3330 3326 84
3330 3262 388
3330 3344 297
3330 3421 590
3331 3110 1822
3331 3323 383
3331 3350 737
3331 3367 200
3332 3056 2164
3332 3333 15
3332 3454 846
3333 3332 15
3333 3065 2148
3333 3390 733
3333 3475 961
3334 3315 277
3334 3357 330
3334 3365 190
3335 3310 697
3336 3337 592
3336 3373 329
3336 3426 835
3337 3336 592
3337 3239 423
3338 3320 124
3338 3314 252
3338 3370 208
3338 3379 413
3339 3340 181
3340 3339 181
3340 3320 227
3340 3358 185
3341 3314 204
3342 2968 4887
3342 2908 7211
3343 3310 249
3344 3330 297
3344 3363 382
3344 3438 492
3345 3327 188
3345 3365 114
3345 3394 431
3346 3347 703
3346 3243 423
3347 3346 703
3347 3376 235
3347 3428 485
3348 3349 3649
3348 3374 158
3348 3378 196
3349 3348 3649
3350 3331 737
3350 3361 304
3350 3494 752
3351 3272 440
3351 3354 284
3351 3430 426
3352 3215 1180
3352 3353 9
3352 3476 1421
3353 3352 9
3353 3214 1185
3353 3366 370
3354 3351 284
3355 3356 1205
3355 3182 114
3356 3355 1205
3356 3366 288
3356 3386 188
3357 3334 330
3357 3325 242
3357 3404 314
3358 3340 185
3358 3375 152
3358 3379 138
3359 3317 249
3359 3360 1384
3359 3364 83
3360 3359 1384
3361 3350 304
3361 3387 662
3361 3500 797
3362 3327 299
3362 3383 263
3362 3385 161
3363 3344 382
3363 3244 794
3363 3439 407
3364 3329 215
3364 3359 83
3364 3400 226
3365 3345 114
3365 3334 190
3365 3397 279
3366 3356 288
3366 3353 370
3367 3331 200
3367 3414 351
3367 3424 338
3368 3369 241
3369 3368 241
3369 3372 43
3369 3375 59
3370 3338 208
3371 3372 176
3372 3371 176
3372 3369 43
3372 3384 86
3373 3336 329
3373 3432 63
3374 3348 158
3374 3378 163
3374 3382 350
3375 3369 59
3375 3358 152
3375 3392 134
3375 3399 150
3376 3347 235
3376 3395 60
3377 3304 452
3377 3324 981
3377 3459 393
3378 3374 163
3378 3348 196
3378 3471 600
3379 3358 138
3379 3338 413
3379 3392 150
3380 3323 344
3380 3381 465
3380 3414 231
3381 3380 465
3382 3374 350
3382 3400 1070
3382 3532 960
3383 3362 263
3383 3385 208
3383 3435 882
3384 3372 86
3385 3383 208
3385 3362 161
3385 3393 39
3386 3356 188
3386 3601 61
3387 3361 662
3387 3401 83
3387 3505 1233
3388 3389 490
3389 3388 490
3389 3307 514
3389 3440 238
3390 3333 733
3390 3391 6268
3390 3462 806
3390 3535 866
3391 3390 6268
3392 3375 134
3392 3379 150
3392 3417 112
3393 3385 39
3393 3394 29
3393 3526 729
3394 3393 29
3394 3345 431
3394 3420 235
3395 3396 148
3395 3376 60
3396 3395 148
3396 3426 320
3396 3436 263
3397 3365 279
3397 3404 34
3397 3420 407
3398 3399 28
3398 3411 53
3398 3411 557
3399 3398 28
3399 3375 150
3399 3416 54
3400 3364 226
3400 3382 1070
3400 3410 415
3400 3629 1211
3401 3387 83
3401 3557 70
3402 3403 363
3402 3406 197
3403 3402 363
3403 3408 19
3403 3234 9234
3404 3397 34
3404 3357 314
3404 3421 133
3405 3406 3824
3405 3407 12
3405 3412 21
3406 3405 3824
3406 3402 197
3407 3405 12
3407 3415 21
3408 3409 367
3408 3403 19
3408 3234 9251
3408 3879 4514
3409 3408 367
3409 3413 189
3410 3400 415
3411 3398 53
3411 3416 27
3411 3398 557
3412 3405 21
3412 3413 3818
3412 3415 12
3412 3563 812
3413 3412 3818
3413 3409 189
3414 3367 351
3414 3380 231
3414 3424 125
3414 3465 528
3415 3407 21
3415 3412 12
3415 3562 810
3416 3411 27
3416 3399 54
3416 3447 167
3417 3392 112
3417 3418 114
3417 3433 133
3418 3417 114
3419 3225 1256
3419 3439 1164
3419 4214 5313
3420 3394 235
3420 3397 407
3420 3507 437
3421 3404 133
3421 3330 590
3421 3438 570
3421 3512 507
3422 3423 1300
3423 3422 1300
3424 3367 338
3424 3414 125
3424 3434 466
3424 3517 543
3425 3305 692
3425 3464 488
3425 3560 724
3426 3396 320
3426 3336 835
3426 3487 443
3427 3428 792
3427 3432 72
3428 3427 792
3428 3347 485
3428 3489 453
3429 3223 5595
3429 3473 320
3429 3491 449
3430 3268 1119
3430 3351 426
3430 3437 183
3430 3523 532
3431 3432 396
3431 3502 66
3432 3431 396
3432 3427 72
3432 3373 63
3433 3417 133
3433 3447 192
3434 3424 466
3435 3234 1970
3435 3383 882
3435 3546 712
3435 3900 3482
3436 3396 263
3436 3498 63
3437 3430 183
3437 3443 131
3437 3451 604
3438 3421 570
3438 3344 492
3438 3439 419
3438 3553 651
3439 3438 419
3439 3363 407
3439 3419 1164
3439 3544 596
3440 3389 238
3440 3441 32
3440 3451 56
3441 3440 32
3441 3240 1189
3441 3449 40
3442 3228 4053
3442 3480 226
3443 3437 131
3443 3446 56
3443 3538 567
3444 3445 4066
3444 3579 230
3445 3444 4066
3445 8111 100
3446 3443 56
3446 3450 214
3446 3474 161
3447 3448 386
3447 3416 167
3447 3433 192
3447 3477 323
3448 3447 386
3449 3441 40
3449 3452 35
3449 3505 475
3450 3446 214
3450 3453 216
3450 3478 159
3451 3437 604
3451 3440 56
3451 3453 22
3452 3449 35
3452 3460 38
3452 3505 460
3453 3450 216
3453 3451 22
3453 3460 43
3454 3455 696
3454 3332 846
3454 3470 114
3455 3454 696
3455 3311 164
3456 3457 2587
3457 3456 2587
3457 3458 353
3457 3521 380
3458 3457 353
3459 3377 393
3459 3461 19
3459 3466 1142
3460 3453 43
3460 3452 38
3460 3514 270
3461 3459 19
3461 3468 1146
3461 3702 1290
3462 3390 806
3463 3464 19
3463 3465 23
3464 3463 19
3464 3425 488
3464 3469 44
3465 3414 528
3465 3463 23
3465 3469 35
3466 3459 1142
3466 3258 1160
3466 3467 19
3466 3468 14
3467 3466 19
3467 3257 1169
3467 3468 16
3467 3686 1251
3468 3461 1146
3468 3466 14
3468 3467 16
3468 3687 1249
3469 3465 35
3469 3464 44
3469 3517 464
3470 3454 114
3470 3475 11
3470 3511 834
3470 3543 483
3471 3378 600
3471 3472 735
3471 3503 141
3471 3522 381
3472 3471 735
3473 3429 320
3474 3446 161
3474 3478 213
3474 3520 230
3475 3470 11
3475 3333 961
3475 3536 399
3475 3539 400
3475 3548 481
3476 3352 1421
3476 3490 556
3476 3658 1104
3477 3447 323
3477 3492 101
3477 3521 493
3478 3474 213
3478 3450 159
3478 3515 281
3478 3516 186
3479 3207 3060
3479 3482 14
3479 3486 23
3480 3481 85
3480 3442 226
3481 3480 85
3481 3547 512
3482 3479 14
3482 3488 23
3482 3666 2391
3483 2843 8921
3483 3487 31
3483 3493 74
3484 3485 344
3484 3485 559
3484 3511 103
3485 3484 344
3485 3484 559
3485 3513 502
3486 3479 23
3486 3211 3044
3486 3488 14
3486 3700 1394
3487 3483 31
3487 3426 443
3487 3489 12
3488 3482 23
3488 3486 14
3488 3674 2388
3488 3722 1495
3489 3487 12
3489 3428 453
3489 3490 21
3490 3489 21
3490 3510 76
3490 3476 556
3491 3429 449
3491 3496 119
3492 3477 101
3492 3513 77
3493 3483 74
3493 3497 180
3493 3506 33
3494 3350 752
3494 3495 414
3494 3500 162
3495 3494 414
3496 3039 6816
3496 3509 29
3496 3491 119
3497 3493 180
3497 3499 40
3497 3960 3142
3498 3499 368
3498 3436 63
3499 3498 368
3499 3497 40
3499 3501 23
3499 3955 3127
3500 3361 797
3500 3494 162
3500 3556 685
3501 3502 400
3501 3499 23
3501 3508 108
3501 3954 3114
3502 3501 400
3502 3431 66
3503 3471 141
3503 3504 245
3503 3518 135
3503 3531 360
3504 3503 245
3505 3452 460
3505 3449 475
3505 3387 1233
3505 3678 1295
3506 3493 33
3506 3510 50
3507 3420 437
3507 3512 45
3507 3526 510
3508 3040 7673
3508 3501 108
3508 3509 1187
3509 3230 4111
3509 3496 29
3509 3508 1187
3509 3932 3151
3510 3506 50
3510 3490 76
3510 3778 1510
3511 3484 103
3511 3470 834
3511 3525 213
3512 3507 45
3512 3421 507
3512 3568 621
3513 3485 502
3513 3492 77
3514 3460 270
3514 3515 136
3514 3566 352
3515 3478 281
3515 3514 136
3515 3516 135
3516 3478 186
3516 3515 135
3516 3520 215
3517 3424 543
3517 3469 464
3517 3558 286
3517 3706 1244
3518 3503 135
3518 3519 253
3518 3524 96
3518 3551 346
3519 3518 253
3520 3474 230
3520 3516 215
3520 3542 182
3521 3457 380
3521 3477 493
3521 3529 514
3522 3471 381
3522 3528 142
3522 3531 143
3523 3430 532
3523 3537 121
3523 3538 470
3524 3518 96
3524 3567 336
3524 3585 338
3525 3511 213
3525 3527 13
3525 3533 441
3525 3582 660
3526 3393 729
3526 3507 510
3526 3546 690
3526 3759 1315
3527 3525 13
3527 3534 446
3527 3594 364
3527 3614 962
3528 3522 142
3528 3552 143
3528 3559 173
3529 3530 325
3529 3521 514
3529 3550 295
3530 3529 325
3531 3522 143
3531 3503 360
3531 3551 129
3531 3552 143
3532 3382 960
3532 3569 182
3532 3589 354
3533 3525 441
3533 3534 12
3533 3587 1112
3534 3533 12
3534 3527 446
3534 3577 382
3534 3656 621
3535 3390 866
3535 3536 920
3535 3641 475
3536 3475 399
3536 3535 920
3536 3539 10
3536 3581 177
3537 3523 121
3537 3554 219
3537 3677 802
3538 3523 470
3538 3443 567
3538 3540 6
3538 3580 176
3539 3475 400
3539 3536 10
3539 3549 66
3539 3570 154
3540 3538 6
3540 3541 29
3541 3542 10
3541 3540 29
3542 3541 10
3542 3520 182
3542 3555 239
3542 3636 432
3543 3470 483
3543 3595 62
3544 3439 596
3544 3545 1020
3544 3553 469
3544 3770 1111
3545 3544 1020
3546 3435 712
3546 3526 690
3546 3936 2262
3547 3481 512
3547 3597 354
3547 3598 247
3548 3475 481
3548 3653 64
3549 3539 66
3550 3529 295
3550 3587 822
3550 3628 1986
3551 3531 129
3551 3518 346
3551 3567 92
3552 3528 143
3552 3531 143
3552 3586 167
3552 3613 260
3553 3438 651
3553 3544 469
3553 3568 453
3554 3537 219
3554 3580 338
3554 3620 422
3555 3542 239
3555 3561 54
3555 3605 177
3556 3557 836
3556 3500 685
3556 3607 459
3557 3556 836
3557 3401 70
3558 3517 286
3558 3560 627
3558 3734 925
3559 3528 173
3559 3569 217
3559 3586 145
3560 3558 627
3560 3425 724
3560 3703 737
3561 3555 54
3561 3566 125
3561 3608 176
3562 3415 810
3562 3563 12
3562 3564 25
3562 3648 2294
3563 3562 12
3563 3412 812
3563 3565 25
3564 3562 25
3564 3565 12
3564 3651 2278
3564 3757 938
3565 3564 12
3565 3563 25
3565 3755 934
3566 3561 125
3566 3514 352
3566 3612 178
3567 3551 92
3567 3524 336
3567 3604 148
3568 3553 453
3568 3512 621
3569 3532 182
3569 3559 217
3569 3622 227
3570 3539 154
3570 3582 72
3570 3581 62
3571 3572 430
3571 3573 922
3571 3585 109
3571 3642 306
3572 3571 430
3573 3571 922
3574 3575 121
3575 3574 121
3575 3576 128
3575 3584 133
3575 3628 240
3576 3575 128
3577 3534 382
3577 3593 73
3577 3690 643
3578 3579 765
3578 3599 72
3578 3603 71
3579 3578 765
3579 3444 230
3580 3538 176
3580 3554 338
3580 3633 254
3581 3536 177
3581 3570 62
3581 3596 62
3582 3525 660
3582 3570 72
3582 3596 134
3583 3584 115
3584 3583 115
3584 3575 133
3584 3592 151
3584 3630 239
3585 3524 338
3585 3571 109
3585 3602 300
3585 3611 105
3586 3559 145
3586 3552 167
3586 3617 162
3587 3550 822
3587 3588 140
3587 3533 1112
3588 3587 140
3588 3616 164
3589 3532 354
3589 3624 190
3589 3625 257
3590 3591 39
3590 3593 702
3590 3615 145
3591 3590 39
3591 3615 128
3591 3621 2333
3592 3584 151
3593 3577 73
3593 3590 702
3593 3762 1047
3594 3527 364
3594 3595 172
3594 3652 409
3595 3594 172
3595 3543 62
3596 3582 134
3596 3581 62
3596 3610 180
3597 3547 354
3597 3671 211
3598 3547 247
3598 8113 257
3599 3578 72
3599 3711 559
3600 3601 1006
3600 3685 1005
3601 3600 1006
3601 3386 61
3602 3585 300
3602 3604 45
3602 3646 276
3603 3578 71
3603 3668 320
3604 3567 148
3604 3602 45
3604 3609 181
3605 3606 97
3605 3555 177
3605 3608 55
3606 3605 97
3607 3556 459
3608 3605 55
3608 3561 176
3608 3612 99
3609 3604 181
3609 3613 58
3609 3650 264
3610 3596 180
3610 3640 206
3611 3585 105
3611 3645 327
3612 3608 99
3612 3566 178
3612 3647 276
3613 3552 260
3613 3609 58
3613 3617 155
3614 3527 962
3614 3644 204
3615 3591 128
3615 3616 38
3615 3590 145
3615 3739 752
3616 3615 38
3616 3588 164
3617 3586 162
3617 3613 155
3617 3622 365
3617 3655 259
3618 3619 340
3619 3618 340
3620 3554 422
3620 3633 91
3620 3677 424
3621 3591 2333
3621 3623 108
3621 3696 479
3622 3569 227
3622 3617 365
3622 3624 314
3622 3660 239
3623 3621 108
3623 3639 648
3623 3683 397
3624 3589 190
3624 3622 314
3624 3625 178
3624 3673 273
3625 3589 257
3625 3624 178
3625 3627 105
3625 3680 397
3626 3627 811
3627 3626 811
3627 3625 105
3627 3629 380
3628 3575 240
3628 3550 1986
3628 3630 130
3629 3400 1211
3629 3627 380
3629 3684 350
3630 3584 239
3630 3628 130
3630 3635 161
3631 3632 1272
3632 3631 1272
3632 3920 1962
3633 3620 91
3633 3580 254
3633 3636 44
3633 3663 208
3634 3635 337
3635 3634 337
3635 3630 161
3635 3638 171
3636 3633 44
3636 3542 432
3636 3647 138
3637 3638 322
3638 3637 322
3638 3635 171
3638 3642 237
3639 3623 648
3639 3645 279
3639 3657 1223
3640 3641 547
3640 3610 206
3641 3640 547
3641 3535 475
3641 3643 16
3641 3742 924
3642 3571 306
3642 3638 237
3642 3646 378
3643 3644 553
3643 3641 16
3643 3689 276
3643 3746 919
3644 3643 553
3644 3614 204
3645 3639 279
3645 3611 327
3646 3602 276
3646 3642 378
3646 3650 234
3647 3636 138
3647 3612 276
3647 3649 10
3647 3663 153
3648 3562 2294
3648 3659 200
3649 3647 10
3649 3737 41
3650 3609 264
3650 3646 234
3650 3655 224
3651 3564 2278
3651 3665 196
3652 3594 409
3652 3675 120
3652 3679 185
3653 3654 582
3653 3548 64
3654 3653 582
3654 3676 120
3654 3763 601
3655 3617 259
3655 3650 224
3655 3660 363
3656 3534 621
3656 3679 232
3656 3690 313
3657 3639 1223
3657 3664 308
3657 3829 905
3658 3476 1104
3658 3662 259
3658 3778 969
3659 2661 7859
3659 3648 200
3659 3661 13
3659 3665 31
3660 3622 239
3660 3655 363
3660 3664 14
3660 3673 314
3661 2659 7872
3661 3659 13
3661 3670 32
3661 3686 275
3662 3658 259
3662 3685 380
3663 3633 208
3663 3647 153
3663 3699 369
3664 3660 14
3664 3657 308
3664 3688 884
3664 3891 1213
3665 3659 31
3665 3651 196
3665 3670 14
3665 3744 491
3666 3482 2391
3666 3726 156
3667 3668 116
3667 3669 292
3667 3697 160
3668 3667 116
3668 3603 320
3669 3667 292
3669 8112 222
3670 3661 32
3670 3665 14
3670 3693 280
3670 3743 471
3671 3672 302
3671 3597 211
3672 3671 302
3672 3701 176
3672 3712 424
3673 3624 273
3673 3660 314
3673 3680 424
3674 3488 2388
3674 3729 147
3675 3652 120
3675 3839 959
3676 3654 120
3676 3836 946
3677 3537 802
3677 3620 424
3677 3699 162
3678 3505 1295
3678 3681 79
3678 3801 596
3679 3656 232
3679 3652 185
3679 3758 412
3680 3625 397
3680 3673 424
3680 3684 155
3681 3678 79
3681 3721 444
3681 3950 1556
3682 3683 319
3683 3682 319
3683 3623 397
3683 3696 88
3683 3716 163
3684 3629 350
3684 3680 155
3684 3688 21
3684 3732 1191
3685 3662 380
3685 3600 1005
3685 3730 410
3685 3814 1523
3686 3467 1251
3686 3661 275
3686 3687 16
3686 3693 42
3687 3468 1249
3687 3686 16
3687 3694 42
3687 3707 375
3688 3684 21
3688 3664 884
3688 3736 1196
3688 3845 957
3689 3643 276
3689 3691 407
3689 3692 598
3690 3577 643
3690 3656 313
3690 3758 382
3691 3689 407
3692 3689 598
3692 3695 346
3692 3794 493
3693 3686 42
3693 3670 280
3693 3694 16
3693 3825 938
3694 3687 42
3694 3693 16
3694 3727 381
3694 3863 1236
3695 3692 346
3695 3698 142
3695 3792 460
3696 3683 88
3696 3621 479
3696 3735 192
3696 3804 601
3697 3667 160
3697 3700 95
3697 3718 94
3698 3695 142
3699 3677 162
3699 3663 369
3699 3801 3117
3700 3486 1394
3700 3697 95
3700 3718 86
3701 3672 176
3701 3719 80
3701 3731 125
3702 3461 1290
3702 3720 76
3702 3749 229
3703 3560 737
3703 3733 129
3703 8120 129
3703 3750 222
3704 3705 241
3705 3704 241
3706 3517 1244
3706 3754 49
3707 3687 375
3707 3767 780
3708 3709 158
3708 8113 300
3709 3708 158
3709 8115 148
3710 3711 153
3710 8114 113
3711 3710 153
3711 3599 559
3712 3672 424
3712 8114 114
3713 3714 831
3713 3715 43
3713 3742 237
3713 3769 397
3714 3713 831
3715 3713 43
3716 3717 323
3716 3683 163
3716 3747 176
3716 4168 2705
3717 3716 323
3718 3700 86
3718 3697 94
3718 3719 10
3718 3722 21
3719 3718 10
3719 3701 80
3719 3723 21
3719 3731 59
3720 3702 76
3720 3866 761
3721 3681 444
3721 3741 59
3722 3488 1495
3722 3718 21
3722 3723 10
3723 3722 10
3723 3719 21
3723 3773 285
3724 3725 2090
3724 3726 475
3724 3728 27
3724 3814 980
3725 3724 2090
3726 3724 475
3726 3666 156
3727 3694 381
3727 3774 780
3728 3724 27
3728 3729 479
3728 3818 1001
3728 3856 1135
3729 3728 479
3729 3674 147
3730 3685 410
3730 3781 262
3730 3827 984
3731 3719 59
3731 3701 125
3731 3771 246
3732 3684 1191
3732 8115 81
3733 3703 129
3733 8120 129
3733 3870 765
3733 8120 765
3734 3558 925
3734 3780 46
3735 3696 192
3736 3688 1196
3736 8117 79
3737 3738 466
3737 3649 41
3738 3737 466
3739 3615 752
3739 8118 86
3740 3741 1354
3740 3753 30
3741 3740 1354
3741 3721 59
3742 3641 924
3742 3713 237
3742 3745 18
3742 3746 18
3743 3670 471
3743 3806 406
3743 3819 416
3744 3665 491
3744 3786 400
3744 3802 382
3745 3742 18
3745 3748 16
3745 3751 19
3746 3643 919
3746 3742 18
3746 3748 5
3747 3716 176
3748 3746 5
3748 3745 16
3748 3756 20
3748 3794 1367
3749 3702 229
3749 3784 91
3750 3703 222
3750 3789 78
3751 3745 19
3751 3756 16
3751 3928 1749
3752 3753 386
3752 3754 175
3752 3779 747
3752 3783 146
3753 3752 386
3753 3740 30
3754 3752 175
3754 3706 49
3755 3565 934
3755 3757 12
3755 3760 22
3755 3879 1979
3756 3748 20
3756 3751 16
3756 3796 1582
3756 4309 4283
3757 3564 938
3757 3755 12
3757 3761 22
3757 3807 1153
3758 3690 382
3758 3679 412
3758 3762 16
3758 3763 32
3759 3526 1315
3759 3768 36
3759 3770 1557
3760 3755 22
3760 3761 12
3760 3881 1959
3761 3757 22
3761 3760 12
3761 3817 1151
3762 3593 1047
3762 3758 16
3762 3765 33
3762 3838 576
3763 3758 32
3763 3654 601
3763 3764 12
3763 3765 13
3764 3763 12
3764 3791 112
3765 3762 33
3765 3763 13
3765 3766 9
3765 3837 532
3766 3765 9
3766 3797 114
3767 3707 780
3767 3785 343
3768 3759 36
3769 3713 397
3769 3822 611
3769 3848 813
3770 3544 1111
3770 3759 1557
3770 4379 4023
3771 3731 246
3771 3772 285
3771 3773 22
3771 3775 13
3772 3771 285
3772 8116 32
3773 3723 285
3773 3771 22
3773 3777 11
3773 3883 2320
3774 3727 780
3774 3793 341
3775 3771 13
3775 3776 291
3775 3777 20
3776 3775 291
3776 8119 30
3777 3773 11
3777 3775 20
3777 3884 2324
3778 3510 1510
3778 3658 969
3778 3827 380
3779 3752 747
3779 3780 228
3779 3788 350
3779 3810 156
3780 3779 228
3780 3734 46
3781 3782 67
3781 3730 262
3781 3908 864
3782 3781 67
3783 3752 146
3783 3835 29
3784 3785 111
3784 3749 91
3785 3784 111
3785 3767 343
3785 3788 38
3785 3793 28
3786 3744 400
3786 3787 231
3786 3790 40
3786 3799 62
3787 3786 231
3787 3800 199
3787 3803 214
3788 3789 137
3788 3785 38
3788 3779 350
3788 3795 26
3788 3810 273
3789 3788 137
3789 3750 78
3790 3786 40
3790 3798 31
3790 3800 220
3790 3816 821
3791 3792 798
3791 3764 112
3792 3791 798
3792 3695 460
3792 3794 342
3793 3785 28
3793 3774 341
3793 3795 39
3793 3867 489
3794 3792 342
3794 3692 493
3794 3748 1367
3795 3788 26
3795 3793 39
3795 3815 269
3795 3841 380
3796 3797 942
3796 3756 1582
3796 3890 589
3797 3796 942
3797 3766 114
3798 3790 31
3798 3799 91
3798 3812 93
3799 3786 62
3799 3798 91
3799 3802 20
3800 3790 220
3800 3787 199
3800 3816 123
3801 3678 596
3801 3699 3117
3801 4370 4234
3802 3744 382
3802 3799 20
3802 3805 28
3802 3806 25
3803 3787 214
3803 3807 109
3803 3821 158
3804 3696 601
3805 3802 28
3805 3811 26
3805 3858 516
3805 3858 610
3806 3743 406
3806 3802 25
3806 3811 28
3806 3813 36
3807 3757 1153
3807 3803 109
3807 3817 53
3808 3809 27
3809 3808 27
3809 3831 304
3809 3938 1641
3810 3779 156
3810 3788 273
3810 3815 23
3810 3834 797
3811 3806 28
3811 3805 26
3811 3826 144
3811 3864 513
3812 3798 93
3812 3847 419
3813 3806 36
3813 3819 50
3813 3826 140
3814 3685 1523
3814 3724 980
3814 3818 26
3814 3882 1051
3815 3810 23
3815 3795 269
3815 3832 631
3815 3874 477
3816 3800 123
3816 3790 821
3817 3807 53
3817 3761 1151
3817 3821 66
3818 3814 26
3818 3728 1001
3818 3846 586
3818 3915 626
3819 3743 416
3819 3813 50
3819 3820 15
3819 3830 178
3820 3819 15
3820 3825 112
3820 3844 306
3821 3803 158
3821 3817 66
3821 3847 270
3822 3769 611
3822 3823 446
3822 3824 2
3822 3848 255
3823 3822 446
3824 3822 2
3825 3693 938
3825 3820 112
3825 3860 295
3826 3813 140
3826 3811 144
3826 3828 45
3827 3778 380
3827 3730 984
3827 3935 892
3828 3826 45
3828 3855 227
3829 3657 905
3830 3819 178
3830 3833 71
3831 3809 304
3832 3815 631
3832 3840 176
3832 3850 110
3833 3830 71
3833 3844 66
3833 3859 150
3834 3835 345
3834 3810 797
3834 3840 25
3834 3880 719
3835 3834 345
3835 3783 29
3836 3837 94
3836 3676 946
3837 3836 94
3837 3765 532
3837 4273 2875
3838 3762 576
3838 3839 96
3838 4279 2877
3839 3838 96
3839 3675 959
3840 3834 25
3840 3832 176
3840 3862 314
3840 3909 374
3841 3795 380
3841 3849 34
3841 3854 62
3842 3843 643
3842 3845 17
3843 3842 643
3844 3820 306
3844 3833 66
3844 3860 107
3845 3688 957
3845 3842 17
3845 3895 552
3845 4008 1259
3846 3818 586
3846 3886 460
3846 3921 437
3847 3812 419
3847 3821 270
3847 3861 80
3847 3905 332
3848 3769 813
3848 3822 255
3848 3926 720
3849 3841 34
3849 3854 55
3849 3874 193
3850 3832 110
3850 3851 354
3850 3929 441
3851 3850 354
3852 3853 1142
3853 3852 1142
3854 3849 55
3854 3841 62
3854 3869 49
3855 3828 227
3855 3912 216
3856 3728 1135
3856 3857 412
3856 3876 192
3856 3923 370
3857 3856 412
3858 3805 516
3858 3805 610
3858 3861 12
3858 3864 24
3859 3833 150
3859 3865 182
3859 3875 103
3860 3825 295
3860 3844 107
3860 3863 14
3860 3865 23
3861 3858 12
3861 3847 80
3861 3868 24
3861 3905 312
3862 3840 314
3862 3871 55
3862 3873 55
3863 3694 1236
3863 3860 14
3863 3872 23
3864 3811 513
3864 3858 24
3864 3868 14
3864 3875 153
3865 3860 23
3865 3859 182
3865 3872 15
3865 4017 1158
3866 3867 113
3866 3720 761
3867 3866 113
3867 3793 489
3867 3910 306
3868 3864 14
3868 3861 24
3868 3875 170
3868 3911 340
3869 3854 49
3869 3870 109
3869 3914 308
3870 3869 109
3870 3733 765
3870 8120 765
3871 3862 55
3871 3873 40
3871 3885 344
3872 3863 23
3872 3865 15
3872 3967 1061
3872 4016 1144
3873 3871 40
3873 3862 55
3873 3906 209
3874 3815 477
3874 3849 193
3874 3892 231
3874 3974 743
3875 3859 103
3875 3864 153
3875 3868 170
3876 3856 192
3877 3878 2005
3878 3877 2005
3879 3755 1979
3879 3881 25
3879 3408 4514
3880 3834 719
3880 3885 24
3880 3893 290
3881 3760 1959
3881 3879 25
3881 4007 2468
3882 3814 1051
3882 3886 24
3882 3908 383
3883 3773 2320
3883 3924 126
3884 3777 2324
3884 3931 119
3885 3880 24
3885 3871 344
3885 3907 406
3885 3916 199
3886 3882 24
3886 3846 460
3886 3913 376
3886 3970 558
3887 3888 232
3888 3887 232
3888 3889 665
3888 3910 521
3888 3922 194
3889 3888 665
3890 3796 589
3891 3664 1213
3892 3874 231
3892 3901 65
3892 3946 418
3893 3880 290
3893 3903 122
3894 3895 1298
3894 8117 135
3895 3894 1298
3895 3845 552
3895 3896 12
3895 4008 1294
3896 3897 1301
3896 3895 12
3896 3972 752
3896 4014 1306
3897 3896 1301
3897 8119 137
3898 3899 978
3899 3898 978
3899 3926 264
3899 3934 1486
3900 3435 3482
3900 4180 6157
3900 4835 6670
3901 3892 65
3901 3904 44
3901 3945 371
3902 3903 303
3903 3902 303
3903 3893 122
3903 3907 25
3903 3951 687
3904 3901 44
3904 3925 184
3904 3947 332
3905 3861 312
3905 3847 332
3905 4007 885
3906 3873 209
3906 3909 339
3906 3916 301
3906 3948 280
3907 3903 25
3907 3885 406
3907 3943 259
3907 3957 685
3908 3781 864
3908 3882 383
3908 3913 23
3908 3962 488
3909 3906 339
3909 3840 374
3909 3933 159
3910 3867 306
3910 3888 521
3910 3914 25
3910 3959 357
3911 3912 293
3911 3868 340
3911 4011 847
3912 3911 293
3912 3855 216
3913 3908 23
3913 3886 376
3913 3966 475
3914 3869 308
3914 3910 25
3914 3963 360
3915 3818 626
3915 3921 381
3915 3987 485
3916 3885 199
3916 3906 301
3916 3943 426
3916 3956 319
3917 3918 401
3918 3917 401
3918 3919 496
3918 3932 124
3919 3918 496
3920 3632 1962
3921 3846 437
3921 3915 381
3921 3940 253
3921 3964 334
3922 3888 194
3923 3856 370
3923 3924 531
3923 3927 105
3924 3923 531
3924 3883 126
3925 3904 184
3926 3848 720
3926 3899 264
3926 3928 116
3927 3923 105
3927 3988 579
3928 3751 1749
3928 3926 116
3928 3937 101
3929 3850 441
3929 3933 174
3929 3946 369
3929 3976 351
3930 3931 634
3930 4269 2201
3931 3930 634
3931 3884 119
3932 3918 124
3932 3509 3151
3932 3954 351
3933 3909 159
3933 3929 174
3933 3944 204
3933 3952 140
3934 3899 1486
3935 3827 892
3935 3962 348
3935 3989 921
3935 3990 398
3936 3546 2262
3937 3928 101
3937 4009 3364
3937 4308 2433
3938 3809 1641
3938 3939 54
3938 3941 8
3938 4094 1098
3939 3938 54
3940 3921 253
3940 3949 57
3940 3970 273
3941 3938 8
3941 3942 52
3941 4097 1097
3942 3941 52
3943 3907 259
3943 3916 426
3943 3986 345
3944 3933 204
3944 3948 126
3945 3901 371
3945 3946 89
3945 3947 73
3946 3929 369
3946 3892 418
3946 3945 89
3946 3976 372
3947 3945 73
3947 3904 332
3947 4002 529
3948 3906 280
3948 3944 126
3948 3956 220
3949 3940 57
3949 3953 42
3949 3958 113
3950 3681 1556
3950 3951 367
3950 3996 372
3951 3903 687
3951 3957 26
3951 3950 367
3952 3933 140
3953 3949 42
3953 3961 38
3953 3969 110
3954 3932 351
3954 3501 3114
3954 3955 15
3954 4179 1420
3955 3954 15
3955 3499 3127
3955 3960 52
3955 4182 1424
3956 3916 319
3956 3948 220
3956 3986 379
3956 4026 577
3957 3951 26
3957 3907 685
3957 3996 363
3957 4013 728
3958 3949 113
3959 3910 357
3959 3963 26
3959 4010 518
3960 3955 52
3960 3497 3142
3960 3998 2098
3961 3953 38
3961 3968 36
3961 3985 249
3962 3935 348
3962 3908 488
3962 3966 25
3962 3990 238
3963 3914 360
3963 3959 26
3963 3974 144
3963 3991 220
3964 3921 334
3964 3965 80
3964 3981 240
3965 3964 80
3966 3962 25
3966 3913 475
3966 3977 230
3966 3993 256
3967 3872 1061
3967 4010 783
3967 4286 2385
3968 3961 36
3968 3971 31
3968 3973 73
3969 3953 110
3970 3886 558
3970 3940 273
3970 3979 99
3971 3968 31
3971 3975 33
3971 3992 236
3972 3896 752
3973 3968 73
3974 3874 743
3974 3963 144
3974 3995 197
3974 4002 460
3975 3971 33
3975 3981 45
3975 3984 80
3976 3929 351
3976 3946 372
3976 4033 545
3977 3966 230
3977 3978 498
3977 3980 25
3978 3977 498
3979 3970 99
3979 3985 42
3979 3994 178
3980 3977 25
3980 4000 343
3980 4019 453
3981 3975 45
3981 3964 240
3981 4003 281
3982 3983 249
3982 3988 903
3982 4003 713
3982 4005 271
3983 3982 249
3984 3975 80
3985 3979 42
3985 3961 249
3985 3992 69
3986 3943 345
3986 3956 379
3986 4013 427
3986 4030 611
3987 3915 485
3988 3982 903
3988 3927 579
3988 4071 842
3989 3935 921
3989 3998 247
3989 4021 340
3990 3935 398
3990 3962 238
3990 3993 27
3990 4083 763
3991 3963 220
3991 3997 141
3991 4012 294
3992 3985 69
3992 3971 236
3992 3999 83
3993 3990 27
3993 3966 256
3993 4019 275
3993 4047 556
3994 3979 178
3994 4004 202
3994 4006 205
3995 3974 197
3995 3997 8
3995 4001 186
3996 3950 372
3996 3957 363
3996 4208 1330
3997 3995 8
3997 3991 141
3997 4023 281
3998 3989 247
3998 3960 2098
3998 4034 464
3999 3992 83
3999 4004 132
3999 4020 274
4000 3980 343
4000 4006 176
4000 4018 273
4001 3995 186
4002 3947 529
4002 3974 460
4002 4028 344
4002 4043 413
4003 3981 281
4003 3982 713
4003 4020 212
4004 3994 202
4004 3999 132
4004 4022 210
4004 4027 280
4005 3982 271
4005 4025 156
4005 4071 536
4006 4000 176
4006 3994 205
4006 4022 191
4007 3905 885
4007 3881 2468
4007 4011 22
4007 4610 3233
4008 3895 1294
4008 3845 1259
4008 4014 19
4008 4036 406
4009 3937 3364
4010 3959 518
4010 3967 783
4010 4012 23
4010 4220 1096
4011 3911 847
4011 4007 22
4011 4017 551
4011 4619 3317
4012 3991 294
4012 4010 23
4012 4023 182
4012 4048 279
4013 3957 728
4013 3986 427
4013 4140 821
4014 3896 1306
4014 4008 19
4014 4039 400
4014 4637 3536
4015 4016 93
4016 4015 93
4016 3872 1144
4016 4017 25
4016 4245 1247
4017 4016 25
4017 3865 1158
4017 4011 551
4017 4243 1237
4018 4000 273
4018 4031 155
4018 4060 353
4019 3993 275
4019 3980 453
4019 4029 116
4019 4047 494
4020 3999 274
4020 4003 212
4020 4027 69
4021 3989 340
4021 4034 159
4021 4037 241
4022 4006 191
4022 4004 210
4022 4032 153
4023 3997 281
4023 4012 182
4023 4043 359
4023 4106 392
4024 4025 422
4025 4024 422
4025 4005 156
4025 4075 328
4026 3956 577
4027 4004 280
4027 4020 69
4027 4035 153
4027 4052 194
4028 4002 344
4028 4033 566
4028 4070 572
4028 4092 484
4029 4019 116
4029 4056 121
4029 4066 424
4030 3986 611
4030 4065 177
4030 4087 238
4031 4018 155
4031 4054 89
4031 4076 342
4032 4022 153
4032 4038 39
4032 4044 53
4033 3976 545
4033 4028 566
4033 4070 132
4034 3998 464
4034 4021 159
4034 4072 241
4034 4200 675
4035 4027 153
4035 4080 261
4035 4099 233
4036 4008 406
4036 4109 643
4037 4021 241
4037 4072 151
4037 4083 297
4038 4032 39
4038 4046 36
4038 4053 52
4039 4014 400
4039 4123 692
4040 4041 1308
4040 4042 579
4040 4166 592
4040 4236 1156
4041 4040 1308
4042 4040 579
4043 4002 413
4043 4023 359
4043 4092 208
4044 4045 159
4044 4032 53
4044 4053 42
4044 4068 112
4045 4044 159
4046 4038 36
4046 4051 28
4046 4057 51
4047 3993 556
4047 4019 494
4047 4058 51
4048 4012 279
4048 4106 282
4048 4221 821
4049 4050 116
4049 4075 163
4049 4080 144
4050 4049 116
4051 4046 28
4051 4052 44
4051 4061 39
4052 4051 44
4052 4027 194
4052 4059 35
4053 4044 42
4053 4038 52
4053 4057 37
4053 4073 112
4054 4031 89
4054 4055 62
4054 4067 62
4054 4104 342
4055 4054 62
4056 4029 121
4056 4060 16
4056 4101 462
4057 4053 37
4057 4046 51
4057 4081 110
4058 4047 51
4058 4069 49
4058 4101 210
4059 4052 35
4059 4061 40
4059 4074 101
4060 4056 16
4060 4018 353
4060 4076 76
4060 4126 306
4061 4051 39
4061 4059 40
4061 4090 134
4062 4063 1376
4063 4062 1376
4063 4064 236
4063 4086 141
4063 4098 160
4064 4063 236
4065 4030 177
4065 4100 184
4066 4029 424
4067 4054 62
4067 4082 67
4067 4122 340
4068 4044 112
4068 4073 43
4069 4058 49
4069 4128 245
4069 4150 403
4070 4033 132
4070 4028 572
4070 4164 330
4071 4005 536
4071 3988 842
4071 4145 427
4072 4034 241
4072 4037 151
4072 4125 287
4072 4222 675
4073 4068 43
4073 4053 112
4073 4081 39
4073 4102 110
4074 4059 101
4074 4091 89
4074 4095 83
4075 4049 163
4075 4025 328
4075 4111 145
4075 4145 360
4076 4060 76
4076 4031 342
4076 4104 91
4077 4078 103
4077 8122 526
4078 4077 103
4078 4079 429
4078 4089 98
4079 4078 429
4079 8123 467
4080 4035 261
4080 4049 144
4080 4111 167
4080 4137 222
4081 4073 39
4081 4057 110
4081 4090 49
4081 4107 110
4082 4067 67
4082 4110 176
4082 4155 248
4083 4037 297
4083 3990 763
4083 4125 151
4084 4085 86
4084 4088 339
4084 4093 96
4085 4084 86
4085 8124 477
4086 4063 141
4087 4030 238
4087 4100 57
4087 4188 616
4088 4084 339
4088 8121 547
4089 4078 98
4089 4193 676
4090 4081 49
4090 4061 134
4090 4120 114
4091 4074 89
4091 4096 27
4091 4112 88
4092 4028 484
4092 4043 208
4092 4191 424
4092 4217 552
4093 4084 96
4093 4201 688
4094 3938 1098
4094 4097 8
4094 4768 4275
4095 4074 83
4095 4105 28
4095 4112 84
4096 4091 27
4096 4099 8
4096 4108 38
4097 4094 8
4097 3941 1097
4097 4133 1300
4097 4766 4265
4098 4063 160
4099 4096 8
4099 4035 233
4099 4127 131
4100 4065 184
4100 4087 57
4100 4140 167
4101 4058 210
4101 4056 462
4101 4143 201
4102 4103 24
4102 4073 110
4102 4107 39
4102 4131 111
4103 4102 24
4104 4076 91
4104 4054 342
4104 4122 61
4105 4095 28
4105 4117 53
4105 4119 59
4106 4023 392
4106 4048 282
4106 4191 442
4106 4258 728
4107 4102 39
4107 4081 110
4107 4120 51
4107 4138 112
4108 4096 38
4108 4121 33
4108 4134 127
4109 4036 643
4109 4113 59
4109 4114 91
4110 4082 176
4111 4080 167
4111 4075 145
4111 4165 229
4111 4173 314
4112 4095 84
4112 4091 88
4112 4121 55
4112 4124 26
4113 4109 59
4113 4169 65
4114 4109 91
4114 4115 9
4114 4170 778
4114 4177 245
4115 4114 9
4115 4116 237
4115 4130 270
4115 4171 228
4116 4115 237
4117 4105 53
4117 4119 57
4117 4124 46
4117 4139 62
4118 4119 25
4119 4118 25
4119 4105 59
4119 4117 57
4120 4107 51
4120 4090 114
4120 4141 109
4121 4112 55
4121 4108 33
4121 4129 26
4122 4104 61
4122 4067 340
4122 4216 400
4123 4039 692
4123 4154 70
4124 4117 46
4124 4112 26
4124 4129 66
4125 4072 287
4125 4083 151
4125 4128 23
4125 4244 670
4126 4060 306
4126 4143 112
4126 4189 244
4127 4099 131
4127 4134 33
4127 4137 51
4128 4125 23
4128 4069 245
4128 4186 378
4128 4246 657
4129 4124 66
4129 4121 26
4129 4144 65
4130 4115 270
4131 4132 21
4131 4102 111
4131 4138 38
4131 4151 113
4132 4131 21
4133 4097 1300
4133 4136 174
4134 4108 127
4134 4127 33
4134 4148 102
4134 4159 126
4135 4136 376
4135 4162 323
4136 4135 376
4136 4133 174
4137 4127 51
4137 4080 222
4137 4165 169
4138 4131 38
4138 4107 112
4138 4141 51
4138 4157 113
4139 4117 62
4139 4142 27
4139 4144 101
4140 4013 821
4140 4100 167
4140 4234 595
4141 4138 51
4141 4120 109
4141 4146 13
4142 4139 27
4142 4147 22
4142 4149 96
4143 4101 201
4143 4126 112
4143 4150 46
4144 4139 101
4144 4129 65
4144 4149 24
4145 4075 360
4145 4071 427
4145 4173 148
4146 4141 13
4146 4167 102
4146 4172 99
4147 4142 22
4147 4152 21
4147 4156 91
4148 4134 102
4148 4158 44
4148 4174 118
4149 4142 96
4149 4144 24
4149 4156 30
4150 4069 403
4150 4143 46
4150 4186 160
4150 4198 204
4151 4131 113
4151 4157 37
4151 4184 110
4152 4147 21
4152 4160 21
4152 4160 104
4153 4154 395
4153 4171 577
4153 4231 1079
4154 4153 395
4154 4123 70
4155 4082 248
4155 4184 114
4155 4202 138
4156 4147 91
4156 4149 30
4156 4205 168
4157 4151 37
4157 4138 113
4157 4172 53
4157 4187 108
4158 4148 44
4158 4183 81
4158 4185 114
4159 4134 126
4160 4152 21
4160 4152 104
4160 4181 45
4161 4162 217
4161 4163 118
4161 4863 3693
4162 4161 217
4162 4135 323
4163 4161 118
4164 4070 330
4164 4188 177
4164 4217 644
4164 4283 640
4165 4137 169
4165 4111 229
4165 4174 22
4165 4195 155
4166 4040 592
4167 4146 102
4168 3716 2705
4169 4170 618
4169 4113 65
4170 4169 618
4170 4114 778
4170 4230 858
4171 4115 228
4171 4153 577
4171 4196 96
4172 4157 53
4172 4146 99
4172 4197 108
4173 4111 314
4173 4145 148
4173 4206 240
4174 4148 118
4174 4165 22
4174 4185 43
4175 4176 587
4175 4288 691
4176 4175 587
4177 4178 328
4177 4114 245
4177 4192 79
4178 4177 328
4179 3954 1420
4179 4253 62
4180 3900 6157
4181 4160 45
4182 3955 1424
4182 4274 63
4183 4158 81
4184 4155 114
4184 4151 110
4184 4187 39
4184 4204 104
4185 4158 114
4185 4174 43
4185 4211 172
4186 4128 378
4186 4150 160
4186 4215 238
4186 4259 514
4187 4184 39
4187 4157 108
4187 4197 53
4187 4207 106
4188 4087 616
4188 4164 177
4188 4234 300
4189 4126 244
4189 4190 45
4189 4198 51
4189 4225 295
4190 4189 45
4191 4092 424
4191 4106 442
4191 4250 519
4191 4272 654
4192 4177 79
4192 4300 759
4193 4194 623
4193 4089 676
4193 4201 17
4194 4193 623
4195 4165 155
4195 4206 83
4195 4267 602
4196 4171 96
4196 4301 756
4197 4187 53
4197 4172 108
4197 4210 107
4198 4150 204
4198 4189 51
4198 4203 21
4199 4200 743
4200 4199 743
4200 4034 675
4200 4222 241
4200 4249 361
4201 4193 17
4201 4093 688
4201 4396 1294
4202 4155 138
4202 4204 21
4203 4198 21
4203 4215 90
4203 4233 318
4204 4202 21
4204 4184 104
4204 4207 41
4205 4156 168
4205 4228 160
4206 4195 83
4206 4173 240
4206 4267 537
4206 4271 742
4207 4204 41
4207 4187 106
4207 4210 53
4208 3996 1330
4208 4276 39
4209 3226 6499
4209 4214 32
4209 4486 2082
4209 4626 4270
4210 4207 53
4210 4197 107
4210 4237 188
4211 4185 172
4212 4213 4031
4213 4212 4031
4214 3419 5313
4214 4209 32
4214 4426 1909
4214 4494 2074
4215 4186 238
4215 4203 90
4215 4232 162
4215 4264 622
4216 4122 400
4216 4225 206
4216 4237 196
4217 4164 644
4217 4092 552
4217 4250 264
4217 4307 676
4218 4219 338
4218 4313 117
4219 4218 338
4219 4238 137
4220 4010 1096
4220 4221 21
4220 4340 970
4221 4048 821
4221 4220 21
4221 4258 437
4221 4342 972
4222 4200 241
4222 4072 675
4222 4244 271
4222 4265 360
4223 4224 332
4223 4241 140
4224 4223 332
4224 4226 117
4225 4189 295
4225 4216 206
4225 4233 63
4226 4227 35
4226 4224 117
4227 4226 35
4227 4311 1609
4227 4341 716
4228 4205 160
4228 4229 172
4228 4260 279
4229 4228 172
4230 4170 858
4230 4390 340
4231 4153 1079
4231 4400 341
4232 4215 162
4233 4203 318
4233 4225 63
4233 4235 8
4234 4140 595
4234 4188 300
4234 4247 120
4234 4283 491
4235 4233 8
4236 4040 1156
4237 4216 196
4237 4210 188
4237 4242 122
4237 4264 252
4238 4239 2472
4238 4219 137
4239 4238 2472
4239 4287 612
4240 4241 2456
4240 4304 625
4241 4240 2456
4241 4223 140
4242 4237 122
4242 4251 225
4242 4263 153
4243 4017 1237
4243 4245 20
4244 4222 271
4244 4125 670
4244 4246 26
4244 4294 364
4245 4016 1247
4245 4243 20
4245 4286 643
4246 4244 26
4246 4128 657
4246 4259 414
4246 4270 212
4247 4234 120
4247 4257 62
4247 4277 275
4247 4280 271
4248 4249 656
4249 4248 656
4249 4200 361
4249 4265 242
4250 4217 264
4250 4191 519
4250 4310 528
4250 4335 656
4251 4242 225
4251 4254 52
4251 4278 169
4252 4253 551
4252 4281 558
4252 4295 428
4253 4252 551
4253 4179 62
4254 4251 52
4254 4261 145
4254 4266 117
4255 4256 408
4256 4255 408
4257 4247 62
4257 4320 529
4258 4106 728
4258 4221 437
4258 4272 276
4259 4246 414
4259 4186 514
4259 4289 191
4259 4344 644
4260 4228 279
4260 4262 130
4260 4285 221
4261 4254 145
4261 4262 15
4261 4268 111
4262 4261 15
4262 4260 130
4262 4290 217
4263 4242 153
4263 4284 177
4264 4215 622
4264 4237 252
4264 4284 279
4264 4351 604
4265 4249 242
4265 4222 360
4265 4294 272
4266 4254 117
4266 4268 14
4266 4278 83
4267 4195 602
4267 4206 537
4267 4285 127
4268 4266 14
4268 4261 111
4268 4306 241
4269 3930 2201
4270 4246 212
4270 4289 500
4270 4298 163
4271 4206 742
4271 4434 1052
4272 4191 654
4272 4258 276
4272 4282 89
4272 4374 797
4273 3837 2875
4273 4422 193
4274 4275 784
4274 4182 63
4275 4274 784
4275 4330 591
4275 4356 582
4276 4277 644
4276 4208 39
4277 4276 644
4277 4247 275
4277 4280 26
4278 4251 169
4278 4266 83
4278 4299 150
4279 3838 2877
4279 4420 209
4280 4277 26
4280 4247 271
4280 4357 747
4281 4252 558
4281 4359 354
4282 4272 89
4282 4292 122
4282 4325 421
4283 4234 491
4283 4164 640
4283 4307 229
4283 4343 355
4284 4264 279
4284 4263 177
4284 4299 168
4284 4362 456
4285 4260 221
4285 4267 127
4285 4297 61
4286 3967 2385
4286 4245 643
4286 4322 470
4287 4288 178
4287 4239 612
4288 4287 178
4288 4175 691
4288 4300 390
4289 4270 500
4289 4259 191
4289 4327 267
4290 4262 217
4290 4291 18
4290 4293 53
4291 4290 18
4291 4297 159
4291 4302 126
4292 4282 122
4292 4310 323
4292 4325 188
4293 4290 53
4294 4265 272
4294 4244 364
4294 4298 23
4294 4326 222
4295 4296 421
4295 4252 428
4295 4379 811
4296 4295 421
4296 4355 354
4297 4291 159
4297 4285 61
4297 4302 88
4298 4294 23
4298 4270 163
4298 4323 201
4299 4284 168
4299 4278 150
4299 4306 131
4299 4316 158
4300 4288 390
4300 4192 759
4300 4301 15
4300 4303 21
4301 4300 15
4301 4196 756
4301 4305 22
4301 4333 933
4302 4291 126
4302 4297 88
4302 4317 111
4303 4304 564
4303 4300 21
4303 4305 17
4303 4347 246
4304 4303 564
4304 4240 625
4305 4303 17
4305 4301 22
4305 4339 932
4305 4348 247
4306 4299 131
4306 4268 241
4306 4317 242
4307 4283 229
4307 4217 676
4307 4335 230
4307 4357 320
4308 3937 2433
4308 4309 16
4308 4314 20
4308 4403 6157
4309 3756 4283
4309 4308 16
4309 4315 20
4309 4520 4450
4310 4250 528
4310 4292 323
4310 4336 265
4311 4227 1609
4311 4312 31
4311 4341 1245
4311 4508 1166
4312 4313 1677
4312 4311 31
4312 4318 1505
4312 4509 1167
4313 4312 1677
4313 4218 117
4314 4308 20
4314 4315 16
4314 4406 6477
4314 4439 836
4315 4309 20
4315 4314 16
4315 4444 844
4315 4524 4458
4316 4299 158
4317 4306 242
4317 4302 111
4317 4371 285
4318 4312 1505
4319 4320 18
4319 4321 19
4319 4321 66
4320 4319 18
4320 4257 529
4321 4319 19
4321 4319 66
4322 4286 470
4322 4338 118
4322 4340 261
4323 4298 201
4323 4324 83
4323 4326 31
4323 4405 596
4324 4323 83
4324 4327 575
4324 4423 672
4325 4292 188
4325 4282 421
4325 4365 511
4326 4294 222
4326 4323 31
4326 4337 378
4326 4598 1636
4327 4324 575
4327 4289 267
4327 4331 123
4327 4366 162
4328 4329 51
4329 4328 51
4329 4332 47
4329 4384 785
4330 4275 591
4330 4358 310
4330 4380 414
4331 4327 123
4331 4344 331
4331 4375 200
4332 4329 47
4333 4301 933
4333 4334 968
4333 4339 20
4333 4389 499
4334 4333 968
4335 4307 230
4335 4250 656
4335 4367 241
4336 4310 265
4336 4367 306
4336 4398 565
4337 4326 378
4338 4322 118
4338 4368 209
4339 4305 932
4339 4333 20
4339 4386 300
4339 4393 492
4340 4220 970
4340 4322 261
4340 4342 19
4340 4368 176
4341 4311 1245
4341 4227 716
4341 4532 1175
4342 4221 972
4342 4340 19
4342 4416 994
4342 4445 920
4343 4283 355
4344 4331 331
4344 4259 644
4344 4352 177
4345 4346 1531
4345 4369 225
4345 4604 1589
4346 4345 1531
4346 4410 1250
4347 4303 246
4347 4348 15
4347 4443 617
4348 4347 15
4348 4305 247
4348 4397 644
4348 4461 761
4349 4350 1080
4350 4349 1080
4350 4407 537
4350 4409 555
4351 4264 604
4351 4354 53
4351 4360 39
4352 4344 177
4352 4353 330
4352 4354 76
4353 4352 330
4354 4352 76
4354 4351 53
4354 4361 19
4355 4356 98
4355 4296 354
4356 4355 98
4356 4275 582
4356 4402 461
4357 4280 747
4357 4307 320
4357 4370 81
4357 4502 1314
4358 4330 310
4358 4359 118
4358 4378 182
4359 4358 118
4359 4281 354
4360 4351 39
4360 4363 20
4360 4362 429
4361 4354 19
4361 4364 39
4361 4408 489
4362 4284 456
4362 4360 429
4362 4371 628
4363 4360 20
4363 4364 6
4364 4363 6
4364 4361 39
4364 4535 1127
4365 4325 511
4366 4327 162
4366 4375 126
4366 4395 226
4367 4335 241
4367 4336 306
4367 4417 652
4368 4340 176
4368 4338 209
4368 4703 2306
4369 4345 225
4369 4376 85
4369 4377 307
4370 3801 4234
4370 4357 81
4370 4387 144
4370 4518 1282
4371 4362 628
4371 4317 285
4371 4401 218
4372 4373 12
4372 4376 107
4372 4385 118
4373 4372 12
4374 4272 797
4374 4398 355
4374 4398 481
4375 4366 126
4375 4331 200
4375 4408 393
4376 4372 107
4376 4369 85
4376 4383 39
4377 4369 307
4378 4358 182
4378 4402 266
4379 3770 4023
4379 4295 811
4379 4380 16
4379 5365 5839
4380 4379 16
4380 4330 414
4380 4402 240
4380 5455 6187
4381 4382 498
4381 4388 205
4382 4381 498
4382 4384 7
4383 4376 39
4383 4385 24
4383 4415 620
4384 4329 785
4384 4382 7
4384 4388 225
4384 4436 435
4385 4372 118
4385 4383 24
4385 4392 80
4386 4339 300
4386 4475 1021
4387 4370 144
4387 4756 765
4388 4384 225
4388 4381 205
4388 4394 165
4388 4451 513
4389 4333 499
4389 4465 99
4390 4391 1008
4390 4230 340
4391 4390 1008
4391 4424 234
4391 4503 889
4392 4385 80
4393 4339 492
4393 4474 96
4394 4388 165
4395 4366 226
4395 4437 385
4396 4201 1294
4396 4877 2345
4396 4878 2350
4397 4348 644
4398 4336 565
4398 4374 355
4398 4374 481
4398 4417 176
4399 4400 1066
4399 4425 174
4399 4501 717
4400 4399 1066
4400 4231 341
4401 4371 218
4401 4411 84
4401 4448 427
4402 4380 240
4402 4378 266
4402 4356 461
4402 4426 162
4403 4404 330
4403 4404 527
4403 4308 6157
4404 4403 330
4404 4403 527
4404 4406 21
4404 4540 2297
4405 4323 596
4405 4423 244
4405 4464 395
4406 4404 21
4406 4314 6477
4406 4544 2291
4406 4571 909
4407 4350 537
4407 4418 37
4408 4375 393
4408 4361 489
4408 4428 142
4408 4437 215
4409 4350 555
4409 4430 299
4409 4503 1044
4410 4346 1250
4411 4412 430
4411 4401 84
4411 4429 110
4412 4411 430
4413 4414 1080
4414 4413 1080
4415 4383 620
4415 4427 100
4415 4427 112
4416 4342 994
4417 4367 652
4417 4398 176
4417 4446 290
4417 4456 330
4418 4419 175
4418 4407 37
4419 4418 175
4419 4420 675
4419 4421 16
4419 4462 303
4420 4419 675
4420 4279 209
4421 4419 16
4421 4422 704
4421 4435 87
4422 4421 704
4422 4273 193
4423 4405 244
4423 4324 672
4423 4438 296
4423 4458 274
4424 4391 234
4424 8128 1702
4425 4399 174
4425 8134 1587
4426 4402 162
4426 4214 1909
4426 4609 1040
4427 4415 100
4427 4415 112
4427 4441 126
4428 4408 142
4429 4411 110
4429 4463 288
4429 4489 439
4430 4409 299
4430 4431 325
4430 4493 670
4431 4430 325
4432 4433 66
4432 4452 215
4432 4463 279
4433 4432 66
4434 4271 1052
4434 4457 372
4434 4471 234
4434 4492 892
4434 4504 925
4435 4421 87
4435 4481 346
4435 4526 549
4436 4384 435
4437 4395 385
4437 4408 215
4437 4455 218
4437 4599 1093
4438 4423 296
4438 4440 52
4438 4458 393
4439 4314 836
4439 4444 17
4439 4519 508
4440 4438 52
4441 4427 126
4441 4442 72
4441 4447 63
4442 4441 72
4443 4347 617
4443 4460 142
4444 4315 844
4444 4439 17
4444 4521 506
4444 4594 773
4445 4342 920
4445 4491 583
4445 4704 1562
4446 4417 290
4447 4441 63
4447 4449 45
4447 4453 56
4448 4401 427
4449 4447 45
4449 4450 109
4449 4454 45
4450 4449 109
4450 4472 176
4450 4482 328
4451 4388 513
4452 4432 215
4453 4447 56
4453 4454 47
4453 4482 543
4454 4449 45
4454 4453 47
4454 4482 190
4455 4437 218
4456 4417 330
4456 4470 1719
4456 4502 421
4456 4570 840
4457 4434 372
4457 4469 50
4457 4479 213
4458 4423 274
4458 4438 393
4458 4464 233
4458 4549 445
4459 4460 986
4460 4459 986
4460 4443 142
4460 4461 13
4460 4578 549
4461 4460 13
4461 4348 761
4461 4475 357
4461 4582 552
4462 4419 303
4462 4498 444
4462 4546 414
4463 4432 279
4463 4429 288
4463 4468 13
4464 4405 395
4464 4458 233
4464 4565 521
4465 4466 705
4465 4389 99
4466 4465 705
4466 4467 1084
4466 4473 20
4466 4538 989
4467 4466 1084
4468 4463 13
4468 4489 185
4468 4523 372
4469 4457 50
4469 4488 212
4469 4495 164
4470 4456 1719
4471 4434 234
4471 4495 284
4471 4590 516
4472 4450 176
4473 4474 710
4473 4466 20
4473 4506 250
4473 4548 1004
4474 4473 710
4474 4393 96
4475 4386 1021
4475 4461 357
4475 4525 532
4476 4477 263
4476 4478 632
4476 4499 309
4476 4525 299
4477 4476 263
4478 4476 632
4479 4457 213
4479 4488 43
4479 4497 173
4480 4481 75
4480 4547 112
4481 4480 75
4481 4435 346
4481 4485 90
4482 4450 328
4482 4454 190
4482 4453 543
4483 4484 87
4483 4490 71
4483 4526 360
4484 4483 87
4484 4498 114
4485 4481 90
4485 4516 211
4485 8125 211
4486 4209 2082
4486 4487 431
4486 4494 56
4486 4632 1684
4487 4486 431
4488 4479 43
4488 4469 212
4488 4500 174
4488 4510 161
4489 4468 185
4489 4429 439
4489 4504 181
4490 4483 71
4490 4496 72
4491 4445 583
4492 4434 892
4492 4509 1125
4492 4652 945
4493 4430 670
4494 4214 2074
4494 4486 56
4494 4602 1106
4494 4687 1359
4495 4469 164
4495 4471 284
4495 4510 209
4495 4589 422
4496 4490 72
4496 4517 133
4496 4527 214
4497 4479 173
4497 4500 42
4497 4507 163
4498 4462 444
4498 4484 114
4499 4476 309
4499 4514 113
4499 4701 1277
4500 4497 42
4500 4488 174
4500 4534 154
4501 4399 717
4501 4503 23
4501 4538 155
4502 4357 1314
4502 4456 421
4502 4581 379
4502 4518 86
4503 4501 23
4503 4391 889
4503 4409 1044
4503 4674 1139
4504 4489 181
4504 4434 925
4504 4558 448
4505 4506 710
4506 4505 710
4506 4473 250
4506 4551 444
4506 4585 310
4507 4497 163
4507 4542 277
4507 4554 283
4508 4311 1166
4508 4509 22
4508 4532 1546
4508 4660 842
4509 4312 1167
4509 4508 22
4509 4492 1125
4509 4659 838
4510 4488 161
4510 4495 209
4510 4534 176
4510 4600 423
4511 4512 139
4511 4513 183
4511 4556 203
4511 4563 473
4512 4511 139
4513 4511 183
4514 4499 113
4514 4515 765
4514 4522 73
4514 4533 76
4515 4514 765
4516 4485 211
4516 8125 211
4516 8126 70
4517 4496 133
4517 8127 68
4518 4370 1282
4518 4562 254
4518 4586 361
4518 4502 86
4519 4439 508
4519 4521 16
4519 4588 643
4520 4309 4450
4520 4530 77
4521 4444 506
4521 4519 16
4521 4572 307
4521 4592 658
4522 4514 73
4523 4468 372
4523 4535 69
4523 4595 286
4524 4315 4458
4524 4536 77
4525 4475 532
4525 4476 299
4525 4651 870
4526 4435 549
4526 4483 360
4526 4629 592
4527 4496 214
4527 8128 265
4528 4529 89
4528 8125 355
4529 4528 89
4529 4530 869
4529 4531 88
4530 4529 869
4530 4520 77
4531 4529 88
4531 8126 253
4532 4341 1175
4532 4508 1546
4532 4543 244
4533 4514 76
4533 4563 209
4533 4608 436
4534 4500 154
4534 4510 176
4534 4554 79
4535 4364 1127
4535 4523 69
4535 4574 346
4535 4638 654
4536 4537 957
4536 4524 77
4537 4536 957
4537 8129 201
4538 4466 989
4538 4501 155
4538 4548 47
4539 4540 1050
4540 4539 1050
4540 4541 842
4540 4404 2297
4540 4544 23
4541 4540 842
4542 4507 277
4542 4557 79
4542 4559 174
4543 4532 244
4543 4552 132
4543 4669 965
4544 4540 23
4544 4545 862
4544 4406 2291
4544 4611 429
4545 4544 862
4546 4547 427
4546 4462 414
4546 4621 468
4547 4546 427
4547 4480 112
4548 4473 1004
4548 4538 47
4548 4672 947
4549 4458 445
4549 4550 352
4549 4565 227
4549 4599 255
4550 4549 352
4551 4506 444
4552 4543 132
4552 4553 998
4552 4555 59
4553 4552 998
4554 4507 283
4554 4534 79
4554 4603 411
4555 4552 59
4555 4560 160
4556 4511 203
4556 4585 179
4556 4617 674
4557 4542 79
4557 4564 57
4557 4595 284
4558 4504 448
4558 4575 253
4559 4542 174
4559 4584 257
4560 4561 773
4560 4566 57
4560 4555 160
4561 4560 773
4562 4518 254
4563 4533 209
4563 4511 473
4563 4573 37
4564 4557 57
4564 4597 137
4564 4631 490
4565 4464 521
4565 4549 227
4565 4616 364
4566 4560 57
4566 4567 50
4566 4591 79
4567 4566 50
4567 4568 13
4568 4567 13
4568 4569 908
4568 4587 42
4569 4568 908
4570 4456 840
4571 4406 909
4571 4614 2165
4571 4627 2946
4572 4521 307
4572 4594 220
4572 4624 397
4573 4563 37
4573 4596 271
4573 4617 421
4574 4535 346
4574 4575 243
4574 4583 32
4574 4680 1619
4575 4574 243
4575 4558 253
4576 4577 112
4576 8133 131
4577 4576 112
4577 8133 201
4578 4460 549
4578 4582 11
4578 4711 979
4579 4580 116
4579 8132 216
4580 4579 116
4580 8134 389
4581 4502 379
4581 4927 432
4582 4578 11
4582 4461 552
4582 4651 672
4582 4713 986
4583 4574 32
4583 4584 271
4583 4683 1588
4584 4583 271
4584 4559 257
4585 4556 179
4585 4506 310
4585 4607 483
4585 4641 562
4586 4518 361
4586 4897 446
4587 4568 42
4587 4593 45
4587 4604 204
4588 4519 643
4588 4592 17
4588 4627 1988
4589 4495 422
4589 4590 42
4589 4600 204
4590 4589 42
4590 4471 516
4590 4615 282
4591 4566 79
4591 4593 10
4591 4717 753
4592 4521 658
4592 4588 17
4592 4630 1984
4592 4664 596
4593 4591 10
4593 4587 45
4593 4628 510
4594 4444 773
4594 4572 220
4594 4665 575
4595 4523 286
4595 4557 284
4595 4639 420
4596 4573 271
4597 4564 137
4597 4620 346
4597 4631 352
4598 4326 1636
4598 4626 406
4598 4682 594
4599 4549 255
4599 4437 1093
4599 4616 286
4600 4510 423
4600 4589 204
4600 4603 34
4601 4602 1890
4602 4601 1890
4602 4494 1106
4602 4609 1145
4602 4962 1783
4603 4554 411
4603 4600 34
4603 4606 97
4603 4612 165
4604 4587 204
4604 4345 1589
4604 4684 702
4605 4606 530
4606 4605 530
4606 4603 97
4606 4613 247
4607 4585 483
4608 4533 436
4608 4617 356
4608 4673 405
4609 4426 1040
4609 4602 1145
4609 4792 2122
4609 4916 1296
4610 4007 3233
4610 4642 257
4610 4648 291
4611 4544 429
4611 4614 120
4611 4618 46
4611 4625 90
4612 4603 165
4613 4606 247
4614 4611 120
4614 4618 101
4614 4571 2165
4615 4590 282
4615 4652 587
4615 5139 1797
4616 4565 364
4616 4599 286
4616 4680 352
4617 4608 356
4617 4573 421
4617 4556 674
4617 4644 180
4618 4614 101
4618 4611 46
4618 4625 73
4619 4011 3317
4619 4643 166
4619 4650 188
4620 4597 346
4621 4546 468
4621 4633 98
4621 4663 749
4622 4623 1302
4623 4622 1302
4624 4572 397
4625 4618 73
4625 4611 90
4625 4829 1962
4626 4209 4270
4626 4598 406
4626 4632 114
4627 4588 1988
4627 4571 2946
4627 4630 16
4628 4593 510
4628 4640 137
4628 4655 193
4629 4526 592
4629 4633 56
4629 5100 1972
4630 4592 1984
4630 4627 16
4630 4736 517
4630 4839 7255
4631 4564 490
4631 4597 352
4631 4697 271
4632 4626 114
4632 4486 1684
4632 4692 330
4633 4621 98
4633 4629 56
4633 4634 58
4633 4649 79
4634 4633 58
4634 4649 85
4634 4663 639
4635 4636 461
4635 4708 137
4636 4635 461
4636 4689 1270
4636 4695 1135
4637 4014 3536
4637 4670 179
4637 4711 535
4638 4535 654
4638 4639 16
4638 4693 228
4639 4638 16
4639 4595 420
4639 4662 302
4640 4628 137
4640 4661 137
4640 4676 174
4641 4585 562
4641 4644 321
4641 4686 472
4642 4610 257
4642 4764 91
4643 4619 166
4643 4762 91
4644 4617 180
4644 4641 321
4644 4673 437
4645 4646 94
4646 4645 94
4646 4647 83
4646 4655 71
4646 4658 64
4647 4646 83
4648 4610 291
4648 4737 70
4649 4634 85
4649 4633 79
4649 5107 1873
4650 4619 188
4650 4742 88
4651 4582 672
4651 4525 870
4651 4701 254
4652 4615 587
4652 4492 945
4652 4681 187
4652 4747 467
4653 4654 142
4653 4659 290
4653 4677 91
4654 4653 142
4655 4646 71
4655 4628 193
4655 4676 124
4655 4679 94
4656 4657 1023
4657 4656 1023
4658 4646 64
4659 4653 290
4659 4509 838
4659 4660 19
4659 4850 747
4660 4659 19
4660 4508 842
4660 4740 1802
4660 4892 836
4661 4640 137
4661 4690 143
4661 4696 146
4662 4639 302
4663 4621 749
4663 4634 639
4663 4731 1332
4664 4592 596
4664 4665 1116
4664 4736 1674
4664 4851 782
4665 4594 575
4665 4664 1116
4665 5042 1260
4665 5100 5934
4666 4667 778
4666 4671 225
4666 4714 1423
4667 4666 778
4667 4668 5
4667 4694 614
4668 4667 5
4668 4699 171
4668 4741 619
4669 4543 965
4669 4740 372
4670 4637 179
4670 4730 804
4670 4738 357
4671 4666 225
4671 4694 259
4671 4712 150
4672 4548 947
4672 4674 12
4672 4686 426
4673 4608 405
4673 4644 437
4673 4675 26
4673 4813 865
4674 4672 12
4674 4503 1139
4674 4731 313
4675 4673 26
4675 4706 357
4676 4655 124
4676 4640 174
4676 4696 131
4677 4653 91
4677 4681 928
4677 4804 548
4678 4679 109
4679 4678 109
4679 4655 94
4679 4698 123
4679 4702 104
4680 4616 352
4680 4574 1619
4680 4682 18
4680 4683 10
4681 4652 187
4681 4677 928
4681 4688 50
4682 4598 594
4682 4680 18
4682 4683 20
4682 4685 10
4682 4685 10
4682 4780 719
4683 4682 20
4683 4680 10
4683 4583 1588
4684 4604 702
4684 4690 33
4684 4730 304
4685 4682 10
4685 4682 10
4685 4783 718
4685 5398 2496
4686 4641 472
4686 4672 426
4686 4731 616
4687 4494 1359
4687 4691 22
4687 4962 1513
4688 4681 50
4689 4636 1270
4689 4703 320
4689 4722 221
4690 4661 143
4690 4684 33
4690 4710 114
4690 4725 180
4691 4687 22
4691 4780 543
4691 4966 1514
4692 4632 330
4693 4638 228
4694 4667 614
4694 4671 259
4694 4707 54
4695 4636 1135
4695 4714 111
4695 4716 117
4695 4733 3001
4696 4676 131
4696 4661 146
4696 4709 64
4697 4631 271
4698 4679 123
4698 4715 129
4698 4727 150
4699 4668 171
4699 4700 18
4699 4787 685
4700 4699 18
4700 4726 181
4700 4752 318
4701 4651 254
4701 4499 1277
4701 4705 27
4702 4679 104
4703 4368 2306
4703 4689 320
4703 4721 94
4704 4445 1562
4704 4749 356
4704 4753 317
4705 4701 27
4705 4706 108
4705 4791 1156
4705 4921 989
4706 4705 108
4706 4675 357
4707 4694 54
4707 4708 167
4707 4729 117
4708 4707 167
4708 4635 137
4709 4696 64
4709 4715 30
4709 4725 144
4710 4690 114
4710 4735 184
4710 4754 306
4711 4637 535
4711 4578 979
4711 4713 15
4711 4836 563
4712 4671 150
4712 4779 332
4712 4784 423
4713 4711 15
4713 4582 986
4713 4791 375
4713 4836 548
4714 4666 1423
4714 4695 111
4714 4728 105
4714 4895 1014
4715 4698 129
4715 4709 30
4715 4732 108
4716 4695 117
4716 4718 28
4716 4728 161
4717 4591 753
4717 4723 151
4717 4814 381
4718 4716 28
4718 4879 796
4718 4882 838
4719 4720 1763
4720 4719 1763
4721 4703 94
4721 4726 313
4721 4752 227
4722 4689 221
4722 4846 135
4723 4717 151
4723 4724 79
4723 4727 96
4723 4760 233
4724 4723 79
4725 4709 144
4725 4690 180
4725 4743 143
4726 4700 181
4726 4721 313
4726 8135 84
4727 4723 96
4727 4698 150
4727 4732 112
4727 4755 181
4728 4714 105
4728 4716 161
4728 4734 52
4729 4707 117
4729 4737 462
4729 4739 249
4730 4684 304
4730 4670 804
4730 4735 27
4730 4796 391
4731 4686 616
4731 4674 313
4731 4663 1332
4732 4727 112
4732 4715 108
4732 4743 145
4733 4695 3001
4733 4797 300
4733 8136 296
4733 4789 492
4734 4728 52
4734 4898 784
4734 5147 1769
4735 4710 184
4735 4730 27
4735 4744 97
4735 4758 171
4736 4664 1674
4736 4630 517
4736 4750 280
4736 5042 3264
4737 4729 462
4737 4648 70
4738 4670 357
4738 4796 308
4738 4830 349
4739 4729 249
4739 4782 911
4739 4785 307
4740 4660 1802
4740 4669 372
4740 4793 465
4741 4742 339
4741 4668 619
4741 4787 195
4742 4741 339
4742 4650 88
4743 4732 145
4743 4725 143
4743 4754 115
4743 4840 395
4744 4735 97
4744 4751 52
4744 4759 87
4745 4746 103
4745 8135 49
4746 4745 103
4746 4753 264
4746 4853 689
4747 4748 368
4747 4652 467
4747 4769 83
4747 4890 1474
4748 4747 368
4749 4704 356
4749 8135 75
4750 4736 280
4751 4744 52
4751 4767 79
4751 4781 130
4752 4721 227
4752 4700 318
4752 4982 908
4753 4746 264
4753 4704 317
4753 5018 1069
4754 4743 115
4754 4710 306
4754 4772 116
4754 4871 427
4755 4727 181
4756 4757 1936
4756 4387 765
4757 4756 1936
4757 4824 446
4758 4735 171
4758 4763 18
4758 4781 141
4759 4744 87
4760 4723 233
4761 4762 445
4761 4909 121
4762 4761 445
4762 4643 91
4763 4758 18
4763 4770 20
4763 4788 140
4764 4765 447
4764 4642 91
4765 4764 447
4765 4939 120
4766 4097 4265
4766 4883 906
4767 4751 79
4767 4799 159
4767 4801 131
4768 4094 4275
4768 4889 917
4769 4747 83
4770 4763 20
4770 4771 18
4770 4794 140
4771 4770 18
4771 4778 21
4771 4800 139
4772 4754 116
4772 4786 65
4772 4893 443
4773 4774 192
4773 8136 57
4774 4773 192
4774 4775 218
4774 4798 174
4775 4774 218
4775 4776 226
4776 4775 226
4776 4777 130
4776 4797 122
4777 4776 130
4777 8136 28
4778 4771 21
4778 4786 29
4778 4807 139
4779 4712 332
4779 4810 151
4779 4827 181
4780 4691 543
4780 4682 719
4780 4783 15
4780 5262 2102
4781 4758 141
4781 4751 130
4781 4788 22
4781 4801 86
4782 4739 911
4782 4908 31
4783 4780 15
4783 4685 718
4783 5264 2103
4783 5670 3114
4784 4712 423
4784 4941 27
4785 4739 307
4785 4787 105
4785 4810 213
4786 4772 65
4786 4778 29
4786 4811 113
4786 4910 458
4787 4741 195
4787 4785 105
4787 4699 685
4788 4763 140
4788 4781 22
4788 4794 21
4788 4806 87
4789 4790 124
4789 4733 492
4790 4789 124
4790 4798 76
4790 4834 307
4791 4713 375
4791 4705 1156
4791 4836 380
4791 4921 641
4792 4609 2122
4792 4852 230
4792 5115 1704
4793 4740 465
4793 4795 11
4793 5102 988
4794 4770 140
4794 4788 21
4794 4800 20
4794 4815 88
4795 4793 11
4795 4809 98
4796 4730 391
4796 4738 308
4796 4799 15
4796 4830 141
4797 4733 300
4797 4776 122
4797 4820 130
4798 4790 76
4798 4774 174
4798 4859 515
4799 4767 159
4799 4796 15
4799 4849 218
4800 4771 139
4800 4794 20
4800 4807 20
4800 4817 88
4801 4781 86
4801 4767 131
4801 4806 16
4802 4803 162
4802 4812 212
4802 4855 470
4803 4802 162
4803 4821 80
4804 4805 486
4804 4677 548
4804 4850 174
4805 4804 486
4806 4788 87
4806 4801 16
4806 4815 23
4807 4778 139
4807 4800 20
4807 4816 26
4807 4823 88
4808 4809 15
4808 4814 17
4808 5117 988
4809 4808 15
4809 4795 98
4810 4785 213
4810 4779 151
4810 4818 70
4811 4786 113
4811 4816 25
4811 4894 320
4812 4802 212
4812 4822 217
4813 4673 865
4813 5270 47
4814 4808 17
4814 4717 381
4814 4840 258
4815 4794 88
4815 4806 23
4815 4817 21
4816 4811 25
4816 4807 26
4816 4819 39
4817 4800 88
4817 4815 21
4817 4823 19
4818 4810 70
4818 4827 118
4818 4905 497
4819 4816 39
4819 4828 49
4819 4914 382
4820 4797 130
4820 4847 97
4820 5010 698
4821 4822 205
4821 4803 80
4822 4821 205
4822 4812 217
4822 4935 472
4823 4807 88
4823 4817 19
4823 4828 25
4824 4825 273
4824 4757 446
4825 4824 273
4825 4826 11
4825 5610 2995
4826 4825 11
4826 4857 290
4826 5615 3001
4827 4818 118
4827 4779 181
4827 4895 544
4828 4819 49
4828 4823 25
4828 4844 49
4828 4849 114
4829 4625 1962
4830 4796 141
4830 4738 349
4830 4836 589
4830 4901 207
4830 4918 331
4831 4832 882
4831 8124 3326
4832 4831 882
4832 8215 5481
4833 4834 599
4833 8137 6
4834 4833 599
4834 4790 307
4834 4856 171
4835 3900 6670
4835 4902 187
4835 5196 990
4836 4830 589
4836 4711 563
4836 4713 548
4836 4791 380
4836 4972 429
4837 4838 886
4837 8216 5556
4838 4837 886
4838 8123 3337
4839 4630 7255
4840 4814 258
4840 4743 395
4840 4871 100
4841 4842 439
4841 4843 589
4841 4860 161
4842 4841 439
4842 8137 145
4843 4841 589
4843 4950 81
4844 4828 49
4844 4854 32
4844 4906 313
4845 4846 794
4845 4986 599
4846 4845 794
4846 4722 135
4847 4820 97
4847 4848 447
4847 4980 502
4848 4847 447
4848 8137 78
4849 4828 114
4849 4799 218
4849 4858 22
4850 4804 174
4850 4659 747
4850 4890 89
4851 4664 782
4852 4792 230
4852 5076 735
4852 5517 2836
4852 5582 3324
4853 4746 689
4853 4990 604
4854 4844 32
4854 4870 39
4854 4926 361
4855 4802 470
4855 4860 117
4855 4864 63
4856 4834 171
4856 4859 116
4856 4872 116
4857 4826 290
4857 4881 760
4858 4849 22
4858 4870 46
4858 4901 208
4859 4856 116
4859 4798 515
4859 4899 62
4860 4855 117
4860 4841 161
4860 4886 142
4861 4862 847
4861 4867 497
4862 4861 847
4862 4863 41
4862 4868 42
4863 4161 3693
4863 4862 41
4863 4868 15
4863 4869 142
4864 4855 63
4864 4891 193
4864 5232 1235
4865 4866 11
4865 4867 68
4865 4873 13
4866 4865 11
4866 4874 13
4866 4878 304
4867 4865 68
4867 4873 69
4867 4861 497
4868 4863 15
4868 4862 42
4868 4876 142
4868 5374 1431
4869 4863 142
4869 4884 499
4870 4854 39
4870 4858 46
4870 4875 16
4870 4911 226
4871 4840 100
4871 4754 427
4871 4893 83
4871 5012 510
4871 8314 510
4872 4856 116
4872 4912 60
4873 4867 69
4873 4865 13
4873 4874 11
4873 5372 1410
4874 4873 11
4874 4866 13
4874 4887 305
4874 5371 1409
4875 4870 16
4875 4917 263
4875 4933 336
4876 4868 142
4876 4888 506
4876 8138 506
4877 4396 2345
4877 4878 28
4877 4880 50
4877 4885 12
4878 4866 304
4878 4396 2350
4878 4877 28
4878 4887 12
4879 4718 796
4879 4898 152
4879 4915 179
4880 4877 50
4880 4881 483
4880 4885 50
4881 4880 483
4881 4857 760
4882 4718 838
4882 4915 138
4882 4929 227
4883 4884 671
4883 4766 906
4884 4883 671
4884 4869 499
4885 4877 12
4885 4880 50
4885 4887 28
4885 5370 1395
4886 4860 142
4886 4943 61
4887 4874 305
4887 4878 12
4887 4885 28
4887 5373 1394
4888 4889 665
4888 4876 506
4888 8138 506
4889 4888 665
4889 4768 917
4890 4747 1474
4890 4850 89
4890 4892 24
4890 5231 1008
4891 4864 193
4891 4956 62
4892 4890 24
4892 4660 836
4892 5028 1518
4892 5286 2637
4893 4871 83
4893 4772 443
4893 4910 95
4894 4811 320
4895 4827 544
4895 4714 1014
4895 5072 665
4895 5390 2136
4895 5394 2139
4896 4897 1141
4896 4922 94
4896 5006 497
4897 4896 1141
4897 4586 446
4898 4734 784
4898 4879 152
4898 5118 912
4899 4900 294
4899 4859 62
4900 4899 294
4900 4913 118
4900 4946 1005
4901 4858 208
4901 4830 207
4901 4911 54
4902 4835 187
4902 4963 204
4902 4988 361
4903 4904 232
4903 4958 328
4903 4959 197
4904 4903 232
4905 4818 497
4905 4947 175
4905 5017 397
4906 4844 313
4907 4908 346
4907 4909 307
4907 4948 151
4908 4907 346
4908 4782 31
4909 4907 307
4909 4761 121
4910 4893 95
4910 4786 458
4910 4934 126
4911 4870 226
4911 4901 54
4911 4917 13
4912 4913 410
4912 4872 60
4913 4912 410
4913 4900 118
4913 4953 793
4914 4819 382
4914 4926 50
4914 4934 106
4915 4879 179
4915 4882 138
4915 4929 94
4915 5070 594
4916 4609 1296
4916 4932 177
4916 5115 579
4917 4911 13
4917 4875 263
4917 4925 14
4918 4830 331
4918 4945 263
4918 5032 507
4919 4920 195
4920 4919 195
4920 4924 16
4920 5578 2181
4921 4791 641
4921 4705 989
4921 5138 658
4922 4896 94
4922 4944 119
4922 4987 321
4923 4924 306
4924 4923 306
4924 4920 16
4924 5349 1949
4925 4917 14
4925 4936 81
4925 4960 233
4926 4914 50
4926 4854 361
4926 4933 49
4927 4928 1269
4927 4581 432
4928 4927 1269
4928 4954 170
4928 4994 345
4929 4915 94
4929 4882 227
4929 5152 941
4930 4931 981
4931 4930 981
4932 4916 177
4932 5169 637
4932 5305 1508
4933 4926 49
4933 4875 336
4933 4949 99
4934 4910 126
4934 4914 106
4934 4949 85
4935 4822 472
4935 4951 90
4935 5069 443
4936 4925 81
4936 4945 82
4936 4952 45
4937 4938 190
4937 4960 120
4937 4965 118
4938 4937 190
4939 4940 421
4939 4765 120
4940 4939 421
4940 4941 459
4940 4957 53
4941 4940 459
4941 4784 27
4942 4943 878
4942 4955 85
4942 4967 405
4943 4942 878
4943 4886 61
4944 4922 119
4944 4976 109
4944 5049 365
4945 4936 82
4945 4918 263
4945 4974 155
4946 4900 1005
4946 4953 100
4946 4958 123
4947 4905 175
4947 4961 25
4947 4982 251
4948 4907 151
4948 5124 104
4949 4934 85
4949 4933 99
4949 4965 178
4949 5013 187
4950 4951 796
4950 4843 81
4951 4950 796
4951 4935 90
4951 5039 268
4952 4936 45
4952 4979 176
4952 5007 165
4953 4913 793
4953 4946 100
4953 4978 400
4954 4928 170
4954 8146 393
4955 4956 963
4955 4942 85
4955 4964 128
4956 4955 963
4956 4891 62
4957 4940 53
4957 5125 103
4958 4946 123
4958 4903 328
4958 4969 174
4959 4903 197
4959 4969 226
4959 5005 134
4960 4937 120
4960 4925 233
4960 4970 49
4960 4996 208
4961 4947 25
4961 5044 97
4962 4602 1783
4962 4687 1513
4962 4966 14
4962 5305 1243
4963 4902 204
4963 4977 218
4963 5008 135
4964 4955 128
4964 4968 92
4964 5080 294
4965 4937 118
4965 4949 178
4965 4996 106
4966 4962 14
4966 4691 1514
4966 5105 561
4966 5142 548
4967 4942 405
4967 4968 107
4967 4983 326
4968 4964 92
4968 4967 107
4968 4981 252
4969 4958 174
4969 4959 226
4969 4977 112
4970 4960 49
4970 4971 110
4970 4979 42
4970 5029 235
4971 4970 110
4972 4836 429
4972 4973 791
4972 5032 133
4973 4972 791
4974 4945 155
4974 4975 43
4974 5046 335
4974 5047 195
4975 4974 43
4976 4944 109
4976 5041 582
4977 4963 218
4977 4988 181
4977 4969 112
4978 4953 400
4978 8145 108
4979 4970 42
4979 4952 176
4979 4984 16
4979 5038 251
4980 4847 502
4980 5010 100
4980 5112 383
4981 4968 252
4981 4989 179
4981 5093 333
4982 4752 908
4982 4947 251
4982 5017 182
4983 4967 326
4983 5079 107
4984 4979 16
4985 4986 154
4985 4997 193
4985 5016 317
4986 4985 154
4986 4845 599
4987 4922 321
4987 4992 114
4987 5014 95
4988 4977 181
4988 4902 361
4988 4993 95
4989 4981 179
4989 5005 235
4989 5025 108
4990 4991 166
4990 4853 604
4991 4990 166
4991 5009 82
4991 5026 307
4992 4987 114
4992 8150 119
4993 4988 95
4993 5023 100
4993 5200 1729
4994 4928 345
4994 4995 1242
4994 5003 17
4994 5006 20
4995 4994 1242
4996 4965 106
4996 4960 208
4996 5020 165
4996 5029 57
4997 4985 193
4997 5000 46
4997 5009 873
4998 4999 265
4999 4998 265
4999 5071 187
5000 4997 46
5000 8146 135
5001 5002 179
5001 5012 181
5001 5033 67
5002 5001 179
5002 8314 95
5003 4994 17
5003 5004 1252
5003 5011 20
5003 5031 83
5004 5003 1252
5005 4959 134
5005 4989 235
5005 5093 195
5006 4896 497
5006 4994 20
5006 5011 18
5006 5014 16
5007 4952 165
5007 5034 52
5007 5047 196
5008 4963 135
5008 5025 239
5008 5097 195
5009 4991 82
5009 4997 873
5009 5015 49
5010 4820 698
5010 4980 100
5010 5073 176
5011 5006 18
5011 5003 20
5011 5021 15
5011 5197 704
5012 4871 510
5012 8314 510
5012 5001 181
5012 5055 93
5013 4949 187
5013 5030 32
5013 5053 96
5014 4987 95
5014 5006 16
5014 5021 16
5014 5219 571
5015 5009 49
5015 5041 235
5015 5134 365
5016 4985 317
5016 5065 431
5017 4982 182
5017 4905 397
5017 5072 300
5018 4753 1069
5018 5045 241
5018 5081 332
5019 5020 39
5020 5019 39
5020 4996 165
5020 5030 71
5020 5040 47
5021 5014 16
5021 5011 15
5021 5161 533
5021 5221 563
5022 5023 367
5022 8145 2
5023 5022 367
5023 4993 100
5023 5195 1539
5024 5025 174
5024 5077 510
5024 5097 304
5025 5024 174
5025 5008 239
5025 4989 108
5026 4991 307
5026 5062 432
5027 5028 237
5028 5027 237
5028 4892 1518
5028 5102 508
5029 4996 57
5029 4970 235
5029 5038 27
5029 5040 164
5030 5013 32
5030 5020 71
5030 5048 46
5031 5003 83
5031 5074 182
5031 5194 644
5032 4918 507
5032 4972 133
5032 5060 118
5032 5075 124
5033 5001 67
5033 5052 46
5033 5055 219
5034 5007 52
5034 5057 314
5034 5061 181
5034 5111 212
5035 5036 631
5035 5037 30
5035 5144 475
5035 5205 523
5036 5035 631
5037 5035 30
5038 5029 27
5038 4979 251
5038 5043 19
5038 5066 154
5039 4951 268
5039 5069 90
5039 5208 554
5040 5020 47
5040 5029 164
5040 5048 73
5040 5066 74
5041 5015 235
5041 5074 248
5041 4976 582
5041 8151 271
5042 4665 1260
5042 5051 2236
5042 4736 3264
5043 5038 19
5043 5056 13
5044 5045 121
5044 4961 97
5045 5044 121
5045 5018 241
5045 5126 198
5046 4974 335
5046 5075 146
5046 5108 193
5047 5007 196
5047 4974 195
5047 5061 55
5047 5108 298
5048 5030 46
5048 5040 73
5048 5053 63
5049 4944 365
5049 5050 197
5049 5054 56
5050 5049 197
5050 8150 65
5051 5042 2236
5052 5033 46
5052 5053 242
5052 5083 109
5053 5013 96
5053 5048 63
5053 5052 242
5054 5049 56
5054 5064 74
5054 5059 878
5055 5012 93
5055 5033 219
5055 5071 161
5056 5057 12
5056 5043 13
5057 5056 12
5057 5034 314
5057 5067 69
5058 5059 125
5058 8151 144
5059 5058 125
5059 5063 109
5059 5054 878
5060 5032 118
5060 5109 167
5060 5121 155
5061 5034 181
5061 5047 55
5061 5106 199
5062 5063 269
5062 5026 432
5063 5062 269
5063 5059 109
5063 5103 270
5064 5054 74
5064 5065 336
5064 5099 206
5065 5064 336
5065 5016 431
5066 5040 74
5066 5038 154
5066 5068 10
5066 5088 280
5067 5057 69
5067 5087 65
5067 5111 278
5068 5066 10
5068 5086 34
5069 5039 90
5069 4935 443
5069 5159 273
5070 4915 594
5070 5152 326
5070 5328 1005
5071 4999 187
5071 5055 161
5071 5082 27
5071 5090 145
5072 5017 300
5072 4895 665
5072 5081 20
5072 5448 1347
5073 5010 176
5073 5112 109
5073 5130 170
5074 5031 182
5074 5041 248
5074 5182 399
5075 5046 146
5075 5032 124
5075 5098 57
5076 4852 735
5076 5389 1431
5076 5521 2117
5077 5024 510
5077 5078 90
5077 5183 874
5078 5077 90
5078 5079 775
5078 5157 681
5079 5078 775
5079 4983 107
5080 4964 294
5080 5176 513
5080 5386 866
5081 5018 332
5081 5072 20
5081 5446 1237
5081 5450 1345
5082 5071 27
5082 5091 14
5083 5052 109
5083 5096 19
5084 5085 39
5085 5084 39
5085 5138 450
5085 5146 205
5086 5087 10
5086 5068 34
5087 5086 10
5087 5067 65
5087 5101 315
5087 5156 188
5087 5172 358
5088 5089 16
5088 5066 280
5088 5095 11
5089 5088 16
5090 5071 145
5090 5110 54
5090 5117 239
5091 5092 8
5091 5082 14
5092 5091 8
5092 5094 170
5092 5193 312
5093 4981 333
5093 5005 195
5093 5196 282
5094 5092 170
5094 5096 180
5094 5177 218
5095 5088 11
5095 5101 19
5096 5094 180
5096 5101 186
5096 5127 83
5096 5083 19
5097 5008 195
5097 5024 304
5097 5196 269
5098 5075 57
5098 5121 117
5098 5158 174
5099 5064 206
5099 5602 1120
5100 4629 1972
5100 4665 5934
5100 5107 18
5100 5457 1122
5101 5096 186
5101 5087 315
5101 5154 148
5101 5095 19
5102 5028 508
5102 4793 988
5102 5104 8
5102 5286 595
5103 5063 270
5103 5604 1116
5104 5102 8
5104 5116 100
5105 4966 561
5105 5262 550
5105 5314 682
5106 5061 199
5106 5114 61
5106 5122 51
5107 4649 1873
5107 5100 18
5107 5454 1101
5108 5047 298
5108 5046 193
5108 5120 45
5109 5060 167
5109 5148 126
5109 5151 121
5110 5090 54
5110 5119 25
5110 5145 269
5111 5067 278
5111 5034 212
5111 5113 7
5112 5073 109
5112 4980 383
5112 5201 313
5113 5111 7
5113 5188 212
5113 5212 402
5114 5106 61
5114 5120 35
5114 5136 54
5115 4792 1704
5115 4916 579
5115 5277 796
5115 5287 500
5115 5288 510
5116 5117 16
5116 5104 100
5117 5116 16
5117 4808 988
5117 5090 239
5117 5140 49
5118 4898 912
5118 5147 76
5118 5356 948
5119 5110 25
5119 5132 25
5119 5137 116
5120 5114 35
5120 5108 45
5120 5131 39
5121 5098 117
5121 5060 155
5121 5151 141
5121 5173 153
5122 5106 51
5122 5136 64
5122 5141 47
5123 5124 332
5123 8176 1907
5124 5123 332
5124 4948 104
5125 5126 320
5125 4957 103
5126 5125 320
5126 5045 198
5126 8177 1918
5127 5096 83
5127 5154 165
5127 5192 185
5128 5129 647
5128 5135 26
5128 5180 203
5129 5128 647
5130 5073 170
5130 5171 331
5130 5199 249
5131 5120 39
5131 5143 67
5131 5149 52
5132 5119 25
5133 5134 141
5133 8149 538
5134 5133 141
5134 5015 365
5134 5182 158
5135 5128 26
5135 5185 204
5135 5248 806
5136 5122 64
5136 5114 54
5136 5149 72
5136 5150 45
5137 5119 116
5137 5155 160
5137 5213 273
5138 5085 450
5138 4921 658
5138 5203 297
5139 4615 1797
5139 5274 411
5139 5332 1016
5140 5117 49
5140 5145 20
5140 5317 578
5141 5122 47
5141 5150 72
5141 5153 47
5142 4966 548
5143 5131 67
5143 5158 88
5143 5163 55
5144 5035 475
5144 5399 427
5145 5140 20
5145 5110 269
5145 5155 47
5146 5085 205
5146 5310 566
5147 4734 1769
5147 5118 76
5147 5189 161
5148 5109 126
5148 5338 568
5149 5136 72
5149 5131 52
5149 5163 69
5149 5165 45
5150 5141 72
5150 5136 45
5150 5165 71
5150 5168 45
5151 5121 141
5151 5109 121
5151 5191 129
5151 5203 257
5152 5070 326
5152 4929 941
5152 5171 72
5153 5141 47
5153 5164 26
5153 5168 75
5154 5127 165
5154 5101 148
5154 5172 89
5155 5145 47
5155 5137 160
5155 5204 153
5156 5087 188
5156 5160 9
5156 5186 226
5157 5078 681
5157 5183 109
5157 5214 540
5158 5143 88
5158 5098 174
5158 5173 109
5158 5174 46
5159 5069 273
5159 5210 196
5159 5272 349
5160 5156 9
5160 5188 180
5160 5241 260
5161 5162 267
5161 5021 533
5161 5197 164
5162 5161 267
5162 8151 262
5163 5149 69
5163 5143 55
5163 5179 46
5163 5181 88
5164 5153 26
5164 5175 80
5164 5212 178
5165 5150 71
5165 5149 45
5165 5178 36
5165 5179 70
5166 5167 1851
5167 5166 1851
5167 5211 179
5167 5693 2104
5168 5153 75
5168 5150 45
5168 5170 22
5168 5175 24
5169 4932 637
5169 5277 343
5169 5347 984
5170 5168 22
5171 5152 72
5171 5130 331
5171 5202 131
5172 5154 89
5172 5087 358
5172 5255 401
5173 5158 109
5173 5121 153
5173 5191 139
5174 5158 46
5174 5181 8
5174 5216 237
5175 5164 80
5175 5168 24
5175 5184 15
5176 5080 513
5177 5094 218
5177 5192 168
5177 5226 174
5178 5165 36
5178 5184 89
5178 5187 71
5179 5165 70
5179 5163 46
5179 5187 42
5179 5190 88
5180 5128 203
5180 8152 92
5181 5163 88
5181 5174 8
5181 5190 45
5182 5074 399
5182 5134 158
5182 5194 67
5183 5077 874
5183 5157 109
5183 5206 274
5184 5175 15
5184 5178 89
5184 5218 191
5185 5135 204
5185 5429 92
5186 5156 226
5187 5178 71
5187 5179 42
5187 5209 91
5188 5160 180
5188 5113 212
5188 5243 327
5188 5244 186
5189 5147 161
5189 5224 156
5189 5285 294
5190 5179 88
5190 5181 45
5190 5209 58
5191 5173 139
5191 5151 129
5191 5216 103
5191 5217 233
5192 5177 168
5192 5127 185
5192 5198 44
5193 5092 312
5193 5213 60
5193 5226 241
5194 5031 644
5194 5182 67
5194 5536 1448
5195 5023 1539
5195 5200 94
5195 5229 277
5196 5093 282
5196 4835 990
5196 5097 269
5196 5271 242
5197 5161 164
5197 5011 704
5197 5544 1466
5198 5192 44
5198 5245 200
5199 5130 249
5199 5202 231
5199 5249 187
5200 5195 94
5200 4993 1729
5200 5207 50
5201 5112 313
5201 5343 188
5202 5171 131
5202 5199 231
5202 5220 94
5203 5151 257
5203 5138 297
5203 5217 88
5204 5155 153
5204 5225 220
5204 5238 133
5205 5035 523
5206 5183 274
5206 5214 160
5206 5251 362
5207 5200 50
5207 5223 148
5207 5234 314
5208 5039 554
5208 5354 188
5209 5187 91
5209 5190 58
5209 5268 237
5210 5159 196
5210 5220 253
5210 5280 188
5211 5167 179
5212 5113 402
5212 5164 178
5212 5218 46
5213 5137 273
5213 5193 60
5213 5215 17
5214 5206 160
5214 5157 540
5214 5235 179
5215 5213 17
5215 5225 42
5215 5293 363
5216 5174 237
5216 5191 103
5216 5242 124
5216 5268 169
5217 5191 233
5217 5203 88
5217 5222 24
5218 5212 46
5218 5184 191
5218 5243 92
5219 5014 571
5220 5202 94
5220 5210 253
5220 5272 199
5221 5021 563
5222 5217 24
5222 5242 167
5222 5289 463
5223 5207 148
5223 5234 163
5223 5251 76
5224 5189 156
5224 5249 225
5224 5254 103
5225 5204 220
5225 5215 42
5225 5352 390
5226 5193 241
5226 5177 174
5226 5245 138
5227 5228 133
5228 5227 133
5228 5230 19
5228 5239 287
5229 5195 277
5229 5344 33
5230 5228 19
5230 5239 59
5230 5298 181
5231 4890 1008
5231 5256 60
5231 5263 92
5232 4864 1235
5232 5233 15
5232 5416 902
5233 5232 15
5234 5223 163
5234 5207 314
5234 5333 1081
5235 5214 179
5235 5282 44
5236 5237 344
5236 5252 106
5236 5258 588
5236 5318 219
5237 5236 344
5238 5204 133
5239 5230 59
5239 5228 287
5239 5246 55
5239 5304 181
5240 5241 98
5240 5261 244
5240 5276 144
5241 5240 98
5241 5160 260
5241 5244 16
5242 5216 124
5242 5222 167
5242 5283 195
5243 5188 327
5243 5218 92
5243 5250 47
5243 5295 176
5244 5241 16
5244 5188 186
5244 5284 118
5244 5295 261
5245 5226 138
5245 5198 200
5245 5255 50
5246 5239 55
5246 5261 77
5246 5313 182
5247 5248 195
5248 5247 195
5248 5135 806
5248 5401 463
5249 5224 225
5249 5285 168
5249 5199 187
5250 5243 47
5251 5206 362
5251 5223 76
5251 5273 135
5251 5278 74
5252 5236 106
5252 5253 230
5252 5269 159
5252 5324 209
5253 5252 230
5254 5224 103
5254 5280 215
5254 5301 169
5255 5245 50
5255 5172 401
5255 5257 9
5255 5293 168
5256 5231 60
5256 5263 71
5256 5309 516
5257 5255 9
5257 5260 16
5258 5236 588
5258 5279 274
5258 5324 973
5259 5260 7
5259 5298 260
5259 5322 200
5260 5259 7
5260 5257 16
5261 5246 77
5261 5240 244
5261 5276 112
5261 5319 182
5262 5105 550
5262 4780 2102
5262 5264 11
5262 5474 1123
5263 5256 71
5263 5231 92
5263 5294 1563
5264 5262 11
5264 4783 2103
5264 5475 1122
5264 5543 1096
5265 5266 350
5265 5267 150
5265 5279 46
5266 5265 350
5267 5265 150
5268 5209 237
5268 5216 169
5268 5283 54
5269 5252 159
5269 5270 1508
5269 5303 249
5270 5269 1508
5270 4813 47
5271 5196 242
5271 5549 1351
5271 5711 1803
5272 5220 199
5272 5159 349
5272 5328 192
5273 5251 135
5273 5281 117
5273 5358 1021
5274 5139 411
5274 5275 473
5274 5388 340
5275 5274 473
5276 5261 112
5276 5240 144
5276 5284 110
5276 5336 183
5277 5115 796
5277 5169 343
5277 5395 591
5277 5426 434
5278 5251 74
5279 5265 46
5279 5258 274
5279 5291 118
5279 5337 756
5280 5254 215
5280 5302 160
5280 5210 188
5281 5273 117
5281 5282 231
5281 5353 1006
5282 5281 231
5282 5235 44
5283 5268 54
5283 5242 195
5283 5289 16
5284 5276 110
5284 5244 118
5284 5351 189
5285 5189 294
5285 5249 168
5285 5308 66
5286 5102 595
5286 5292 15
5286 5294 14
5286 4892 2637
5287 5115 500
5287 5420 386
5287 5423 664
5288 5115 510
5288 5391 792
5288 5421 383
5289 5283 16
5289 5222 463
5289 5359 231
5290 5291 431
5291 5290 431
5291 5279 118
5291 5306 138
5292 5286 15
5292 5316 108
5293 5215 363
5293 5255 168
5293 5369 393
5294 5286 14
5294 5299 16
5294 5263 1563
5294 5465 690
5295 5244 261
5295 5243 176
5296 5297 774
5296 5315 73
5296 5412 347
5297 5296 774
5298 5259 260
5298 5230 181
5298 5300 13
5299 5294 16
5299 5321 106
5300 5298 13
5300 5304 42
5300 5361 200
5301 5254 169
5301 5302 290
5301 5356 293
5302 5280 160
5302 5301 290
5302 5323 99
5303 5269 249
5303 5453 60
5304 5300 42
5304 5239 181
5304 5313 58
5305 4932 1508
5305 4962 1243
5305 5314 29
5305 5347 192
5306 5307 429
5306 5291 138
5306 5325 296
5307 5306 429
5308 5285 66
5308 5342 133
5308 5367 275
5309 5256 516
5309 5339 366
5309 5393 320
5310 5311 239
5310 5146 566
5311 5310 239
5311 5312 379
5311 5325 409
5312 5311 379
5313 5304 58
5313 5246 182
5313 5319 79
5314 5305 29
5314 5105 682
5314 5350 197
5315 5296 73
5315 5327 66
5315 5417 314
5316 5317 18
5316 5292 108
5317 5316 18
5317 5140 578
5317 5320 15
5317 5352 269
5318 5236 219
5319 5313 79
5319 5261 182
5319 5329 92
5320 5321 20
5320 5317 15
5320 5402 693
5321 5320 20
5321 5299 106
5322 5259 200
5322 5361 294
5322 5362 138
5323 5302 99
5323 5355 144
5323 5433 524
5324 5252 209
5324 5360 427
5324 5258 973
5324 5425 300
5325 5326 749
5325 5306 296
5325 5311 409
5326 5325 749
5327 5315 66
5327 5348 73
5327 5422 284
5328 5070 1005
5328 5272 192
5328 5672 1770
5329 5319 92
5329 5336 26
5329 5392 204
5330 5331 942
5330 5609 1539
5331 5330 942
5332 5139 1016
5332 5496 39
5333 5234 1081
5333 5341 226
5333 5345 114
5334 5335 3393
5335 5334 3393
5336 5329 26
5336 5276 183
5336 5351 110
5337 5338 452
5337 5279 756
5337 5346 47
5338 5337 452
5338 5148 568
5339 5340 379
5339 5309 366
5339 5388 482
5339 5436 321
5340 5339 379
5341 5333 226
5341 5357 107
5341 5464 792
5342 5308 133
5342 5343 365
5342 5490 913
5343 5342 365
5343 5201 188
5344 5345 1110
5344 5229 33
5345 5344 1110
5345 5333 114
5345 5357 436
5346 5337 47
5346 5451 415
5346 5492 1010
5347 5169 984
5347 5305 192
5347 5350 26
5347 5395 271
5348 5327 73
5348 5418 325
5348 5428 251
5349 4924 1949
5350 5347 26
5350 5314 197
5350 5400 259
5351 5336 110
5351 5284 189
5351 5419 212
5352 5317 269
5352 5225 390
5352 5369 201
5353 5281 1006
5353 5358 112
5353 5432 725
5354 5355 401
5354 5208 188
5355 5354 401
5355 5323 144
5355 5526 1111
5356 5301 293
5356 5118 948
5356 5660 1550
5357 5345 436
5357 5341 107
5357 5440 537
5358 5273 1021
5358 5353 112
5358 5466 1017
5359 5289 231
5359 5385 79
5359 5385 277
5360 5324 427
5361 5322 294
5361 5300 200
5361 5366 75
5362 5322 138
5362 5407 148
5362 5408 362
5363 5364 443
5364 5363 443
5364 5403 128
5364 5405 228
5365 4379 5839
5365 5437 288
5365 5511 695
5366 5361 75
5366 5392 199
5366 5408 136
5367 5368 519
5367 5308 275
5367 5431 287
5368 5367 519
5369 5352 201
5369 5293 393
5369 5407 290
5370 4885 1395
5370 5373 31
5370 5376 717
5370 5380 9
5371 4874 1409
5371 5372 13
5371 5373 409
5371 5378 8
5372 4873 1410
5372 5371 13
5372 5377 642
5372 5379 8
5373 5371 409
5373 4887 1394
5373 5370 31
5373 5381 9
5374 4868 1431
5374 5375 232
5374 5383 13
5375 5374 232
5375 5377 433
5376 5370 717
5376 5380 716
5377 5372 642
5377 5375 433
5378 5371 8
5378 5379 13
5378 5381 409
5378 5806 2402
5379 5372 8
5379 5378 13
5379 5382 642
5379 5808 2408
5380 5370 9
5380 5376 716
5380 5381 30
5381 5378 409
5381 5373 9
5381 5380 30
5382 5379 642
5382 5384 433
5383 5374 13
5383 5384 231
5383 5931 3040
5384 5383 231
5384 5382 433
5385 5359 79
5385 5359 277
5385 5498 733
5386 5080 866
5386 5387 15
5386 5387 125
5387 5386 15
5387 5386 125
5388 5274 340
5388 5339 482
5388 5403 238
5388 5463 336
5389 5076 1431
5389 5391 42
5389 5396 25
5390 4895 2136
5390 5413 84
5390 5431 222
5391 5389 42
5391 5288 792
5391 5397 24
5392 5366 199
5392 5329 204
5392 5419 170
5393 5309 320
5393 5414 167
5393 5497 521
5394 4895 2139
5394 5415 81
5394 5439 226
5395 5277 591
5395 5347 271
5395 5400 26
5395 5447 316
5396 5389 25
5396 5404 23
5396 5430 694
5397 5391 24
5397 5406 23
5398 4685 2496
5398 5399 928
5398 5491 937
5398 5495 555
5399 5398 928
5399 5144 427
5400 5395 26
5400 5350 259
5400 5449 326
5400 5474 373
5401 5248 463
5401 8159 364
5402 5320 693
5402 5460 625
5402 5750 1745
5403 5364 128
5403 5388 238
5403 5452 595
5403 5479 351
5404 5396 23
5404 5406 41
5404 5488 557
5405 5364 228
5406 5397 23
5406 5404 41
5406 5461 310
5407 5369 290
5407 5362 148
5407 5438 355
5408 5362 362
5408 5366 136
5408 5438 143
5408 5443 371
5409 5410 475
5409 5411 629
5409 5516 1052
5409 5549 765
5410 5409 475
5411 5409 629
5412 5296 347
5412 5417 57
5412 5659 1187
5413 5390 84
5413 5468 278
5414 5393 167
5414 5436 285
5414 5500 475
5415 5394 81
5415 5473 279
5416 5232 902
5417 5315 314
5417 5412 57
5417 5422 56
5417 5485 329
5418 5348 325
5418 5441 117
5418 5530 771
5419 5392 170
5419 5351 212
5419 5442 121
5420 5287 386
5420 5421 19
5420 5423 372
5420 5518 493
5421 5288 383
5421 5420 19
5421 5461 520
5421 5519 498
5422 5327 284
5422 5417 56
5422 5428 61
5422 5481 297
5423 5420 372
5423 5287 664
5423 5426 440
5423 5514 478
5424 5425 216
5425 5424 216
5425 5324 300
5425 5427 35
5426 5423 440
5426 5277 434
5426 5447 275
5427 5425 35
5427 5434 197
5427 5486 493
5428 5348 251
5428 5422 61
5428 5441 252
5428 5477 258
5429 5430 891
5429 5185 92
5430 5429 891
5430 5396 694
5430 5488 425
5431 5367 287
5431 5390 222
5431 5439 101
5432 5353 725
5432 5466 211
5432 5629 888
5433 5323 524
5433 5444 105
5433 5469 251
5434 5427 197
5434 5435 277
5434 5531 522
5435 5434 277
5436 5339 321
5436 5414 285
5436 5445 210
5436 5522 473
5437 5365 288
5437 5483 37
5438 5407 355
5438 5408 143
5438 5456 201
5439 5394 226
5439 5431 101
5439 5505 513
5440 5357 537
5440 5464 127
5440 5654 884
5441 5418 117
5441 5428 252
5441 5462 103
5441 5471 241
5442 5419 121
5442 5443 62
5442 5470 139
5443 5408 371
5443 5442 62
5443 5467 131
5444 5433 105
5444 5472 259
5444 5568 793
5445 5436 210
5445 5463 266
5445 5558 519
5446 5081 1237
5447 5426 275
5447 5395 316
5447 5449 23
5447 5703 1739
5448 5072 1347
5448 5493 503
5449 5447 23
5449 5400 326
5449 5506 359
5449 5708 1735
5450 5081 1345
5450 5499 504
5451 5346 415
5452 5403 595
5452 5613 43
5453 5454 3774
5453 5303 60
5454 5453 3774
5454 5107 1101
5454 5457 17
5454 5524 354
5455 4380 6187
5455 5555 544
5455 5566 542
5456 5438 201
5456 5460 14
5456 5467 207
5457 5454 17
5457 5100 1122
5457 5525 356
5457 6262 6929
5458 5459 226
5459 5458 226
5460 5402 625
5460 5456 14
5460 5476 317
5460 5874 2584
5461 5406 310
5461 5421 520
5461 5520 427
5462 5441 103
5462 5471 212
5462 5477 261
5463 5388 336
5463 5445 266
5463 5479 213
5463 5595 586
5464 5440 127
5464 5341 792
5464 5484 91
5465 5294 690
5465 5480 353
5465 5724 1164
5466 5358 1017
5466 5432 211
5466 5504 206
5467 5456 207
5467 5443 131
5467 5470 82
5468 5469 116
5468 5413 278
5469 5468 116
5469 5433 251
5469 5781 1917
5470 5467 82
5470 5442 139
5470 5498 464
5471 5441 241
5471 5462 212
5471 5478 122
5472 5444 259
5472 5473 112
5472 5782 1917
5473 5472 112
5473 5415 279
5474 5400 373
5474 5262 1123
5474 5475 9
5474 5506 309
5475 5474 9
5475 5264 1122
5475 5597 541
5475 5797 2061
5476 5460 317
5476 5502 431
5476 5502 498
5477 5462 261
5477 5428 258
5477 5481 69
5478 5471 122
5479 5403 351
5479 5463 213
5479 5510 469
5479 5559 430
5480 5465 353
5480 5489 599
5480 5656 723
5481 5477 69
5481 5422 297
5481 5485 53
5482 5483 261
5482 5561 241
5483 5482 261
5483 5437 37
5484 5464 91
5484 5508 165
5484 5523 216
5485 5481 53
5485 5417 329
5485 5487 53
5486 5427 493
5487 5485 53
5488 5430 425
5488 5404 557
5488 5628 766
5488 5785 1774
5489 5480 599
5489 5497 407
5489 5551 305
5490 5342 913
5490 5505 134
5490 5533 268
5491 5398 937
5492 5346 1010
5493 5448 503
5493 5494 109
5493 5499 26
5493 5501 47
5494 5493 109
5495 5398 555
5495 5496 1152
5495 5590 434
5495 5612 559
5496 5495 1152
5496 5332 39
5497 5393 521
5497 5489 407
5497 5500 193
5498 5470 464
5498 5385 733
5498 5502 20
5498 5503 35
5499 5450 504
5499 5493 26
5499 5534 184
5500 5414 475
5500 5497 193
5500 5522 284
5501 5493 47
5501 5513 75
5501 5577 357
5502 5476 431
5502 5498 20
5502 5507 31
5502 5476 498
5503 5498 35
5503 5529 100
5504 5466 206
5504 5535 207
5504 5553 445
5505 5439 513
5505 5490 134
5505 5509 34
5506 5449 359
5506 5474 309
5506 5794 1753
5507 5502 31
5507 5528 101
5508 5484 165
5508 5552 217
5508 5556 328
5509 5505 34
5509 5533 102
5509 5541 136
5510 5479 469
5510 5676 68
5511 5512 407
5511 5365 695
5511 5598 357
5512 5511 407
5512 5554 236
5513 5501 75
5513 5545 166
5513 5541 417
5514 5423 478
5514 5515 96
5514 5518 335
5515 5514 96
5516 5409 1052
5517 4852 2836
5517 5521 30
5517 5633 1018
5518 5420 493
5518 5514 335
5518 5586 283
5519 5421 498
5519 5520 178
5519 5589 285
5520 5461 427
5520 5519 178
5520 5628 585
5521 5517 30
5521 5076 2117
5521 5581 363
5521 5785 1790
5522 5436 473
5522 5500 284
5522 5558 221
5523 5484 216
5523 5539 200
5523 5584 217
5524 5454 354
5524 5525 15
5524 5783 1260
5525 5524 15
5525 5457 356
5525 5786 1258
5525 6262 5190
5526 5355 1111
5526 5568 168
5526 5579 240
5527 5528 81
5528 5527 81
5528 5507 101
5529 5530 112
5529 5503 100
5530 5529 112
5530 5418 771
5530 5648 2987
5530 5992 2730
5531 5434 522
5531 5532 133
5531 5585 209
5531 5648 1100
5532 5531 133
5533 5509 102
5533 5490 268
5533 5575 207
5534 5499 184
5534 5614 465
5534 5617 387
5535 5504 207
5535 5538 98
5535 5540 174
5536 5194 1448
5536 5537 72
5536 5544 33
5536 5795 2181
5537 5536 72
5538 5535 98
5538 5539 126
5539 5523 200
5539 5538 126
5540 5535 174
5540 5542 233
5540 5546 263
5541 5509 136
5541 5513 417
5541 5573 172
5542 5540 233
5542 8160 253
5543 5264 1096
5543 5587 681
5543 5606 270
5543 5616 1635
5544 5197 1466
5544 5536 33
5544 5588 221
5544 5780 1922
5545 5513 166
5545 8161 154
5546 5540 263
5546 5547 170
5546 5711 3184
5547 5546 170
5547 5548 195
5547 5571 337
5548 5547 195
5548 5550 203
5548 5553 203
5549 5409 765
5549 5271 1351
5549 5684 1405
5549 5770 1121
5550 5548 203
5550 5552 95
5551 5489 305
5552 5508 217
5552 5556 314
5552 5550 95
5553 5548 203
5553 5504 445
5553 5563 97
5554 5555 218
5554 5512 236
5555 5554 218
5555 5455 544
5555 5574 102
5556 5552 314
5556 5557 177
5556 5508 328
5556 5564 210
5557 5556 177
5557 8160 58
5558 5445 519
5558 5522 221
5558 5595 304
5559 5479 430
5560 5561 216
5560 5565 37
5560 5566 505
5561 5560 216
5561 5482 241
5562 5563 187
5562 5564 337
5562 5584 264
5563 5562 187
5563 5553 97
5564 5556 210
5564 5562 337
5564 5567 115
5565 5560 37
5565 5591 155
5565 5611 297
5566 5455 542
5566 5560 505
5566 5599 153
5567 5564 115
5567 5576 173
5567 5598 815
5568 5526 168
5568 5444 793
5568 5580 75
5568 5630 354
5569 5570 389
5569 8167 121
5570 5569 389
5570 5592 1408
5570 8165 1408
5570 8166 1408
5571 5547 337
5571 5572 40
5571 5629 267
5572 5571 40
5572 8160 323
5573 5541 172
5573 5577 216
5573 8161 8
5574 5555 102
5574 5582 276
5574 5594 123
5575 5533 207
5575 8162 10
5576 5567 173
5576 5607 623
5576 5631 624
5577 5501 357
5577 5573 216
5577 5630 359
5578 4920 2181
5579 5526 240
5579 8163 14
5580 5568 75
5580 8164 17
5581 5521 363
5581 5583 33
5581 5744 1039
5582 4852 3324
5582 5574 276
5582 5600 251
5583 5581 33
5583 5603 183
5583 5671 419
5584 5523 217
5584 5562 264
5584 5654 242
5585 5531 209
5586 5518 283
5586 5701 506
5587 5543 681
5588 5544 221
5589 5519 285
5589 5705 506
5590 5495 434
5590 5695 1245
5590 5763 961
5591 5565 155
5591 5596 30
5591 5600 200
5592 5593 241
5592 5570 1408
5592 8165 1408
5592 8166 1408
5593 5592 241
5593 8165 118
5594 5574 123
5594 8170 50
5595 5463 586
5595 5558 304
5595 5623 173
5596 5591 30
5596 8172 45
5597 5475 541
5597 5723 559
5597 5729 1068
5598 5567 815
5598 5511 357
5598 5599 11
5598 5607 52
5599 5598 11
5599 5566 153
5599 5608 52
5599 5611 326
5600 5582 251
5600 5591 200
5600 5611 211
5601 5602 1791
5601 5696 572
5602 5601 1791
5602 5099 1120
5603 5583 183
5603 5627 97
5603 5632 232
5604 5605 1778
5604 5103 1116
5605 5604 1778
5605 5691 501
5605 8185 501
5605 8187 501
5606 5543 270
5607 5576 623
5607 5598 52
5607 5608 11
5607 5631 70
5608 5607 11
5608 5599 52
5608 5621 120
5608 5641 79
5609 5330 1539
5609 5626 248
5609 5680 421
5609 8180 421
5609 8184 421
5610 4825 2995
5610 8179 188
5611 5599 326
5611 5565 297
5611 5600 211
5612 5495 559
5612 5613 1164
5612 5728 548
5613 5612 1164
5613 5452 43
5614 5534 465
5614 5636 108
5614 5646 277
5615 4826 3001
5615 8181 202
5616 5543 1635
5617 5534 387
5617 5618 156
5617 5663 195
5617 5673 894
5618 5617 156
5618 8161 109
5619 5620 232
5620 5619 232
5621 5608 120
5621 5622 358
5621 5633 209
5622 5621 358
5622 8172 170
5623 5595 173
5623 5662 247
5623 5679 1344
5624 5625 315
5625 5624 315
5625 5653 179
5625 5668 663
5626 5609 248
5626 8173 81
5627 5603 97
5627 5647 138
5627 5649 115
5628 5488 766
5628 5520 585
5628 5703 446
5629 5571 267
5629 5432 888
5629 5726 438
5630 5577 359
5630 5568 354
5630 5665 240
5631 5576 624
5631 5607 70
5631 5641 12
5631 6041 2514
5632 5603 232
5632 5671 298
5632 8170 114
5633 5621 209
5633 5517 1018
5633 5642 139
5634 5635 51
5635 5634 51
5635 8171 66
5636 5614 108
5636 5669 244
5636 5686 289
5637 5638 61
5637 8168 65
5638 5637 61
5639 5640 177
5640 5639 177
5640 8168 1308
5640 8169 1308
5641 5631 12
5641 5608 79
5641 5652 541
5641 6043 2503
5642 5633 139
5642 5658 299
5643 5644 928
5644 5643 928
5645 5646 163
5645 8164 99
5646 5645 163
5646 5614 277
5646 5673 249
5646 8182 249
5647 5627 138
5647 5652 68
5647 5655 44
5648 5531 1100
5648 5530 2987
5648 5798 1038
5649 5627 115
5649 5650 4
5649 5650 4
5649 5661 178
5650 5649 4
5650 5651 107
5650 5649 4
5651 5650 107
5651 5671 310
5651 8172 111
5652 5647 68
5652 5641 541
5652 5655 47
5653 5625 179
5654 5440 884
5654 5584 242
5654 5721 333
5655 5652 47
5655 5647 44
5655 5661 55
5656 5480 723
5656 5679 786
5656 5733 406
5657 5658 64
5657 5671 162
5657 5675 244
5658 5657 64
5658 5642 299
5659 5412 1187
5660 5356 1550
5660 5685 143
5660 5759 627
5661 5655 55
5661 5649 178
5661 5674 106
5662 5623 247
5662 5667 78
5662 5867 1499
5663 5617 195
5663 5664 345
5663 5719 292
5664 5663 345
5664 8162 109
5665 5630 240
5665 5666 428
5665 5669 24
5665 5739 646
5666 5665 428
5667 5662 78
5667 5678 46
5668 5625 663
5669 5636 244
5669 5665 24
5669 5690 149
5669 5732 527
5670 4783 3114
5670 5687 115
5670 5688 113
5671 5657 162
5671 5651 310
5671 5632 298
5671 5583 419
5671 5744 653
5672 5328 1770
5672 5689 331
5672 5707 168
5673 5646 249
5673 8182 249
5673 5700 142
5673 5617 894
5674 5661 106
5674 8188 59
5675 5657 244
5675 8189 60
5676 5677 741
5676 5510 68
5677 5676 741
5677 5678 744
5677 5728 595
5678 5677 744
5678 5667 46
5679 5656 786
5679 5623 1344
5680 5681 179
5680 5609 421
5680 8180 421
5680 8184 421
5680 5696 114
5681 5680 179
5681 8178 98
5682 5683 192
5682 8170 346
5683 5682 192
5684 5549 1405
5684 5689 101
5684 5694 126
5685 5660 143
5685 5710 135
5685 5734 260
5686 5636 289
5687 5670 115
5687 6217 1598
5688 5670 113
5688 6244 1602
5689 5684 101
5689 5672 331
5689 5709 184
5690 5669 149
5691 5605 501
5691 8185 501
5691 8187 501
5691 5706 78
5691 5712 410
5692 5693 1397
5693 5692 1397
5693 5167 2104
5693 5746 301
5694 5684 126
5694 5716 154
5694 5748 290
5695 5590 1245
5696 5680 114
5696 5601 572
5696 5756 211
5697 5698 275
5698 5697 275
5699 5700 551
5699 8163 103
5700 5699 551
5700 5673 142
5700 5720 81
5701 5702 131
5701 5586 506
5702 5701 131
5702 5771 152
5703 5628 446
5703 5447 1739
5703 5708 30
5703 6031 2832
5704 5705 132
5704 5777 152
5705 5704 132
5705 5589 506
5706 5691 78
5706 5757 212
5707 5672 168
5707 5709 224
5707 5725 105
5708 5703 30
5708 5449 1735
5708 5794 829
5708 6027 2794
5709 5707 224
5709 5689 184
5709 5722 141
5710 5685 135
5710 5722 199
5710 5730 124
5711 5271 1803
5711 5546 3184
5711 5770 746
5711 5837 1099
5712 5691 410
5712 5918 607
5712 8186 607
5713 5714 346
5714 5713 346
5714 5715 424
5714 5727 95
5715 5714 424
5716 5694 154
5716 5725 209
5716 5735 143
5717 5718 1118
5718 5717 1118
5719 5663 292
5719 5793 381
5720 5700 81
5720 5787 378
5721 5654 333
5721 5997 171
5722 5710 199
5722 5734 153
5722 5709 141
5723 5597 559
5724 5465 1164
5724 5731 37
5724 5733 211
5725 5707 105
5725 5716 209
5725 5748 165
5726 5629 438
5726 5996 145
5727 5714 95
5728 5612 548
5728 5677 595
5728 5950 1402
5728 6416 4271
5729 5597 1068
5729 5737 113
5729 5749 136
5730 5710 124
5730 5735 203
5730 5751 160
5731 5724 37
5731 5738 183
5731 6007 3899
5732 5669 527
5732 5740 92
5732 5741 78
5733 5656 406
5733 5724 211
5733 5738 32
5733 5867 2957
5734 5685 260
5734 5722 153
5734 5742 98
5735 5736 139
5735 5730 203
5735 5716 143
5736 5735 139
5736 5745 116
5736 5751 291
5737 5729 113
5738 5733 32
5738 5731 183
5738 5876 2974
5739 5665 646
5739 5740 29
5739 5828 779
5740 5732 92
5740 5739 29
5740 5741 82
5740 5831 795
5741 5732 78
5741 5740 82
5741 5747 408
5742 5734 98
5742 5743 985
5742 5752 131
5743 5742 985
5744 5671 653
5744 5581 1039
5744 5801 881
5745 5736 116
5745 5754 120
5745 5764 143
5746 5693 301
5746 5938 1756
5746 5948 1323
5747 5741 408
5748 5725 165
5748 5694 290
5748 5905 1180
5749 5729 136
5750 5402 1745
5751 5736 291
5751 5730 160
5751 5759 75
5752 5753 974
5752 5742 131
5752 5760 66
5753 5752 974
5754 5745 120
5754 5760 68
5754 5765 138
5755 5756 905
5755 5807 440
5756 5755 905
5756 5696 211
5757 5758 915
5757 5706 212
5758 5757 915
5758 5810 437
5759 5751 75
5759 5660 627
5759 5909 1124
5760 5752 66
5760 5754 68
5760 5781 410
5761 5762 736
5762 5761 736
5763 5590 961
5764 5745 143
5764 5765 12
5764 5766 8
5764 5934 1469
5765 5754 138
5765 5764 12
5765 5767 9
5766 5764 8
5766 5767 12
5766 5935 1457
5766 5956 1201
5767 5765 9
5767 5766 12
5767 5957 1199
5768 5769 281
5769 5768 281
5770 5549 1121
5770 5711 746
5770 5837 523
5770 5905 1505
5771 5772 322
5771 5702 152
5772 5771 322
5772 5773 4532
5772 5776 13
5772 5830 501
5773 5772 4532
5774 5775 880
5774 8190 447
5775 5774 880
5775 8176 92
5776 5777 322
5776 5772 13
5776 5830 496
5777 5776 322
5777 5704 152
5778 5779 889
5778 8177 89
5779 5778 889
5779 8191 441
5780 5544 1922
5780 5824 564
5780 5838 656
5781 5469 1917
5781 5760 410
5781 5782 15
5781 5977 1158
5782 5472 1917
5782 5781 15
5782 5828 810
5782 5979 1153
5783 5784 2664
5783 5524 1260
5783 5786 14
5783 5804 230
5784 5783 2664
5785 5521 1790
5785 5488 1774
5785 5946 2114
5786 5783 14
5786 5525 1258
5786 5805 231
5787 5788 164
5787 5720 378
5788 5787 164
5788 5796 86
5788 6020 1793
5789 5790 29
5789 5791 16
5789 5904 1030
5790 5789 29
5790 5791 11
5790 5802 772
5791 5790 11
5791 5789 16
5792 5793 196
5792 5799 108
5792 6017 1741
5793 5792 196
5793 5719 381
5794 5708 829
5794 5506 1753
5794 5797 13
5794 5987 1563
5795 5536 2181
5795 5823 315
5795 5835 432
5796 5788 86
5796 5799 723
5796 5803 129
5797 5794 13
5797 5475 2061
5797 5830 788
5797 5991 1563
5798 5648 1038
5798 5851 423
5798 5857 494
5799 5796 723
5799 5792 108
5799 5800 63
5800 5799 63
5800 5813 160
5801 5744 881
5801 5896 178
5802 5790 772
5802 5818 87
5802 5827 375
5803 5796 129
5803 5836 244
5804 5783 230
5804 5805 18
5804 6160 1890
5805 5804 18
5805 5786 231
5805 5922 1153
5805 5970 1062
5806 5378 2402
5806 5807 837
5806 5808 18
5806 5809 23
5807 5806 837
5807 5755 440
5808 5379 2408
5808 5806 18
5808 5815 20
5808 5839 334
5809 5806 23
5809 5810 837
5809 5815 19
5809 6107 1687
5810 5809 837
5810 5758 437
5811 5812 156
5812 5811 156
5812 5816 16
5812 5848 315
5813 5814 319
5813 5800 160
5813 5834 153
5814 5813 319
5815 5808 20
5815 5809 19
5815 5841 331
5815 6112 1686
5816 5817 157
5816 5812 16
5816 5829 106
5816 5849 319
5817 5816 157
5818 5802 87
5819 5820 545
5820 5819 545
5820 5821 13
5820 5948 1572
5821 5822 547
5821 5820 13
5821 5952 1571
5821 5994 938
5822 5821 547
5823 5795 315
5823 5858 467
5823 5892 467
5824 5780 564
5824 5877 468
5824 5893 468
5825 5826 110
5825 5832 81
5825 5840 142
5826 5825 110
5826 5854 284
5826 5861 391
5827 5802 375
5828 5739 779
5828 5782 810
5828 5831 21
5828 6002 1011
5829 5816 106
5830 5776 496
5830 5772 501
5830 5833 1325
5830 5797 788
5830 6210 1714
5831 5740 795
5831 5828 21
5831 6003 1003
5831 6061 1809
5832 5825 81
5832 5847 171
5832 5860 264
5832 5913 540
5833 5830 1325
5834 5813 153
5834 5835 122
5834 5855 239
5835 5795 432
5835 5834 122
5835 5838 130
5836 5803 244
5836 5846 129
5836 5892 273
5837 5770 523
5837 5711 1099
5837 6030 1614
5837 6059 1333
5838 5780 656
5838 5835 130
5838 5855 144
5839 5808 334
5839 5932 791
5840 5825 142
5840 5842 358
5840 5852 109
5841 5815 331
5841 5937 791
5842 5840 358
5843 5844 20
5843 5845 65
5843 5848 111
5843 5864 142
5844 5843 20
5845 5843 65
5846 5836 129
5846 5856 114
5846 5858 218
5847 5832 171
5847 5860 96
5848 5812 315
5848 5843 111
5848 5849 9
5848 5859 122
5849 5816 319
5849 5848 9
5849 5868 178
5850 5851 371
5851 5850 371
5851 5798 423
5851 5898 378
5851 5945 472
5852 5853 358
5852 5840 109
5852 5869 134
5853 5852 358
5854 5826 284
5854 5861 55
5854 5873 135
5855 5838 144
5855 5834 239
5855 5878 127
5856 5846 114
5856 5877 207
5856 5889 152
5857 5798 494
5857 5898 211
5857 5915 1866
5857 6555 3270
5858 5846 218
5858 5823 467
5858 5892 467
5859 5848 122
5859 5866 56
5860 5847 96
5860 5832 264
5860 5894 131
5861 5826 391
5861 5854 55
5861 5862 19
5861 5865 35
5862 5861 19
5862 5865 34
5862 5891 84
5863 5864 87
5864 5863 87
5864 5843 142
5864 5878 197
5865 5862 34
5865 5861 35
5865 5883 48
5866 5859 56
5866 5939 349
5867 5662 1499
5867 5733 2957
5867 5876 19
5868 5849 178
5868 5942 350
5869 5852 134
5869 5875 15
5869 5894 128
5870 5871 208
5871 5870 208
5871 5872 1073
5871 5888 34
5872 5871 1073
5873 5854 135
5873 5883 102
5873 5916 159
5874 5460 2584
5874 5879 10
5874 5880 47
5875 5869 15
5875 5910 170
5875 5912 131
5876 5867 19
5876 5738 2974
5876 5966 495
5877 5856 207
5877 5824 468
5877 5893 468
5878 5855 127
5878 5864 197
5878 6001 772
5879 5874 10
5879 5884 22
5879 6005 1731
5880 5874 47
5880 5881 119
5880 5884 10
5880 5906 111
5881 5882 975
5881 5880 119
5881 5885 328
5882 5881 975
5883 5865 48
5883 5873 102
5883 5902 82
5884 5880 10
5884 5879 22
5885 5881 328
5885 5886 250
5885 5933 326
5886 5887 275
5886 5885 250
5886 5888 121
5886 5907 108
5887 5886 275
5888 5871 34
5888 5886 121
5888 5890 163
5888 5907 98
5889 5856 152
5889 5893 306
5889 5895 43
5890 5888 163
5890 5949 314
5890 5955 723
5891 5862 84
5891 5943 340
5892 5836 273
5892 6061 1269
5892 5823 467
5892 5858 467
5893 5889 306
5893 6063 1274
5893 5824 468
5893 5877 468
5894 5860 131
5894 5869 128
5894 5908 64
5895 5889 43
5895 5923 216
5895 5960 492
5896 5897 379
5896 5901 379
5896 5801 178
5897 5896 379
5897 8207 270
5898 5851 378
5898 5857 211
5898 5974 493
5899 5900 1329
5900 5899 1329
5900 5904 41
5901 5896 379
5901 8206 183
5902 5883 82
5902 5903 33
5902 5914 60
5903 5902 33
5903 5916 147
5904 5900 41
5904 5789 1030
5904 5953 473
5905 5748 1180
5905 5770 1505
5905 5909 26
5905 6058 1048
5906 5880 111
5906 5927 184
5906 5958 423
5907 5888 98
5907 5886 108
5907 5933 182
5907 6000 529
5908 5894 64
5908 5912 115
5908 5919 69
5909 5759 1124
5909 5905 26
5909 5934 326
5909 6085 1203
5910 5875 170
5910 5911 2827
5910 5917 114
5911 5910 2827
5911 8183 611
5912 5875 131
5912 5908 115
5912 5926 124
5913 5832 540
5913 8208 454
5914 5902 60
5914 5928 116
5914 5967 437
5915 5857 1866
5915 5924 541
5915 6268 1578
5916 5903 147
5916 5873 159
5916 5921 37
5917 5918 2882
5917 5910 114
5917 5926 204
5918 5917 2882
5918 5712 607
5918 8186 607
5919 5908 69
5919 5920 387
5919 5926 50
5919 5968 414
5920 5919 387
5920 8190 524
5921 5916 37
5921 5954 195
5921 5967 358
5922 5805 1153
5922 5980 498
5922 6010 850
5923 5895 216
5923 5941 344
5923 6006 529
5924 5915 541
5924 5925 773
5924 6204 1244
5925 5924 773
5926 5917 204
5926 5912 124
5926 5919 50
5926 5968 308
5927 5906 184
5927 5959 245
5927 5984 428
5928 5914 116
5928 5951 125
5929 5930 290
5929 8191 523
5930 5929 290
5930 5951 243
5931 5383 3040
5931 5932 174
5931 5936 15
5931 5982 1477
5932 5931 174
5932 5839 791
5933 5907 182
5933 5885 326
5933 5983 308
5933 6000 449
5934 5764 1469
5934 5909 326
5934 5935 8
5934 6044 835
5935 5766 1457
5935 5934 8
5935 5956 432
5935 6040 820
5936 5931 15
5936 5937 174
5936 5986 1484
5936 6076 839
5937 5936 174
5937 5841 791
5938 5746 1756
5938 6034 61
5939 5940 135
5939 5866 349
5940 5939 135
5940 5941 22
5940 5964 211
5941 5923 344
5941 5942 118
5941 5940 22
5942 5941 118
5942 5868 350
5943 5891 340
5943 8210 480
5944 5945 2812
5945 5944 2812
5945 5851 472
5945 5974 275
5945 6011 476
5946 5947 1219
5946 5785 2114
5946 5990 660
5946 6080 735
5947 5946 1219
5948 5820 1572
5948 5746 1323
5948 5952 8
5949 5890 314
5950 5728 1402
5950 5965 45
5951 5928 125
5951 5930 243
5952 5821 1571
5952 5948 8
5952 6133 949
5953 5904 473
5953 6030 1311
5953 6038 492
5954 5921 195
5954 5972 264
5954 6092 1010
5955 5890 723
5955 6067 857
5955 6144 2250
5956 5766 1201
5956 5935 432
5956 5957 13
5956 6040 460
5957 5767 1199
5957 5956 13
5957 5977 615
5957 6042 460
5958 5906 423
5958 5984 171
5958 5985 180
5959 5927 245
5959 6015 428
5959 6035 479
5960 5895 492
5960 5961 115
5960 5964 15
5960 5975 118
5961 5960 115
5962 5963 36
5962 5972 126
5963 5962 36
5963 5973 72
5964 5940 211
5964 5960 15
5964 6025 530
5965 5966 59
5965 5950 45
5966 5965 59
5966 5876 495
5966 6007 228
5967 5921 358
5967 5914 437
5967 5973 33
5968 5926 308
5968 5919 414
5968 5969 13
5969 5968 13
5969 5971 13
5969 5976 81
5970 5805 1062
5971 5969 13
5971 5973 91
5971 5978 81
5972 5962 126
5972 5954 264
5972 6095 935
5973 5967 33
5973 5963 72
5973 5971 91
5974 5945 275
5974 5898 493
5974 6004 184
5975 5960 118
5976 5969 81
5977 5781 1158
5977 5957 615
5977 5979 16
5977 6191 860
5978 5971 81
5979 5782 1153
5979 5977 16
5979 6002 482
5979 6194 862
5980 5922 498
5980 5981 1309
5980 6074 683
5980 6078 764
5981 5980 1309
5982 5931 1477
5982 6105 1227
5983 5933 308
5984 5958 171
5984 5927 428
5984 6015 247
5985 5958 180
5985 6008 195
5985 6046 357
5986 5936 1484
5986 6109 1229
5987 5988 765
5987 5794 1563
5987 5991 15
5987 6019 831
5988 5987 765
5989 5990 1192
5990 5989 1192
5990 5946 660
5990 6089 834
5990 6120 669
5991 5987 15
5991 5797 1563
5991 6028 581
5991 6093 945
5992 5530 2730
5993 5994 188
5993 5999 184
5994 5993 188
5994 5821 938
5994 5999 21
5994 6133 1575
5995 5996 1474
5995 6227 266
5996 5995 1474
5996 5726 145
5997 5998 1477
5997 5721 171
5998 5997 1477
5998 6228 269
5999 5993 184
5999 5994 21
5999 6022 196
5999 6153 1573
6000 5907 529
6000 5933 449
6000 6013 116
6001 5878 772
6001 6017 132
6001 6077 437
6002 5828 1011
6002 5979 482
6002 6003 18
6002 6218 871
6003 5831 1003
6003 6002 18
6003 6122 1743
6003 6219 872
6004 5974 184
6004 6082 670
6004 6170 735
6005 5879 1731
6005 6116 601
6006 5923 529
6006 6020 153
6006 6077 493
6007 5966 228
6007 5731 3899
6007 6144 687
6008 5985 195
6008 6021 122
6008 6046 411
6009 6010 948
6010 6009 948
6010 5922 850
6010 6074 662
6010 6160 849
6011 5945 476
6011 6014 239
6011 6075 417
6012 6013 561
6013 6012 561
6013 6000 116
6013 6047 244
6013 6067 275
6014 6011 239
6014 6016 64
6015 5984 247
6015 5959 428
6015 6026 103
6015 6054 277
6016 6014 64
6017 6001 132
6017 5792 1741
6017 6048 169
6018 6019 260
6018 8207 286
6019 6018 260
6019 6023 593
6019 5987 831
6020 5788 1793
6020 6006 153
6020 6051 157
6021 6008 122
6021 6047 168
6021 6091 426
6022 5999 196
6022 6212 360
6023 6024 113
6023 6019 593
6023 6027 97
6024 6023 113
6024 8212 325
6025 5964 530
6025 6181 638
6026 6015 103
6026 6073 293
6027 5708 2794
6027 6023 97
6027 6031 46
6027 6037 55
6028 6029 578
6028 5991 581
6028 6032 145
6029 6028 578
6029 6037 422
6029 6057 272
6030 5837 1614
6030 5953 1311
6030 6261 869
6031 5703 2832
6031 6027 46
6031 6037 21
6031 6080 1305
6032 6028 145
6032 8213 277
6033 6034 460
6033 6065 153
6033 6069 180
6034 6033 460
6034 5938 61
6035 5959 479
6035 6036 962
6035 6072 391
6035 6090 250
6036 6035 962
6037 6031 21
6037 6027 55
6037 6029 422
6037 6062 693
6037 6381 1437
6038 5953 492
6038 6039 1113
6038 6064 577
6038 6172 432
6039 6038 1113
6039 6041 1194
6039 6096 539
6040 5956 460
6040 5935 820
6040 6042 12
6040 6044 8
6041 6039 1194
6041 5631 2514
6041 6043 22
6041 6187 499
6042 5957 460
6042 6040 12
6042 6045 8
6043 6041 22
6043 5641 2503
6043 6089 574
6043 6189 499
6044 6040 8
6044 5934 835
6044 6045 12
6044 6138 372
6045 6042 8
6045 6044 12
6045 6137 369
6046 5985 357
6046 6008 411
6046 6054 67
6047 6013 244
6047 6021 168
6047 6060 52
6047 6070 140
6048 6017 169
6048 6270 740
6049 6050 164
6050 6049 164
6050 6068 81
6050 6090 549
6051 6020 157
6051 6353 727
6052 6053 85
6052 8214 34
6053 6052 85
6053 6098 77
6054 6046 67
6054 6015 277
6054 6073 99
6054 6091 225
6055 6056 99
6055 6088 76
6056 6055 99
6056 8212 59
6057 6029 272
6057 6087 75
6058 5905 1048
6058 6059 152
6058 6081 132
6059 5837 1333
6059 6058 152
6059 6081 93
6060 6047 52
6060 6066 36
6060 6066 101
6061 5892 1269
6061 5831 1809
6061 6063 13
6061 6122 353
6062 6037 693
6062 6199 1705
6062 6279 874
6063 5893 1274
6063 6061 13
6063 6127 350
6063 6181 381
6064 6038 577
6065 6033 153
6065 6102 195
6065 6108 340
6066 6060 36
6066 6060 101
6066 6070 103
6066 6079 160
6067 6013 275
6067 5955 857
6067 6079 139
6068 6050 81
6068 6116 298
6068 6175 388
6069 6033 180
6069 6103 166
6069 6124 275
6070 6066 103
6070 6047 140
6070 6157 381
6071 6072 137
6072 6071 137
6072 6035 391
6072 6123 298
6072 6136 272
6073 6054 99
6073 6026 293
6073 6101 208
6074 6010 662
6074 5980 683
6074 6207 929
6074 6272 1253
6075 6011 417
6076 5936 839
6076 6183 2476
6076 6232 649
6077 6001 437
6077 6006 493
6078 5980 764
6078 6084 21
6078 6207 488
6079 6067 139
6079 6066 160
6079 6128 276
6080 5946 735
6080 6031 1305
6080 6120 590
6081 6058 132
6081 6059 93
6081 6085 36
6081 6404 1530
6082 6004 670
6082 6083 436
6082 6134 429
6082 6200 399
6083 6082 436
6084 6078 21
6084 6208 484
6084 6316 1490
6085 5909 1203
6085 6081 36
6085 6258 777
6085 6406 1501
6086 6087 78
6086 6088 78
6086 6378 1541
6087 6086 78
6087 6057 75
6088 6086 78
6088 6055 76
6089 6043 574
6089 5990 834
6089 6198 478
6089 6096 2441
6090 6035 250
6090 6050 549
6090 6136 292
6090 6175 365
6091 6021 426
6091 6054 225
6091 6101 95
6092 5954 1010
6092 6274 612
6093 5991 945
6093 6094 1379
6093 6210 1181
6093 6297 834
6094 6093 1379
6095 5972 935
6095 6312 613
6096 6039 539
6096 6097 218
6096 6172 996
6096 6089 2441
6097 6096 218
6097 6106 403
6097 6111 350
6098 6099 177
6098 6053 77
6099 6098 177
6099 6100 133
6099 6376 1426
6100 6099 133
6100 8214 243
6101 6091 95
6101 6073 208
6101 6157 139
6102 6065 195
6102 6114 246
6102 6185 125
6103 6069 166
6103 6117 250
6103 6188 119
6104 6105 1505
6104 6108 122
6104 6139 940
6105 6104 1505
6105 5982 1227
6106 6097 403
6107 5809 1687
6107 6112 12
6107 6113 9
6108 6065 340
6108 6104 122
6108 6114 165
6109 6110 1452
6109 5986 1229
6110 6109 1452
6110 6131 163
6110 6143 694
6111 6097 350
6111 6162 109
6112 5815 1686
6112 6107 12
6112 6115 10
6112 6182 414
6113 6107 9
6113 6115 13
6113 6540 2201
6114 6102 246
6114 6108 165
6114 6117 112
6115 6112 10
6115 6113 13
6115 6184 416
6115 6556 2291
6116 6068 298
6116 6005 601
6116 6201 302
6116 6263 965
6117 6103 250
6117 6114 112
6117 6124 154
6118 6119 60
6118 6121 55
6118 6126 53
6119 6118 60
6119 6125 189
6120 5990 669
6120 6080 590
6120 6198 515
6121 6118 55
6121 8217 228
6122 6061 353
6122 6003 1743
6122 6127 11
6123 6072 298
6123 6197 258
6123 6222 350
6124 6069 275
6124 6117 154
6124 6125 100
6125 6119 189
6125 6124 100
6125 6132 295
6126 6118 53
6126 6130 31
6127 6063 350
6127 6122 11
6127 6214 358
6128 6079 276
6128 6348 173
6129 6130 319
6129 8218 6
6130 6129 319
6130 6126 31
6131 6110 163
6131 6135 145
6131 6213 305
6132 6125 295
6132 6159 32
6133 5994 1575
6133 5952 949
6133 6153 25
6133 6154 121
6134 6082 429
6135 6131 145
6135 6140 126
6135 6185 229
6136 6072 272
6136 6090 292
6136 6222 344
6136 6230 484
6137 6045 369
6137 6138 12
6137 6149 12
6137 6191 537
6138 6137 12
6138 6044 372
6138 6145 11
6138 6258 1003
6139 6104 940
6139 6171 31
6140 6135 126
6140 6148 160
6140 6188 242
6141 6142 462
6141 6147 31
6142 6141 462
6142 8216 255
6143 6110 694
6143 6150 25
6143 6152 289
6144 6007 687
6144 5955 2250
6144 6347 2097
6144 6524 1780
6145 6138 11
6145 6149 12
6145 6259 991
6146 6147 40
6146 6151 33
6146 6158 179
6147 6146 40
6147 6141 31
6148 6140 160
6148 6150 79
6148 6209 345
6149 6137 12
6149 6145 12
6149 6195 536
6150 6143 25
6150 6148 79
6150 6155 150
6151 6146 33
6151 8218 462
6152 6143 289
6152 6174 31
6153 5999 1573
6153 6133 25
6153 6161 128
6154 6133 121
6154 6158 464
6154 6171 1465
6155 6150 150
6155 6156 156
6155 6165 130
6156 6155 156
6156 6176 30
6157 6070 381
6157 6101 139
6157 6197 209
6158 6146 179
6158 6159 991
6158 6154 464
6159 6158 991
6159 6132 32
6160 5804 1890
6160 6010 849
6160 6204 478
6160 6272 555
6161 6153 128
6161 6174 1475
6161 6177 586
6162 6163 316
6162 6111 109
6163 6162 316
6163 6164 356
6163 6178 139
6164 6163 356
6165 6155 130
6165 6166 21
6166 6165 21
6166 6167 30
6167 6168 64
6167 6173 62
6167 6166 30
6168 6167 64
6168 6192 232
6169 6170 349
6170 6169 349
6170 6004 735
6170 6239 621
6170 6451 1765
6171 6154 1465
6171 6139 31
6172 6038 432
6172 6096 996
6172 6261 1296
6172 6333 764
6173 6167 62
6173 8223 339
6174 6161 1475
6174 6152 31
6175 6090 365
6175 6068 388
6175 6201 255
6175 6230 289
6176 6177 900
6176 6156 30
6177 6176 900
6177 6179 107
6177 6161 586
6178 6163 139
6179 6177 107
6179 6180 58
6180 6179 58
6180 6186 84
6180 6190 406
6181 6025 638
6181 6063 381
6181 6202 133
6181 6203 127
6181 6214 230
6181 6215 231
6182 6112 414
6182 6233 376
6183 6076 2476
6184 6115 416
6184 6233 377
6185 6135 229
6185 6213 195
6185 6102 125
6186 6180 84
6186 8224 152
6187 6041 499
6187 6252 308
6187 6253 308
6188 6140 242
6188 6209 185
6188 6103 119
6189 6043 499
6189 6255 306
6189 6256 306
6190 6180 406
6190 8221 46
6191 5977 860
6191 6137 537
6191 6194 12
6191 6195 11
6192 6193 244
6192 6168 232
6193 6192 244
6193 8222 277
6194 5979 862
6194 6191 12
6194 6196 11
6194 6218 548
6195 6191 11
6195 6149 536
6195 6196 13
6196 6194 11
6196 6195 13
6196 6220 548
6197 6157 209
6197 6123 258
6197 6206 225
6197 6223 186
6198 6089 478
6198 6120 515
6198 6199 14
6198 6335 985
6199 6198 14
6199 6062 1705
6199 6340 1011
6200 6082 399
6201 6175 255
6201 6116 302
6201 6254 306
6201 6308 901
6202 6181 133
6202 6398 850
6203 6181 127
6203 6388 847
6204 6205 862
6204 5924 1244
6204 6160 478
6204 6300 460
6205 6204 862
6206 6197 225
6206 6222 162
6206 6225 219
6207 6074 929
6207 6078 488
6207 6208 21
6207 6384 971
6208 6207 21
6208 6084 484
6208 6367 1398
6208 6386 968
6209 6148 345
6209 6188 185
6209 6810 2989
6210 6093 1181
6210 5830 1714
6210 6403 880
6211 6212 373
6211 6366 1817
6212 6211 373
6212 6022 360
6213 6185 195
6213 6131 305
6213 6808 2964
6214 6181 230
6214 6127 358
6214 6215 11
6214 6489 1688
6215 6181 231
6215 6214 11
6215 6493 1688
6216 6217 1307
6216 6265 230
6216 6315 444
6217 6216 1307
6217 5687 1598
6218 6002 871
6218 6194 548
6218 6219 14
6218 6220 10
6219 6003 872
6219 6218 14
6219 6221 8
6219 6242 731
6220 6218 10
6220 6196 548
6220 6221 13
6220 6424 1018
6221 6219 8
6221 6220 13
6221 6242 729
6221 6426 1022
6222 6206 162
6222 6123 350
6222 6136 344
6222 6231 87
6223 6197 186
6223 6247 150
6223 6257 293
6224 6225 58
6225 6224 58
6225 6206 219
6225 6257 162
6226 6227 662
6226 6665 789
6227 6226 662
6227 5995 266
6228 6229 661
6228 5998 269
6229 6228 661
6229 6667 791
6230 6136 484
6230 6175 289
6230 6254 223
6230 6267 239
6231 6222 87
6231 6241 43
6231 6260 299
6232 6076 649
6232 6233 442
6232 6276 491
6233 6232 442
6233 6182 376
6233 6184 377
6234 6235 269
6235 6234 269
6235 6236 211
6235 6248 165
6235 6302 287
6236 6235 211
6237 6238 219
6238 6237 219
6239 6170 621
6239 6240 41
6239 6283 251
6240 6239 41
6241 6231 43
6241 6243 31
6241 6246 37
6242 6219 731
6242 6221 729
6242 6584 72
6243 6241 31
6243 6282 225
6243 6289 208
6244 6245 1421
6244 5688 1602
6245 6244 1421
6245 6313 310
6245 6331 409
6246 6241 37
6246 6257 297
6246 6273 227
6247 6223 150
6247 6277 331
6247 6433 1320
6248 6235 165
6248 6249 12
6248 6250 30
6249 6248 12
6249 6251 3
6249 6305 267
6250 6248 30
6250 6251 17
6250 6266 1423
6251 6249 3
6251 6250 17
6252 6187 308
6252 6328 133
6253 6187 308
6253 8229 496
6254 6230 223
6254 6201 306
6254 6286 232
6255 6189 306
6255 8230 497
6256 6189 306
6256 6322 131
6257 6223 293
6257 6225 162
6257 6246 297
6257 6273 205
6257 6277 142
6258 6138 1003
6258 6085 777
6258 6259 12
6258 6409 770
6259 6145 991
6259 6258 12
6259 6400 732
6259 6410 762
6260 6231 299
6260 6267 96
6260 6281 146
6261 6030 869
6261 6172 1296
6261 6292 245
6261 6429 784
6262 5525 5190
6262 5457 6929
6262 7686 11201
6262 6750 254
6263 6116 965
6263 6264 417
6263 6278 188
6263 6308 320
6264 6263 417
6265 6216 230
6265 6307 180
6265 6324 285
6266 6250 1423
6267 6260 96
6267 6230 239
6267 6286 194
6268 5915 1578
6268 6271 667
6268 6301 1253
6268 6341 351
6269 6270 163
6269 6275 279
6269 6776 2300
6270 6269 163
6270 6048 740
6271 6268 667
6272 6160 555
6272 6074 1253
6272 6300 567
6272 6444 875
6273 6257 205
6273 6246 227
6273 6280 81
6273 6291 76
6274 6275 364
6274 6092 612
6275 6274 364
6275 6269 279
6275 6306 152
6276 6232 491
6276 6343 533
6276 6473 1066
6277 6247 331
6277 6257 142
6277 6304 191
6278 6263 188
6279 6062 874
6280 6273 81
6280 6289 124
6280 6299 84
6281 6260 146
6281 6294 36
6281 6303 141
6282 6243 225
6282 6285 7
6282 6287 60
6282 6330 201
6283 6239 251
6283 6284 905
6283 6399 652
6284 6283 905
6285 6282 7
6285 6289 41
6285 6290 28
6286 6267 194
6286 6254 232
6286 6329 264
6286 6377 831
6287 6282 60
6287 6288 151
6287 6294 67
6287 6325 187
6288 6287 151
6289 6243 208
6289 6285 41
6289 6280 124
6289 6290 8
6289 6321 169
6290 6289 8
6290 6285 28
6291 6273 76
6291 6299 62
6291 6304 59
6292 6293 742
6292 6261 245
6292 6404 889
6293 6292 742
6294 6287 67
6294 6281 36
6294 6314 81
6295 6296 945
6296 6295 945
6297 6298 1560
6297 6093 834
6297 6403 1447
6297 6430 699
6298 6297 1560
6299 6291 62
6299 6280 84
6299 6309 82
6300 6204 460
6300 6301 1
6300 6301 16
6300 6272 567
6301 6268 1253
6301 6300 1
6301 6300 16
6301 6517 998
6302 6235 287
6303 6281 141
6303 6318 100
6304 6277 191
6304 6291 59
6304 6317 123
6305 6249 267
6306 6275 152
6306 6351 225
6307 6265 180
6307 6365 324
6308 6201 901
6308 6263 320
6308 6377 509
6308 6415 994
6309 6299 82
6309 6310 78
6309 6321 160
6310 6309 78
6311 6312 539
6311 6422 217
6312 6311 539
6312 6095 613
6313 6245 310
6313 8227 135
6314 6294 81
6314 6318 54
6314 6320 61
6315 6216 444
6315 8228 211
6315 8245 812
6316 6084 1490
6316 6367 331
6316 6463 1040
6317 6304 123
6317 6319 24
6317 6326 246
6318 6314 54
6318 6303 100
6318 6320 51
6319 6317 24
6320 6314 61
6320 6318 51
6320 6325 64
6321 6309 160
6321 6289 169
6321 6326 17
6322 6323 216
6322 6256 131
6323 6322 216
6323 6345 118
6323 6354 175
6324 6265 285
6324 6475 692
6325 6287 187
6325 6320 64
6325 6330 61
6326 6321 17
6326 6330 34
6326 6317 246
6327 6328 230
6327 6344 100
6327 6357 175
6328 6327 230
6328 6252 133
6329 6286 264
6329 6377 1263
6329 6601 2212
6330 6326 34
6330 6282 201
6330 6325 61
6330 6332 29
6331 6245 409
6332 6330 29
6333 6172 764
6333 6334 1044
6333 6337 22
6333 6429 1309
6334 6333 1044
6334 6339 285
6334 6346 558
6335 6198 985
6335 6336 26
6335 6354 303
6336 6335 26
6336 6349 182
6336 6356 710
6337 6333 22
6337 6338 1032
6337 6438 1316
6337 6697 1641
6338 6337 1032
6338 6342 286
6338 6371 708
6339 6334 285
6339 6355 117
6340 6199 1011
6340 6359 179
6340 6361 725
6341 6268 351
6342 6338 286
6342 6362 118
6343 6276 533
6344 6327 100
6344 8232 40
6345 6323 118
6345 8233 37
6346 6334 558
6346 6350 55
6346 6356 89
6347 6144 2097
6347 6348 1048
6347 6394 194
6347 6402 509
6348 6347 1048
6348 6128 173
6349 6336 182
6349 8234 148
6350 6346 55
6350 6357 298
6350 6358 183
6351 6352 262
6351 6306 225
6352 6351 262
6352 6353 613
6352 6417 1154
6353 6352 613
6353 6777 2463
6353 6051 727
6354 6323 175
6354 6335 303
6354 6357 153
6355 6356 242
6355 6339 117
6356 6355 242
6356 6346 89
6356 6336 710
6357 6327 175
6357 6354 153
6357 6350 298
6358 6350 183
6358 8235 143
6359 6340 179
6359 6360 13
6359 6495 603
6360 6359 13
6360 8236 158
6361 6362 243
6361 6371 61
6361 6340 725
6362 6361 243
6362 6342 118
6363 6364 188
6363 8231 187
6364 6363 188
6364 6365 80
6364 6374 123
6365 6364 80
6365 6307 324
6366 6211 1817
6366 6525 388
6367 6208 1398
6367 6316 331
6367 6401 595
6367 6407 204
6368 6369 42
6368 6370 17
6368 6372 20
6368 6432 657
6369 6368 42
6370 6368 17
6371 6338 708
6371 6361 61
6371 6375 95
6372 6368 20
6372 6373 18
6372 6439 656
6372 6781 2030
6373 6372 18
6374 6364 123
6374 8238 57
6375 6371 95
6375 8237 148
6376 6099 1426
6376 6453 106
6377 6286 831
6377 6308 509
6377 6415 1267
6377 6329 1263
6378 6086 1541
6378 6457 106
6379 6380 314
6379 8231 187
6380 6379 314
6380 8243 60
6381 6037 1437
6381 6430 1676
6381 6602 1080
6382 6383 314
6382 8244 62
6383 6382 314
6383 6385 274
6383 6494 763
6384 6207 971
6384 6386 23
6384 6387 22
6384 6444 873
6385 6383 274
6385 8245 534
6386 6384 23
6386 6208 968
6386 6387 18
6386 6401 1205
6387 6384 22
6387 6386 18
6387 6446 867
6387 6551 801
6388 6389 74
6388 6521 641
6388 6203 847
6389 6388 74
6389 6408 84
6389 6455 1019
6390 6391 153
6390 8238 12
6391 6390 153
6391 8251 629
6392 6393 85
6392 8243 12
6393 6392 85
6393 6418 328
6393 6419 384
6394 6347 194
6394 6759 250
6395 6396 58
6395 6405 96
6395 6437 550
6396 6395 58
6396 8244 11
6397 6398 108
6397 6420 300
6397 6425 144
6398 6397 108
6398 6502 567
6398 6202 850
6399 6283 652
6400 6259 732
6400 6410 632
6400 6427 1257
6400 6484 420
6401 6386 1205
6401 6367 595
6401 6572 858
6402 6347 509
6403 6297 1447
6403 6210 880
6403 6468 303
6404 6081 1530
6404 6292 889
6404 6406 37
6404 6548 740
6405 6395 96
6405 6423 246
6405 6434 300
6406 6085 1501
6406 6404 37
6406 6409 944
6406 6550 740
6407 6367 204
6408 6389 84
6408 6440 149
6408 6474 461
6409 6258 770
6409 6406 944
6409 6410 12
6409 6559 765
6410 6259 762
6410 6409 12
6410 6400 632
6410 6560 767
6411 6412 151
6411 8227 312
6412 6411 151
6412 6462 234
6413 6414 959
6414 6413 959
6415 6377 1267
6415 6308 994
6415 6451 953
6416 5728 4271
6416 6419 12
6417 6352 1154
6417 6420 59
6417 6441 308
6418 6393 328
6418 6507 107
6419 6393 384
6419 6416 12
6419 6434 68
6419 6461 314
6420 6417 59
6420 6397 300
6420 6436 244
6421 6422 1405
6421 6428 93
6421 6445 316
6422 6421 1405
6422 6311 217
6423 6405 246
6423 6497 109
6424 6220 1018
6424 6426 21
6424 6427 27
6425 6397 144
6425 6436 210
6425 6452 110
6426 6221 1022
6426 6424 21
6426 6431 24
6427 6424 27
6427 6400 1257
6427 6435 41
6428 6421 93
6428 6447 228
6428 6476 358
6429 6261 784
6429 6333 1309
6429 6438 30
6429 6548 965
6430 6381 1676
6430 6297 699
6430 6619 1016
6431 6426 24
6431 6435 43
6431 6478 735
6432 6368 657
6433 6247 1320
6433 6448 99
6433 6515 488
6434 6405 300
6434 6419 68
6434 6470 331
6434 6531 509
6435 6427 41
6435 6431 43
6435 6477 200
6436 6420 244
6436 6425 210
6436 6450 100
6437 6395 550
6437 8227 837
6437 8251 837
6438 6429 30
6438 6337 1316
6438 6552 957
6438 6758 1439
6439 6372 656
6440 6408 149
6440 6450 255
6440 6460 91
6441 6417 308
6441 6480 101
6442 6443 202
6442 6471 288
6443 6442 202
6443 8244 227
6444 6272 875
6444 6384 873
6444 6446 22
6444 6517 763
6445 6421 316
6445 6488 100
6446 6444 22
6446 6387 867
6446 6523 765
6446 6680 1473
6447 6428 228
6447 6452 206
6447 6459 102
6448 6433 99
6448 6449 138
6448 6533 424
6449 6448 138
6450 6440 255
6450 6474 296
6450 6436 100
6451 6415 953
6451 6170 1765
6451 6545 506
6452 6425 110
6452 6447 206
6452 6476 129
6453 6454 1093
6453 6376 106
6454 6453 1093
6454 6468 407
6454 6469 340
6455 6389 1019
6456 6457 1115
6456 6472 321
6456 6490 392
6457 6456 1115
6457 6378 106
6458 6459 43
6458 6460 209
6458 6479 230
6459 6458 43
6459 6447 102
6460 6440 91
6460 6458 209
6460 6506 173
6461 6419 314
6461 6462 196
6461 6508 282
6462 6461 196
6462 6412 234
6463 6316 1040
6464 6465 1778
6464 8252 535
6465 6464 1778
6465 8208 1187
6466 6467 1785
6466 8210 1182
6467 6466 1785
6467 8257 1598
6468 6454 407
6468 6403 303
6468 6483 304
6468 6485 78
6469 6454 340
6469 6482 117
6470 6471 214
6470 6434 331
6470 6496 200
6471 6470 214
6471 6442 288
6472 6456 321
6472 6492 115
6473 6276 1066
6473 6511 304
6474 6450 296
6474 6408 461
6474 6481 48
6475 6324 692
6475 6536 79
6476 6428 358
6476 6452 129
6476 6502 80
6477 6435 200
6477 6516 122
6477 6520 147
6478 6431 735
6478 8250 75
6479 6458 230
6479 6487 42
6479 6506 304
6480 6481 334
6480 6441 101
6481 6480 334
6481 6474 48
6481 6699 1368
6482 6483 253
6482 6469 117
6483 6482 253
6483 6468 304
6483 6486 1587
6484 6400 420
6484 6547 1021
6484 6571 584
6484 6590 677
6485 6468 78
6485 6490 15
6485 6491 307
6486 6483 1587
6486 8231 582
6487 6479 42
6487 6488 323
6487 6700 1362
6488 6487 323
6488 6445 100
6489 6214 1688
6489 6627 325
6490 6456 392
6490 6485 15
6490 6745 1165
6491 6492 257
6491 6485 307
6491 6494 1596
6492 6491 257
6492 6472 115
6493 6215 1688
6493 6630 322
6494 6491 1596
6494 6383 763
6495 6359 603
6495 6592 2234
6495 6706 932
6496 6470 200
6496 6497 477
6496 6704 1611
6497 6496 477
6497 6423 109
6498 6499 123
6498 6500 35
6498 6501 4
6499 6498 123
6500 6498 35
6500 6505 158
6500 6522 474
6501 6498 4
6501 6503 114
6501 6549 308
6502 6476 80
6502 6398 567
6502 6757 1208
6503 6504 82
6503 6501 114
6503 6509 168
6503 6528 102
6504 6503 82
6505 6500 158
6505 6527 309
6505 6589 523
6506 6460 173
6506 6479 304
6506 6521 69
6507 6508 539
6507 6418 107
6508 6507 539
6508 6461 282
6508 6698 1561
6509 6503 168
6509 6510 42
6510 6511 150
6510 6509 42
6511 6510 150
6511 6473 304
6512 6513 204
6512 8239 376
6513 6512 204
6513 8254 133
6514 6515 209
6515 6514 209
6515 6433 488
6515 6616 640
6515 6652 788
6516 6477 122
6516 6520 65
6516 6569 479
6517 6301 998
6517 6444 763
6517 6523 25
6517 6555 2468
6518 6519 228
6518 8253 113
6519 6518 228
6519 8240 374
6520 6516 65
6520 6477 147
6520 6547 209
6521 6388 641
6521 6506 69
6521 6756 1128
6522 6500 474
6522 6570 114
6523 6517 25
6523 6446 765
6523 6529 30
6523 6562 2472
6524 6144 1780
6524 6794 2139
6525 6526 323
6525 6366 388
6526 6525 323
6526 6578 68
6527 6505 309
6527 6575 110
6528 6503 102
6529 6523 30
6529 6530 35
6529 6657 1097
6530 6529 35
6531 6434 509
6531 6537 266
6531 6828 1650
6532 6533 269
6533 6532 269
6533 6448 424
6533 6601 489
6534 6535 326
6534 6544 118
6534 6541 346
6535 6534 326
6535 6557 346
6535 6566 350
6536 6537 215
6536 6475 79
6537 6536 215
6537 6531 266
6537 6815 2937
6538 6539 75
6538 6568 243
6539 6538 75
6539 6541 46
6540 6113 2201
6540 6544 167
6540 6561 108
6541 6539 46
6541 6534 346
6541 6557 109
6542 6543 171
6543 6542 171
6543 6546 34
6543 6546 35
6543 6553 140
6544 6534 118
6544 6540 167
6544 6563 101
6545 6451 506
6546 6543 34
6546 6543 35
6546 6553 120
6546 6574 147
6547 6520 209
6547 6484 1021
6547 6586 180
6548 6404 740
6548 6429 965
6548 6550 32
6548 6552 22
6549 6501 308
6550 6406 740
6550 6548 32
6550 6554 19
6550 6559 908
6551 6387 801
6551 6572 901
6551 6573 381
6551 6680 475
6552 6548 22
6552 6438 957
6552 6554 30
6552 6791 1035
6553 6543 140
6553 6546 120
6554 6550 19
6554 6552 30
6554 6564 908
6554 6681 467
6555 5857 3270
6555 6517 2468
6555 6562 21
6555 6884 9756
6556 6115 2291
6556 6558 9
6556 6570 963
6557 6541 109
6557 6535 346
6557 6580 167
6558 6556 9
6558 6575 973
6558 6754 1057
6559 6409 765
6559 6550 908
6559 6560 12
6559 6564 18
6560 6410 767
6560 6559 12
6560 6565 18
6560 6590 680
6561 6540 108
6561 6563 149
6561 6720 621
6562 6555 21
6562 6523 2472
6562 6814 1296
6562 6890 9778
6563 6561 149
6563 6544 101
6563 6594 193
6564 6559 18
6564 6554 908
6564 6565 12
6564 6689 494
6565 6560 18
6565 6564 12
6565 6591 684
6565 6690 492
6566 6535 350
6566 6576 62
6566 6598 185
6567 6568 235
6567 8256 449
6568 6567 235
6568 6538 243
6569 6516 479
6569 6583 73
6569 6599 234
6570 6556 963
6570 6522 114
6571 6484 584
6571 6582 395
6571 6633 296
6572 6551 901
6572 6401 858
6572 6587 574
6572 6752 726
6573 6551 381
6574 6546 147
6574 6577 16
6574 6698 1019
6574 6794 1817
6575 6558 973
6575 6527 110
6576 6566 62
6576 6585 79
6576 6600 231
6577 6574 16
6578 6579 283
6578 6526 68
6579 6578 283
6579 6669 72
6580 6581 377
6580 6557 167
6581 6580 377
6581 8252 346
6582 6571 395
6582 6586 146
6582 6631 247
6583 6584 1847
6583 6569 73
6583 6604 237
6583 6634 458
6584 6583 1847
6584 6242 72
6585 6576 79
6585 6605 243
6586 6547 180
6586 6582 146
6586 6599 318
6587 6572 574
6587 6588 95
6587 6686 501
6588 6587 95
6588 6595 126
6589 6505 523
6589 6610 302
6589 6622 186
6590 6484 677
6590 6560 680
6590 6591 12
6591 6590 12
6591 6565 684
6591 6722 490
6592 6495 2234
6592 6593 630
6592 6706 1656
6593 6592 630
6593 6603 172
6594 6563 193
6594 6683 311
6595 6596 293
6595 6588 126
6596 6595 293
6596 6597 771
6596 6679 275
6597 6596 771
6598 6566 185
6598 6608 84
6598 6609 378
6599 6569 234
6599 6586 318
6599 6653 334
6599 6604 70
6600 6576 231
6600 6613 120
6600 6685 455
6601 6533 489
6601 6329 2212
6601 6652 383
6601 6841 1696
6602 6603 463
6602 6381 1080
6602 6614 602
6602 6852 1767
6603 6602 463
6603 6593 172
6604 6583 237
6604 6724 659
6604 6730 664
6604 6932 2561
6604 8261 2561
6604 8262 2561
6604 6599 70
6605 6585 243
6605 8257 489
6606 6607 139
6606 6611 76
6606 6612 157
6607 6606 139
6607 6608 90
6607 6617 94
6608 6598 84
6608 6607 90
6608 6635 159
6609 6598 378
6609 6648 238
6610 6589 302
6611 6606 76
6611 6617 21
6611 6618 129
6612 6606 157
6612 6659 237
6613 6600 120
6613 6625 53
6613 6635 402
6614 6602 602
6614 6619 1337
6614 6623 1343
6615 6616 211
6616 6615 211
6616 6515 640
6616 6682 188
6616 6696 230
6617 6607 94
6617 6611 21
6617 6636 83
6618 6611 129
6618 6624 88
6618 6626 25
6619 6430 1016
6619 6623 8
6619 6614 1337
6620 6621 381
6620 8255 344
6621 6620 381
6621 6645 152
6622 6589 186
6623 6619 8
6623 6614 1343
6623 6836 1291
6624 6618 88
6624 6639 70
6624 6655 163
6625 6613 53
6625 6645 185
6626 6618 25
6626 6639 71
6626 6676 140
6627 6628 573
6627 6489 325
6628 6627 573
6628 6629 25
6628 6637 30
6629 6630 569
6629 6628 25
6629 6640 27
6629 6642 210
6630 6629 569
6630 6493 322
6631 6582 247
6631 6632 3
6631 6653 216
6631 6678 450
6632 6631 3
6633 6571 296
6633 6678 77
6633 6695 596
6634 6583 458
6634 6637 22
6634 6638 22
6635 6613 402
6635 6608 159
6635 6688 252
6636 6617 83
6636 6676 112
6636 6747 513
6637 6628 30
6637 6634 22
6637 6638 4
6637 6640 25
6638 6637 4
6638 6634 22
6638 6641 25
6638 6643 23
6639 6626 71
6639 6624 70
6639 6655 68
6640 6629 27
6640 6637 25
6640 6641 8
6640 6644 41
6641 6640 8
6641 6638 25
6641 6646 39
6641 6647 24
6642 6629 210
6642 8258 121
6643 6638 23
6643 6647 25
6643 6724 224
6644 6640 41
6644 8258 57
6645 6625 185
6645 6621 152
6646 6641 39
6646 8259 57
6647 6641 24
6647 6643 25
6647 6692 217
6647 6727 218
6648 6649 273
6648 6609 238
6649 6648 273
6649 6654 11
6649 6658 13
6649 6723 486
6650 6651 1324
6651 6650 1324
6651 6697 829
6651 6758 941
6651 6769 516
6652 6515 788
6652 6601 383
6652 6708 154
6652 6755 855
6653 6599 334
6653 6631 216
6653 6666 15
6653 8261 79
6654 6649 11
6654 6660 17
6654 6661 14
6654 6660 397
6655 6639 68
6655 6624 163
6655 6703 189
6656 6657 1101
6657 6656 1101
6657 6529 1097
6657 6814 1336
6657 7279 5394
6658 6659 265
6658 6649 13
6658 6661 11
6658 6819 1011
6659 6658 265
6659 6612 237
6660 6654 17
6660 6654 397
6660 6723 361
6661 6658 11
6661 6654 14
6661 6821 1012
6661 6866 1692
6662 6663 427
6662 8254 348
6663 6662 427
6663 7150 2673
6664 6665 1255
6664 6939 305
6665 6664 1255
6665 6226 789
6666 6653 15
6666 6678 659
6666 6829 1057
6666 8262 80
6667 6668 1253
6667 6229 791
6668 6667 1253
6668 6940 306
6669 6670 270
6669 6579 72
6670 6669 270
6670 6774 75
6671 6672 424
6671 7146 2660
6672 6671 424
6672 8253 363
6673 6674 879
6673 6677 926
6674 6673 879
6674 6675 907
6674 6677 14
6674 6817 867
6675 6674 907
6676 6636 112
6676 6626 140
6676 6709 187
6677 6673 926
6677 6674 14
6677 6818 864
6678 6633 77
6678 6631 450
6678 6666 659
6678 6737 622
6679 6596 275
6679 6687 53
6680 6446 1473
6680 6551 475
6680 6752 799
6681 6554 467
6681 6684 53
6681 6691 39
6682 6616 188
6682 6696 132
6682 6721 161
6683 6594 311
6683 6685 29
6683 6720 279
6684 6681 53
6684 6691 54
6684 6689 759
6685 6683 29
6685 6600 455
6685 6688 65
6686 6587 501
6686 6687 30
6686 6812 751
6687 6686 30
6687 6679 53
6688 6635 252
6688 6685 65
6688 6738 248
6689 6564 494
6689 6690 11
6689 6684 759
6689 6744 262
6690 6565 492
6690 6689 11
6690 6743 261
6691 6684 54
6691 6681 39
6691 6787 514
6692 6647 217
6692 8259 114
6693 6694 1541
6694 6693 1541
6695 6633 596
6695 6701 89
6695 6702 63
6695 6717 63
6696 6616 230
6696 6682 132
6696 6726 185
6697 6651 829
6697 6337 1641
6697 6706 2157
6698 6508 1561
6698 6574 1019
6698 6704 23
6698 6857 1953
6699 6481 1368
6699 6751 308
6700 6487 1362
6700 6765 315
6700 8270 315
6701 6695 89
6701 6702 27
6701 6722 230
6702 6695 63
6702 6701 27
6702 6705 25
6702 6717 68
6703 6655 189
6704 6496 1611
6704 6698 23
6704 6804 1158
6704 6858 1954
6705 6702 25
6705 6719 68
6705 6729 253
6706 6495 932
6706 6592 1656
6706 6697 2157
6706 7142 3533
6707 6708 94
6708 6707 94
6708 6652 154
6708 6736 369
6708 6784 456
6709 6676 187
6710 6711 43
6710 6713 37
6710 6716 39
6711 6710 43
6711 8258 195
6712 6713 64
6712 6732 157
6712 6751 431
6712 8265 211
6713 6712 64
6713 6710 37
6713 6716 18
6714 6715 58
6714 6733 99
6714 8259 195
6715 6714 58
6715 6718 20
6715 6733 98
6716 6713 18
6716 6710 39
6716 6763 88
6717 6695 63
6717 6702 68
6717 6719 47
6717 6737 81
6718 6715 20
6718 6732 78
6718 6767 92
6719 6717 47
6719 6705 68
6719 6779 392
6720 6561 621
6720 6683 279
6720 6738 240
6721 6682 161
6722 6701 230
6722 6591 490
6722 6729 25
6723 6660 361
6723 6649 486
6723 6865 1319
6724 6643 224
6724 6604 659
6724 6727 13
6724 6730 8
6725 6726 54
6726 6725 54
6726 6696 185
6726 6742 159
6727 6647 218
6727 6724 13
6727 6728 0
6727 6731 8
6728 6727 0
6729 6705 253
6729 6722 25
6729 6778 635
6730 6724 8
6730 6604 664
6730 6731 13
6730 6899 1706
6731 6727 8
6731 6730 13
6731 6901 1714
6732 6718 78
6732 6733 60
6732 6712 157
6733 6732 60
6733 6715 98
6733 6714 99
6733 6741 134
6734 6735 1012
6735 6734 1012
6736 6708 369
6737 6678 622
6737 6717 81
6737 6773 304
6738 6720 240
6738 6688 248
6738 6748 140
6739 6740 246
6739 6741 47
6739 6859 952
6740 6739 246
6741 6733 134
6741 6739 47
6741 6746 54
6742 6726 159
6743 6690 261
6743 6744 11
6743 6778 220
6744 6743 11
6744 6689 262
6744 6780 227
6744 6787 850
6745 6490 1165
6745 6761 127
6745 6836 880
6746 6741 54
6746 6792 406
6746 6807 412
6747 6636 513
6747 6748 54
6747 6753 39
6748 6738 140
6748 6747 54
6748 6753 41
6749 6750 3093
6750 6749 3093
6750 6262 254
6751 6712 431
6751 6762 121
6751 6699 308
6752 6680 799
6752 6572 726
6752 6820 593
6752 6847 1340
6753 6748 41
6753 6747 39
6753 6754 13
6753 6819 741
6754 6558 1057
6754 6753 13
6754 7152 4792
6755 6652 855
6755 6760 55
6756 6521 1128
6756 6851 591
6757 6502 1208
6757 6850 593
6758 6438 1439
6758 6651 941
6758 6791 748
6758 6902 1206
6759 6760 1598
6759 6394 250
6760 6759 1598
6760 6755 55
6760 6794 572
6760 6842 617
6761 6745 127
6761 6811 381
6762 6751 121
6762 6763 348
6762 6764 8
6762 6766 17
6763 6762 348
6763 6716 88
6764 6765 123
6764 6762 8
6764 6768 18
6764 6825 552
6765 6764 123
6765 6700 315
6765 8270 315
6766 6762 17
6766 6767 349
6766 6768 7
6766 6792 204
6767 6766 349
6767 6718 92
6768 6764 18
6768 6766 7
6768 6793 204
6768 6813 437
6769 6651 516
6769 6770 13
6769 6982 1947
6770 6769 13
6770 6864 1269
6770 6983 1946
6771 6772 2521
6772 6771 2521
6773 6737 304
6773 6779 31
6773 6829 710
6774 6775 473
6774 6670 75
6775 6774 473
6775 6909 58
6776 6269 2300
6776 6990 187
6777 6353 2463
6777 6948 184
6778 6729 635
6778 6743 220
6778 6780 12
6778 6831 363
6779 6773 31
6779 6719 392
6779 6834 738
6779 6835 733
6780 6778 12
6780 6744 227
6780 6832 357
6780 6844 977
6781 6372 2030
6781 6782 61
6781 6785 14
6781 6808 1445
6782 6781 61
6783 6784 451
6784 6783 451
6784 6708 456
6784 6795 373
6784 6802 162
6785 6781 14
6785 6786 56
6785 6808 1444
6785 6880 987
6786 6785 56
6787 6744 850
6787 6691 514
6787 6791 48
6787 6844 497
6788 6789 546
6789 6788 546
6789 6790 415
6789 6839 873
6789 6843 557
6790 6789 415
6791 6787 48
6791 6552 1035
6791 6758 748
6791 6846 504
6792 6766 204
6792 6746 406
6792 6793 7
6792 6807 246
6793 6768 204
6793 6792 7
6793 6809 247
6793 6813 522
6794 6574 1817
6794 6524 2139
6794 6760 572
6794 6857 701
6795 6784 373
6795 6796 490
6795 6816 154
6796 6795 490
6797 6798 674
6797 7003 1427
6798 6797 674
6798 8225 2003
6799 6800 1744
6799 6833 431
6799 6862 562
6800 6799 1744
6801 6802 590
6802 6801 590
6802 6784 162
6802 6830 487
6803 6804 1559
6803 8251 134
6804 6803 1559
6804 6704 1158
6804 6805 15
6804 6921 1189
6805 6806 1557
6805 6804 15
6805 6922 1207
6805 6976 3004
6806 6805 1557
6806 8245 305
6807 6792 246
6807 6746 412
6807 6809 7
6808 6213 2964
6808 6781 1445
6808 6785 1444
6808 6810 17
6808 7117 3059
6809 6793 247
6809 6807 7
6809 6840 268
6810 6209 2989
6810 6808 17
6810 6817 1694
6810 7122 3066
6811 6761 381
6811 6815 63
6812 6686 751
6812 6823 173
6812 6837 241
6813 6768 437
6813 6793 522
6813 6827 117
6814 6562 1296
6814 6657 1336
6814 7215 5015
6814 7686 6091
6815 6811 63
6815 6537 2937
6815 6870 620
6816 6795 154
6816 6826 310
6816 6830 73
6817 6674 867
6817 6810 1694
6817 6818 11
6818 6677 864
6818 6817 11
6818 6824 332
6819 6753 741
6819 6658 1011
6819 6821 13
6820 6752 593
6821 6819 13
6821 6661 1012
6821 7110 3773
6822 6823 368
6823 6822 368
6823 6812 173
6823 6837 150
6824 6818 332
6824 6910 2926
6824 7122 5582
6825 6764 552
6825 6827 17
6825 6849 588
6826 6816 310
6827 6825 17
6827 6813 117
6827 6853 592
6827 6856 285
6828 6531 1650
6829 6666 1057
6829 6773 710
6829 6834 33
6830 6802 487
6830 6816 73
6830 6869 947
6831 6778 363
6831 6832 12
6831 6835 308
6831 6875 530
6832 6831 12
6832 6780 357
6832 6873 526
6833 6799 431
6833 6870 962
6833 6871 542
6834 6829 33
6834 6779 738
6834 6933 1207
6835 6779 733
6835 6831 308
6835 6895 633
6836 6623 1291
6836 6745 880
6836 6878 686
6837 6823 150
6837 6812 241
6837 6845 134
6838 6839 544
6839 6838 544
6839 6789 873
6839 6862 444
6839 6889 562
6840 6809 268
6840 6855 241
6840 6867 351
6841 6601 1696
6842 6760 617
6842 6863 179
6843 6789 557
6844 6780 977
6844 6787 497
6844 6846 18
6844 6848 24
6844 6908 579
6845 6837 134
6845 8271 870
6846 6844 18
6846 6791 504
6846 6848 14
6846 6902 674
6847 6752 1340
6847 8272 875
6848 6844 24
6848 6846 14
6848 6904 672
6848 6911 561
6849 6850 140
6849 6851 141
6849 6825 588
6849 6853 15
6849 6974 3279
6850 6849 140
6850 6757 593
6851 6849 141
6851 6756 591
6852 6602 1767
6852 6854 371
6852 6920 1159
6853 6849 15
6853 6827 592
6853 6876 343
6853 6905 971
6854 6852 371
6855 6840 241
6855 6859 160
6855 6874 294
6856 6827 285
6856 6867 438
6856 6868 168
6857 6698 1953
6857 6794 701
6857 6858 23
6857 6872 727
6858 6704 1954
6858 6857 23
6858 6877 742
6858 6903 771
6859 6739 952
6859 6855 160
6859 6894 638
6860 6861 998
6861 6860 998
6862 6799 562
6862 6839 444
6862 6916 950
6862 6919 567
6863 6842 179
6863 6872 329
6863 6879 226
6863 6884 358
6864 6770 1269
6865 6723 1319
6865 7068 320
6866 6661 1692
6866 7059 321
6867 6856 438
6867 6840 351
6867 6874 291
6867 6881 168
6868 6856 168
6868 6876 484
6868 6881 391
6868 6906 287
6869 6830 947
6870 6815 620
6870 6833 962
6870 6898 209
6871 6833 542
6872 6857 727
6872 6863 329
6872 6879 243
6873 6832 526
6873 6886 70
6873 6887 110
6874 6867 291
6874 6855 294
6874 6914 566
6875 6831 530
6875 6888 68
6875 6893 113
6876 6853 343
6876 6868 484
6876 6900 172
6877 6858 742
6877 6883 245
6877 6918 350
6878 6836 686
6878 6896 130
6878 6920 576
6879 6872 243
6879 6863 226
6879 6882 74
6879 6883 21
6880 6785 987
6880 7118 92
6881 6868 391
6881 6867 168
6881 6915 209
6882 6879 74
6882 6884 206
6883 6877 245
6883 6879 21
6883 6885 74
6883 6918 231
6884 6882 206
6884 6863 358
6884 6555 9756
6885 6883 74
6885 6890 194
6886 6873 70
6886 6887 64
6886 6888 8
6886 6891 11
6887 6886 64
6887 6873 110
6887 6908 648
6888 6875 68
6888 6886 8
6888 6892 11
6888 6893 69
6889 6839 562
6890 6885 194
6890 6918 360
6890 6562 9778
6891 6886 11
6891 6892 8
6891 6912 707
6892 6888 11
6892 6891 8
6892 6897 147
6893 6875 113
6893 6888 69
6893 6895 81
6894 6859 638
6895 6835 633
6895 6893 81
6895 6897 12
6895 6933 790
6896 6878 130
6896 6942 614
6897 6895 12
6897 6892 147
6897 6934 784
6897 6999 961
6898 6870 209
6898 6916 713
6898 6970 601
6899 6730 1706
6899 6951 59
6900 6876 172
6900 6928 281
6900 6930 1033
6901 6731 1714
6901 6956 59
6902 6846 674
6902 6758 1206
6902 6904 16
6902 6982 910
6903 6858 771
6903 6921 1622
6903 6964 574
6904 6848 672
6904 6902 16
6904 6923 306
6904 6927 315
6904 6986 916
6905 6853 971
6905 6907 19
6905 6930 262
6906 6868 287
6906 6915 296
6907 6905 19
6907 6931 254
6907 6975 2296
6908 6887 648
6908 6844 579
6908 6911 19
6908 6912 9
6909 6910 1080
6909 6775 58
6910 6909 1080
6910 6917 56
6910 6824 2926
6911 6908 19
6911 6848 561
6911 6913 9
6911 6923 501
6912 6891 707
6912 6908 9
6912 6913 19
6912 6984 782
6913 6912 19
6913 6911 9
6913 6927 502
6913 6985 787
6914 6874 566
6915 6906 296
6915 6881 209
6915 6928 576
6915 6929 580
6916 6862 950
6916 6898 713
6916 6976 781
6917 6910 56
6917 8273 374
6918 6877 350
6918 6883 231
6918 6890 360
6918 6947 309
6919 6862 567
6920 6852 1159
6920 6878 576
6920 6942 274
6920 6965 1085
6921 6804 1189
6921 6903 1622
6921 6922 30
6921 7035 1232
6922 6805 1207
6922 6921 30
6922 7038 1218
6922 7102 2665
6923 6911 501
6923 6904 306
6924 6925 746
6924 6926 529
6924 6962 606
6924 6977 455
6925 6924 746
6926 6924 529
6927 6913 502
6927 6904 315
6928 6900 281
6928 6915 576
6928 6929 12
6929 6928 12
6929 6915 580
6929 6959 278
6930 6905 262
6930 6900 1033
6930 6931 20
6930 6997 625
6931 6907 254
6931 6930 20
6931 6998 633
6932 6604 2561
6932 8261 2561
6932 8262 2561
6932 6943 70
6932 6950 105
6933 6834 1207
6933 6895 790
6933 6934 12
6933 6935 12
6933 6936 16
6934 6933 12
6934 6897 784
6934 6935 6
6934 6999 757
6935 6933 12
6935 6934 6
6935 6937 14
6935 7004 759
6936 6933 16
6936 6944 44
6937 6935 14
6937 6946 46
6938 6939 1818
6938 6966 209
6938 7008 720
6939 6938 1818
6939 6664 305
6940 6941 1828
6940 6668 306
6941 6940 1828
6941 6969 205
6941 6973 207
6942 6920 274
6942 6896 614
6942 6996 1243
6943 6932 70
6943 6944 16
6943 6945 11
6943 6950 73
6944 6943 16
6944 6936 44
6945 6943 11
6945 6946 13
6945 6954 78
6945 6963 143
6946 6945 13
6946 6937 46
6947 6918 309
6947 6953 31
6947 6957 1584
6947 7025 1224
6948 6949 1518
6948 6777 184
6949 6948 1518
6949 7036 175
6950 6932 105
6950 6943 73
6950 6952 23
6951 6952 1036
6951 6899 59
6952 6951 1036
6952 6950 23
6952 6954 28
6953 6947 31
6953 6960 1584
6953 7027 1207
6953 7211 1850
6954 6952 28
6954 6945 78
6954 6955 30
6954 6963 155
6955 6956 1040
6955 6954 30
6955 7032 1294
6956 6955 1040
6956 6901 59
6957 6947 1584
6957 6958 23
6957 6960 30
6958 6957 23
6958 6961 31
6958 7107 2197
6959 6929 278
6959 7205 326
6960 6953 1584
6960 6957 30
6960 6961 23
6960 7258 1898
6961 6960 23
6961 6958 31
6961 7113 2164
6961 7253 1885
6962 6924 606
6963 6954 155
6963 6945 143
6963 7009 628
6964 6903 574
6964 6971 35
6965 6920 1085
6965 6988 1210
6965 6996 304
6966 6938 209
6966 6969 15
6966 6993 259
6967 6968 2080
6968 6967 2080
6969 6966 15
6969 6941 205
6969 6973 15
6969 6991 245
6970 6898 601
6970 7040 820
6970 7076 2840
6971 6964 35
6971 6972 628
6971 7025 689
6971 7035 1143
6972 6971 628
6973 6969 15
6973 6941 207
6973 6981 126
6973 7290 2607
6974 6849 3279
6974 6980 94
6975 6907 2296
6975 7049 92
6976 6916 781
6976 6805 3004
6976 7024 661
6977 6924 455
6977 6978 448
6977 7012 342
6977 7056 1608
6978 6977 448
6979 6980 141
6979 7007 328
6980 6979 141
6980 6974 94
6981 6973 126
6981 6992 111
6981 7011 460
6982 6902 910
6982 6769 1947
6982 6983 9
6982 6986 44
6983 6982 9
6983 6770 1946
6983 6987 44
6983 7254 2492
6984 6912 782
6984 6994 96
6984 7017 329
6985 6913 787
6985 6995 97
6985 7019 333
6986 6904 916
6986 6982 44
6986 6987 8
6986 7067 954
6987 6986 8
6987 6983 44
6987 7022 494
6987 7070 951
6988 6965 1210
6989 6990 1982
6989 7006 240
6989 7033 469
6990 6989 1982
6990 6776 187
6991 6969 245
6991 7044 157
6992 6981 111
6992 7008 447
6992 7046 154
6993 6966 259
6993 7048 155
6994 6984 96
6994 7309 1050
6995 6985 97
6995 7318 1045
6996 6965 304
6996 6942 1243
6996 7086 1622
6996 7075 194
6997 6930 625
6998 6931 633
6999 6934 757
6999 6897 961
6999 7004 8
6999 7017 569
7000 7001 394
7000 8260 2096
7001 7000 394
7001 8291 1602
7002 7003 394
7002 8290 1585
7003 7002 394
7003 6797 1427
7004 6935 759
7004 6999 8
7004 7005 12
7004 7018 571
7005 7004 12
7005 7010 89
7006 7007 133
7006 6989 240
7006 7014 61
7007 7006 133
7007 6979 328
7008 6938 720
7008 6992 447
7008 7041 498
7009 6963 628
7009 7010 36
7009 7013 47
7010 7009 36
7010 7013 33
7010 7005 89
7011 6981 460
7011 7042 502
7011 7047 441
7012 6977 342
7013 7009 47
7013 7010 33
7013 7028 411
7014 7006 61
7014 7074 567
7015 7016 245
7016 7015 245
7016 7043 359
7016 7063 518
7017 6999 569
7017 6984 329
7017 7018 8
7017 7019 48
7018 7004 571
7018 7017 8
7018 7020 44
7018 7021 74
7019 7017 48
7019 6985 333
7019 7020 9
7019 7067 1079
7020 7018 44
7020 7019 9
7020 7023 67
7020 7071 1081
7021 7018 74
7021 7029 96
7022 6987 494
7022 7026 73
7022 7054 323
7023 7020 67
7023 7031 98
7024 6976 661
7024 7040 1172
7024 7055 538
7025 6971 689
7025 6947 1224
7025 7027 29
7025 7116 1133
7026 7022 73
7026 7039 128
7026 7053 261
7027 7025 29
7027 6953 1207
7027 7123 1133
7028 7013 411
7028 7029 73
7028 7030 53
7029 7028 73
7029 7021 96
7030 7028 53
7030 7031 50
7030 7032 32
7030 7034 59
7031 7030 50
7031 7034 38
7031 7023 98
7032 6955 1294
7032 7030 32
7032 7094 1225
7033 6989 469
7033 7060 263
7034 7030 59
7034 7031 38
7034 7089 1139
7035 6921 1232
7035 6971 1143
7035 7038 15
7035 7116 696
7036 7037 831
7036 6949 175
7037 7036 831
7037 7057 143
7037 7066 252
7038 6922 1218
7038 7035 15
7038 7119 696
7038 7299 2133
7039 7026 128
7039 7051 67
7039 7052 201
7040 6970 820
7040 7024 1172
7040 7106 698
7041 7008 498
7041 7052 61
7042 7011 502
7042 7053 61
7043 7016 359
7043 7063 196
7043 7087 385
7043 7096 421
7044 7045 307
7044 6991 157
7045 7044 307
7045 7046 308
7045 7128 563
7046 7045 308
7046 6992 154
7047 7011 441
7047 7048 308
7047 7127 557
7048 7047 308
7048 6993 155
7049 7050 905
7049 6975 92
7050 7049 905
7050 7057 79
7051 7039 67
7051 7054 55
7051 7088 378
7052 7039 201
7052 7041 61
7053 7026 261
7053 7042 61
7054 7051 55
7054 7022 323
7054 7091 363
7055 7024 538
7055 7064 1013
7055 7251 1650
7056 6977 1608
7057 7037 143
7057 7050 79
7057 7073 137
7058 7059 1752
7058 7082 159
7058 7110 460
7059 7058 1752
7059 6866 321
7060 7033 263
7060 7065 49
7060 7077 125
7061 7062 814
7061 8264 4098
7062 7061 814
7062 7105 445
7062 7109 446
7063 7016 518
7063 7043 196
7063 7100 435
7064 7055 1013
7065 7060 49
7065 7203 325
7066 7037 252
7066 7181 319
7067 7019 1079
7067 6986 954
7067 7070 8
7067 7071 8
7068 7069 1857
7068 6865 320
7069 7068 1857
7069 7081 61
7069 7085 465
7070 7067 8
7070 6987 951
7070 7072 8
7070 7302 1673
7071 7020 1081
7071 7067 8
7071 7072 8
7071 7083 68
7072 7071 8
7072 7070 8
7072 7084 68
7072 7310 1673
7073 7057 137
7073 7078 24
7073 7148 480
7074 7014 567
7074 7085 59
7074 7078 183
7075 7076 645
7075 6996 194
7076 7075 645
7076 6970 2840
7076 7172 877
7076 7371 2077
7077 7060 125
7077 7139 81
7078 7073 24
7078 7074 183
7078 7114 360
7079 7080 950
7079 7099 316
7079 7101 314
7080 7079 950
7080 8263 4104
7081 7069 61
7081 8278 169
7082 7058 159
7082 8279 169
7082 8284 505
7083 7071 68
7083 7090 82
7084 7072 68
7084 7093 82
7085 7074 59
7085 7069 465
7085 7103 250
7086 6996 1622
7086 7192 148
7087 7043 385
7087 7096 284
7087 7106 246
7088 7051 378
7088 7091 41
7088 7098 188
7089 7034 1139
7089 7090 14
7089 7092 8
7089 7094 8
7090 7089 14
7090 7083 82
7091 7088 41
7091 7054 363
7091 7097 101
7092 7089 8
7092 7093 14
7092 7095 8
7092 7358 1662
7093 7092 14
7093 7084 82
7094 7032 1225
7094 7089 8
7094 7095 9
7095 7094 9
7095 7092 8
7095 7365 1661
7096 7043 421
7096 7087 284
7096 7100 308
7096 7147 353
7097 7091 101
7097 7098 50
7097 7137 301
7098 7088 188
7098 7097 50
7098 7134 216
7099 7079 316
7099 7194 200
7100 7063 435
7100 7096 308
7100 7172 378
7101 7079 314
7101 7333 784
7102 6922 2665
7102 7251 712
7102 7299 1182
7103 7104 146
7103 7085 250
7103 7138 188
7104 7103 146
7104 8280 86
7105 7062 445
7105 7340 785
7106 7087 246
7106 7040 698
7106 7147 277
7107 6958 2197
7107 7108 2374
7107 7113 21
7107 7120 25
7108 7107 2374
7109 7062 446
7109 7213 189
7110 6821 3773
7110 7058 460
7110 7111 10
7111 7110 10
7111 7112 159
7111 7149 255
7112 7111 159
7112 8279 126
7113 6961 2164
7113 7107 21
7113 7120 28
7113 7253 1402
7114 7078 360
7114 7115 104
7114 7129 79
7115 7114 104
7115 8281 150
7116 7035 696
7116 7025 1133
7116 7119 19
7116 7123 29
7117 6808 3059
7117 7118 2197
7117 7122 16
7117 7135 362
7118 7117 2197
7118 6880 92
7119 7038 696
7119 7116 19
7119 7126 29
7119 7475 3064
7120 7113 28
7120 7107 25
7120 7121 2395
7120 7262 1420
7120 7684 5365
7120 8295 5365
7121 7120 2395
7122 6810 3066
7122 7117 16
7122 7173 354
7122 6824 5582
7123 7116 29
7123 7027 1133
7123 7126 19
7123 7277 730
7124 7125 243
7124 7135 119
7124 7176 349
7125 7124 243
7125 7136 295
7125 7140 280
7126 7119 29
7126 7123 19
7126 7284 733
7126 7551 4823
7127 7047 557
7127 7267 280
7128 7045 563
7128 7249 278
7129 7114 79
7129 7133 18
7130 7131 436
7130 7132 1038
7130 7204 627
7130 7388 1109
7131 7130 436
7132 7130 1038
7133 7129 18
7133 7153 138
7133 7154 127
7134 7098 216
7134 7137 40
7134 7162 150
7135 7124 119
7135 7117 362
7135 7173 162
7136 7125 295
7136 7141 85
7136 7144 63
7137 7134 40
7137 7097 301
7137 7159 107
7138 7103 188
7138 7139 426
7138 7149 46
7139 7138 426
7139 7077 81
7140 7125 280
7140 7141 30
7140 7174 171
7141 7140 30
7141 7136 85
7141 7161 67
7142 6706 3533
7142 7143 514
7142 7370 1527
7143 7142 514
7143 7191 637
7144 7136 63
7144 7157 43
7144 7161 90
7145 7146 1481
7145 7164 144
7146 7145 1481
7146 6671 2660
7147 7096 353
7147 7106 277
7147 7245 641
7147 7272 565
7148 7073 480
7148 7182 184
7148 7248 440
7149 7111 255
7149 7138 46
7149 7152 11
7149 7154 22
7150 7151 1502
7150 6663 2673
7151 7150 1502
7151 7165 152
7152 6754 4792
7152 7149 11
7152 7158 21
7152 7200 275
7153 7133 138
7153 8282 104
7154 7149 22
7154 7133 127
7154 7158 12
7155 7156 103
7155 7207 303
7156 7155 103
7156 7176 141
7157 7144 43
7157 7160 31
7157 7170 56
7158 7152 21
7158 7154 12
7158 7465 1574
7159 7137 107
7159 7169 45
7159 7228 592
7160 7157 31
7160 7167 58
7160 7428 3667
7161 7141 67
7161 7144 90
7161 7171 57
7162 7134 150
7162 7169 38
7162 7266 397
7163 7164 407
7163 7188 553
7163 8285 553
7164 7163 407
7164 7145 144
7165 7166 101
7165 7151 152
7166 7165 101
7166 7168 295
7166 7185 339
7167 7160 58
7167 7170 84
7167 7175 315
7168 7166 295
7168 7187 4112
7168 8300 4112
7169 7162 38
7169 7159 45
7169 7196 297
7170 7157 56
7170 7167 84
7170 7210 213
7171 7161 57
7171 7195 154
7171 7238 342
7172 7076 877
7172 7100 378
7172 7245 369
7173 7122 354
7173 7135 162
7173 7183 101
7174 7140 171
7174 7231 329
7175 7167 315
7175 7627 5801
7176 7156 141
7176 7124 349
7176 7190 58
7177 7178 604
7177 7178 893
7177 7189 217
7178 7177 604
7178 7177 893
7178 7221 147
7179 7180 14
7180 7179 14
7180 7212 147
7180 7221 455
7181 7182 392
7181 7066 319
7182 7181 392
7182 7148 184
7182 7286 366
7183 7173 101
7183 7190 82
7183 7252 383
7184 7185 645
7184 8285 190
7185 7184 645
7185 7166 339
7185 7216 124
7186 7187 309
7186 7188 635
7186 7219 126
7187 7186 309
7187 7168 4112
7187 8300 4112
7188 7186 635
7188 7163 553
7188 8285 553
7189 7177 217
7189 7212 198
7189 7301 428
7190 7176 58
7190 7183 82
7190 7220 96
7191 7143 637
7191 7192 996
7191 7288 319
7192 7191 996
7192 7086 148
7193 7194 391
7193 7220 141
7194 7193 391
7194 7099 200
7195 7171 154
7195 7224 100
7196 7169 297
7196 7250 356
7196 7255 422
7197 7198 439
7197 7199 342
7197 7226 243
7197 7233 117
7198 7197 439
7199 7197 342
7200 7152 275
7200 7464 1302
7201 7202 306
7201 7203 463
7201 7327 438
7202 7201 306
7202 8284 8
7203 7201 463
7203 7065 325
7204 7130 627
7204 7205 1509
7204 7403 1812
7204 7408 1815
7204 7480 1368
7205 7204 1509
7205 6959 326
7206 7207 297
7206 7332 196
7207 7206 297
7207 7155 303
7208 7209 25
7208 8283 343
7209 7208 25
7209 7248 160
7209 7286 262
7210 7170 213
7210 7236 122
7210 7240 106
7211 6953 1850
7211 7350 395
7211 7357 1882
7212 7189 198
7212 7180 147
7212 7285 640
7213 7214 296
7213 7109 189
7214 7213 296
7214 7224 238
7215 6814 5015
7216 7185 124
7216 7242 94
7217 7218 119
7218 7217 119
7219 7186 126
7219 7230 48
7220 7190 96
7220 7193 141
7220 7243 397
7221 7180 455
7221 7178 147
7221 7322 499
7222 7223 35
7222 7275 301
7223 7222 35
7223 7225 30
7223 7247 139
7224 7195 100
7224 7214 238
7225 7223 30
7225 7229 31
7225 7241 72
7226 7197 243
7226 7227 463
7226 7264 118
7227 7226 463
7228 7159 592
7228 7244 135
7228 7255 165
7229 7225 31
7229 7232 26
7229 7246 86
7230 7219 48
7230 7254 154
7230 7269 114
7231 7174 329
7231 7342 206
7232 7229 26
7232 7237 26
7232 7256 100
7233 7234 636
7233 7197 117
7233 7235 13
7234 7233 636
7235 7233 13
7235 7264 233
7235 7386 491
7236 7210 122
7236 7238 24
7236 7240 115
7237 7232 26
7237 7239 15
7237 7265 115
7238 7171 342
7238 7236 24
7238 7243 210
7239 7237 15
7239 7294 241
7240 7236 115
7240 7210 106
7240 7300 319
7241 7225 72
7241 7246 27
7241 7259 77
7242 7216 94
7242 7257 61
7242 7261 62
7243 7238 210
7243 7220 397
7243 7252 93
7244 7228 135
7244 7257 477
7245 7172 369
7245 7147 641
7245 7399 961
7245 7444 1323
7246 7229 86
7246 7241 27
7246 7256 30
7246 7270 87
7247 7223 139
7247 7259 31
7247 7274 125
7248 7209 160
7248 7148 440
7248 7311 236
7249 7250 224
7249 7128 278
7250 7249 224
7250 7196 356
7250 7336 257
7251 7055 1650
7251 7102 712
7251 7416 854
7251 7486 1850
7252 7243 93
7252 7183 383
7252 7454 1047
7253 6961 1885
7253 7113 1402
7253 7258 21
7253 7262 27
7254 6983 2492
7254 7230 154
7254 7290 219
7255 7196 422
7255 7228 165
7255 7282 164
7256 7232 100
7256 7246 30
7256 7265 32
7256 7276 97
7257 7242 61
7257 7244 477
7258 6960 1898
7258 7253 21
7258 7268 26
7258 7350 1389
7259 7241 77
7259 7247 31
7259 7260 9
7260 7259 9
7260 7263 26
7260 7270 26
7261 7242 62
7261 7315 81
7262 7253 27
7262 7120 1420
7262 7268 21
7263 7260 26
7263 7273 26
7263 7281 118
7264 7235 233
7264 7226 118
7264 7292 205
7264 7393 491
7265 7237 115
7265 7256 32
7265 7289 114
7266 7162 397
7266 7267 276
7266 7329 197
7267 7266 276
7267 7127 280
7268 7258 26
7268 7262 21
7268 7355 1391
7269 7230 114
7269 7377 256
7270 7246 87
7270 7260 26
7270 7271 9
7271 7270 9
7271 7273 16
7271 7276 28
7272 7147 565
7273 7271 16
7273 7263 26
7273 7293 145
7274 7247 125
7274 7281 19
7275 7222 301
7275 7280 13
7275 7287 35
7276 7256 97
7276 7271 28
7276 7283 17
7277 7123 730
7277 7278 595
7277 7284 18
7277 7357 259
7278 7277 595
7279 6657 5394
7280 7275 13
7280 7291 37
7280 7335 254
7281 7263 118
7281 7274 19
7281 7287 28
7282 7255 164
7282 7376 583
7282 7430 652
7283 7276 17
7283 7289 27
7283 7295 91
7284 7126 733
7284 7277 18
7284 7360 247
7284 7701 5490
7285 7212 640
7286 7182 366
7286 7209 262
7286 7324 136
7287 7281 28
7287 7275 35
7287 7293 31
7288 7191 319
7288 7367 244
7288 7421 731
7289 7265 114
7289 7283 27
7289 7294 28
7289 7298 94
7290 7254 219
7290 6973 2607
7290 7314 165
7291 7280 37
7291 7297 56
7291 7305 138
7292 7264 205
7292 7308 232
7292 7402 488
7293 7273 145
7293 7287 31
7293 7296 26
7294 7239 241
7294 7289 28
7294 7313 116
7295 7283 91
7295 7296 57
7295 7298 25
7296 7295 57
7296 7293 26
7296 7297 11
7297 7296 11
7297 7291 56
7297 7304 39
7298 7289 94
7298 7295 25
7298 7313 38
7299 7102 1182
7299 7038 2133
7299 7389 348
7299 7416 774
7300 7240 319
7301 7189 428
7301 7317 72
7301 7356 162
7301 7413 1347
7302 7070 1673
7302 7303 26
7302 7306 8
7302 7310 8
7303 7302 26
7304 7297 39
7304 7325 25
7304 7338 84
7305 7291 138
7305 7326 29
7305 7339 86
7306 7302 8
7306 7307 25
7306 7316 8
7306 7436 1273
7307 7306 25
7308 7292 232
7308 7309 748
7308 7317 22
7308 7452 715
7309 7308 748
7309 6994 1050
7310 7072 1673
7310 7302 8
7310 7316 7
7310 7319 12
7311 7248 236
7311 7312 510
7311 7324 32
7311 7396 391
7312 7311 510
7313 7294 116
7313 7298 38
7313 7322 15
7314 7290 165
7314 7315 166
7314 7370 297
7315 7314 166
7315 7261 81
7316 7310 7
7316 7306 8
7316 7323 13
7316 7438 1276
7317 7308 22
7317 7318 750
7317 7301 72
7317 7356 105
7318 7317 750
7318 6995 1045
7319 7310 12
7319 7359 104
7320 7321 113
7321 7320 113
7321 7328 22
7321 7338 37
7322 7221 499
7322 7313 15
7322 7343 55
7323 7316 13
7323 7363 104
7324 7286 136
7324 7311 32
7324 7327 10
7324 7381 229
7325 7304 25
7325 7330 24
7325 7354 113
7326 7305 29
7326 7328 9
7326 7347 85
7327 7201 438
7327 7324 10
7327 7334 26
7327 7383 229
7328 7321 22
7328 7326 9
7328 7344 39
7329 7266 197
7329 7471 737
7330 7325 24
7330 7337 32
7330 7364 122
7331 7332 183
7331 7333 191
7331 7456 798
7332 7331 183
7332 7206 196
7333 7331 191
7333 7101 784
7334 7327 26
7334 7374 168
7334 7398 434
7335 7280 254
7335 7345 33
7335 7346 34
7336 7250 257
7336 7473 734
7337 7330 32
7337 7343 13
7337 7369 134
7338 7304 84
7338 7321 37
7338 7344 22
7339 7305 86
7339 7346 31
7339 7347 27
7340 7341 202
7340 7105 785
7341 7340 202
7341 7342 211
7341 7462 788
7342 7341 211
7342 7231 206
7343 7322 55
7343 7337 13
7343 7384 235
7344 7338 22
7344 7328 39
7344 7348 19
7345 7335 33
7345 7353 43
7345 7382 256
7346 7339 31
7346 7335 34
7346 7349 8
7347 7326 85
7347 7339 27
7347 7352 27
7348 7344 19
7348 7354 30
7348 7361 65
7349 7346 8
7349 7353 33
7349 7380 159
7350 7211 395
7350 7258 1389
7350 7355 27
7350 7410 1790
7351 7352 81
7352 7351 81
7352 7347 27
7352 7361 30
7353 7349 33
7353 7345 43
7353 7385 157
7353 7387 258
7354 7325 113
7354 7348 30
7354 7364 28
7354 7368 64
7355 7350 27
7355 7268 1391
7355 7415 1778
7355 7678 2375
7356 7317 105
7356 7301 162
7356 7409 327
7357 7277 259
7357 7211 1882
7357 7360 26
7357 7410 336
7358 7092 1662
7358 7359 17
7358 7362 8
7358 7365 8
7359 7358 17
7359 7319 104
7360 7284 247
7360 7357 26
7360 7417 352
7361 7348 65
7361 7352 30
7361 7368 30
7362 7358 8
7362 7363 16
7362 7366 8
7362 7457 1316
7363 7362 16
7363 7323 104
7364 7330 122
7364 7354 28
7364 7369 29
7364 7373 65
7365 7095 1661
7365 7358 8
7365 7366 8
7366 7365 8
7366 7362 8
7366 7461 1318
7367 7288 244
7367 8294 111
7368 7354 64
7368 7361 30
7368 7373 27
7369 7337 134
7369 7364 29
7369 7379 71
7370 7314 297
7370 7142 1527
7370 7372 31
7371 7076 2077
7371 7375 18
7371 7476 1492
7372 7370 31
7372 7378 29
7372 7421 1663
7373 7364 65
7373 7368 27
7373 7379 28
7374 7334 168
7375 7371 18
7375 7477 1487
7375 7568 1773
7376 7282 583
7376 7377 320
7376 7378 35
7376 7490 972
7377 7376 320
7377 7269 256
7378 7376 35
7378 7372 29
7378 7424 1643
7378 7491 952
7379 7369 71
7379 7373 28
7379 7380 30
7380 7379 30
7380 7349 159
7380 7384 18
7380 7385 31
7381 7324 229
7381 7396 1532
7381 7670 1532
7382 7345 256
7382 7387 43
7382 7431 515
7383 7327 229
7383 7398 1536
7383 7673 1536
7384 7343 235
7384 7380 18
7384 7407 294
7385 7380 31
7385 7353 157
7385 7401 258
7386 7235 491
7386 7390 74
7386 7391 290
7386 7393 222
7387 7353 258
7387 7382 43
7387 7392 65
7387 7394 105
7388 7130 1109
7388 7420 43
7389 7299 348
7390 7386 74
7391 7386 290
7392 7387 65
7392 7395 78
7392 7400 69
7393 7386 222
7393 7264 491
7393 7402 202
7393 7425 189
7394 7387 105
7394 7406 99
7394 7433 383
7395 7392 78
7395 7397 36
7396 7311 391
7396 7381 1532
7396 7670 1532
7397 7395 36
7397 7400 40
7397 7401 35
7398 7334 434
7398 7383 1536
7398 7673 1536
7399 7245 961
7400 7397 40
7400 7392 69
7400 7406 72
7401 7385 258
7401 7397 35
7401 7407 27
7402 7393 202
7402 7292 488
7402 7423 224
7402 7434 193
7403 7204 1812
7403 7404 1592
7403 7405 15
7403 7408 21
7404 7403 1592
7405 7403 15
7405 7411 23
7405 7523 3603
7406 7400 72
7406 7394 99
7406 7412 24
7406 7418 150
7407 7384 294
7407 7401 27
7407 7426 307
7408 7204 1815
7408 7403 21
7408 7411 16
7408 7709 2418
7409 7356 327
7409 7427 107
7409 7429 118
7410 7357 336
7410 7350 1790
7410 7415 23
7410 7417 31
7411 7408 16
7411 7405 23
7411 7574 4240
7411 7712 2421
7412 7406 24
7413 7301 1347
7413 7414 45
7413 7445 254
7414 7413 45
7415 7410 23
7415 7355 1778
7415 7422 31
7416 7251 854
7416 7299 774
7416 7475 478
7416 7517 1737
7417 7360 352
7417 7410 31
7417 7422 27
7417 7685 2414
7418 7406 150
7419 7420 166
7419 7480 873
7419 7549 1535
7420 7419 166
7420 7388 43
7421 7372 1663
7421 7288 731
7421 7424 26
7421 7450 291
7422 7417 27
7422 7415 31
7422 7688 2410
7423 7402 224
7424 7378 1643
7424 7421 26
7424 7451 263
7425 7393 189
7425 7434 203
7425 7449 188
7426 7407 307
7426 7435 247
7426 7439 102
7427 7409 107
7427 7429 124
7427 7478 1107
7428 7160 3667
7428 7555 2723
7428 7625 2514
7429 7409 118
7429 7427 124
7429 7453 164
7430 7282 652
7430 7436 56
7430 7437 58
7431 7382 515
7431 7432 55
7431 7435 38
7432 7431 55
7433 7394 383
7434 7425 203
7434 7402 193
7434 7455 163
7435 7426 247
7435 7431 38
7435 7469 663
7436 7306 1273
7436 7430 56
7436 7437 8
7436 7438 8
7437 7436 8
7437 7430 58
7437 7441 8
7437 7490 1079
7438 7316 1276
7438 7436 8
7438 7441 8
7438 7442 18
7439 7440 331
7439 7426 102
7439 7484 430
7440 7439 331
7441 7438 8
7441 7437 8
7441 7443 19
7441 7492 1080
7442 7438 18
7442 7458 99
7443 7441 19
7443 7460 100
7444 7245 1323
7444 7447 12
7444 7501 764
7445 7446 186
7445 7413 254
7445 7466 242
7445 7483 386
7446 7445 186
7447 7444 12
7447 7476 345
7447 7504 766
7448 7449 222
7449 7448 222
7449 7425 188
7449 7455 205
7450 7421 291
7450 7531 324
7451 7424 263
7451 7482 325
7452 7308 715
7452 7675 323
7453 7429 164
7453 7677 324
7454 7252 1047
7455 7449 205
7455 7434 163
7455 7468 217
7456 7331 798
7456 7563 538
7457 7362 1316
7457 7458 16
7457 7459 8
7457 7461 9
7458 7457 16
7458 7442 99
7459 7457 8
7459 7460 15
7459 7463 9
7459 7506 1757
7460 7459 15
7460 7443 100
7461 7366 1318
7461 7457 9
7461 7463 7
7462 7341 788
7462 7565 536
7463 7461 7
7463 7459 9
7463 7507 1768
7464 7200 1302
7464 7556 299
7465 7158 1574
7465 7558 300
7466 7445 242
7466 7467 507
7466 7484 649
7466 7493 383
7467 7466 507
7468 7455 217
7469 7435 663
7469 7470 10
7469 7508 588
7470 7469 10
7470 7471 60
7470 7472 39
7471 7470 60
7471 7329 737
7472 7470 39
7472 7473 60
7472 7474 76
7473 7472 60
7473 7336 734
7474 7472 76
7474 7502 361
7474 7528 1355
7475 7416 478
7475 7119 3064
7475 7548 1752
7476 7371 1492
7476 7447 345
7476 7477 16
7477 7375 1487
7477 7476 16
7477 7611 1728
7478 7427 1107
7478 7479 176
7478 7483 153
7478 7516 788
7479 7478 176
7480 7419 873
7480 7204 1368
7480 7487 195
7480 7576 1065
7481 7482 22
7481 7533 775
7481 7534 788
7481 7537 850
7482 7481 22
7482 7451 325
7483 7478 153
7483 7445 386
7483 7493 275
7484 7466 649
7484 7439 430
7484 7499 199
7484 7500 465
7485 7486 1820
7486 7485 1820
7486 7251 1850
7486 7515 1133
7486 7546 938
7487 7480 195
7488 7489 516
7488 7501 141
7488 7503 141
7489 7488 516
7490 7437 1079
7490 7376 972
7490 7491 11
7490 7492 8
7491 7490 11
7491 7378 952
7491 7494 7
7492 7441 1080
7492 7490 8
7492 7494 11
7492 7495 25
7493 7483 275
7493 7466 383
7493 7511 633
7493 7516 358
7494 7492 11
7494 7491 7
7494 7496 25
7495 7492 25
7495 7589 672
7496 7494 25
7496 7584 673
7497 7498 586
7498 7497 586
7499 7484 199
7499 7511 190
7499 7512 468
7500 7484 465
7500 7508 266
7500 7512 208
7501 7444 764
7501 7488 141
7501 7503 11
7501 7504 11
7502 7474 361
7502 7514 204
7502 7518 437
7503 7501 11
7503 7488 141
7503 7505 11
7503 7509 370
7504 7447 766
7504 7501 11
7504 7505 10
7504 7612 1341
7505 7504 10
7505 7503 11
7505 7510 374
7505 7612 1335
7506 7459 1757
7506 7534 913
7507 7463 1768
7508 7500 266
7508 7469 588
7508 7519 202
7509 7503 370
7510 7505 374
7511 7493 633
7511 7499 190
7511 7524 474
7511 7561 511
7512 7499 468
7512 7500 208
7512 7519 286
7512 7524 192
7513 7514 64
7514 7513 64
7514 7502 204
7514 7518 204
7514 7525 199
7515 7486 1133
7516 7478 788
7516 7493 358
7516 7521 180
7516 7523 121
7517 7416 1737
7518 7514 204
7518 7502 437
7518 7526 330
7518 7530 198
7519 7512 286
7519 7508 202
7519 7520 23
7520 7519 23
7520 7522 42
7520 7527 147
7521 7516 180
7522 7520 42
7522 7525 138
7522 7529 143
7523 7405 3603
7523 7516 121
7523 7567 585
7524 7511 474
7524 7512 192
7524 7552 490
7525 7522 138
7525 7514 199
7525 7530 205
7525 7552 204
7526 7518 330
7526 7554 192
7526 7560 536
7527 7520 147
7527 7619 105
7527 7581 103
7528 7474 1355
7528 7547 549
7528 7560 409
7529 7522 143
7529 7582 102
7529 7622 101
7530 7525 205
7530 7518 198
7530 7540 135
7530 7564 205
7531 7532 842
7531 7450 324
7532 7531 842
7532 7535 17
7532 7537 19
7533 7481 775
7533 7534 10
7533 7536 8
7533 7542 719
7534 7481 788
7534 7533 10
7534 7538 8
7534 7506 913
7535 7532 17
7535 7539 21
7535 7568 546
7536 7533 8
7536 7538 11
7536 7544 712
7537 7481 850
7537 7532 19
7537 7539 17
7537 7542 48
7538 7534 8
7538 7536 11
7538 7541 919
7539 7537 17
7539 7535 21
7539 7543 42
7539 7573 552
7540 7530 135
7540 7610 1497
7541 7538 919
7542 7533 719
7542 7537 48
7542 7543 17
7542 7544 9
7543 7542 17
7543 7539 42
7543 7545 7
7544 7536 712
7544 7542 9
7544 7545 18
7545 7544 18
7545 7543 7
7546 7486 938
7547 7528 549
7547 7550 90
7547 7585 257
7548 7475 1752
7549 7419 1535
7549 7553 234
7549 7579 770
7549 7586 770
7549 7592 720
7550 7547 90
7550 7559 188
7550 7577 224
7551 7126 4823
7552 7524 490
7552 7525 204
7552 7564 199
7552 7594 252
7553 7549 234
7554 7526 192
7555 7428 2723
7555 7556 1867
7555 7557 14
7555 7625 609
7556 7555 1867
7556 7464 299
7557 7555 14
7557 7558 1872
7557 7626 599
7558 7557 1872
7558 7465 300
7559 7550 188
7559 7593 351
7559 7607 981
7560 7526 536
7560 7528 409
7560 7585 796
7561 7511 511
7561 7567 68
7561 7569 38
7562 7563 785
7563 7562 785
7563 7456 538
7564 7552 199
7564 7530 205
7564 7604 237
7564 7647 1622
7565 7566 791
7565 7462 536
7566 7565 791
7567 7523 585
7567 7561 68
7567 7569 54
7568 7535 546
7568 7375 1773
7568 7573 20
7568 7611 620
7569 7567 54
7569 7561 38
7569 7574 37
7569 7624 776
7570 7571 556
7571 7570 556
7571 7572 360
7571 7575 167
7572 7571 360
7573 7539 552
7573 7568 20
7573 7617 626
7574 7411 4240
7574 7569 37
7574 7608 190
7574 7629 808
7575 7571 167
7575 7579 72
7575 7578 176
7576 7480 1065
7576 7578 43
7576 7591 47
7576 7596 71
7577 7550 224
7577 7584 207
7577 7593 31
7578 7576 43
7578 7575 176
7578 7587 73
7579 7549 770
7579 7575 72
7579 7587 45
7580 7581 247
7580 7695 1143
7580 7767 1143
7580 7833 1143
7581 7580 247
7581 7527 103
7582 7583 241
7582 7529 102
7583 7582 241
7583 7692 1285
7583 7737 1285
7583 7862 1285
7583 7940 1285
7584 7577 207
7584 7590 177
7584 7496 673
7585 7560 796
7585 7547 257
7585 7588 27
7586 7549 770
7586 7592 61
7586 7595 39
7587 7579 45
7587 7578 73
7587 7596 77
7588 7585 27
7588 7589 179
7588 7590 10
7588 7613 125
7589 7588 179
7589 7495 672
7590 7588 10
7590 7584 177
7590 7593 43
7590 7614 126
7591 7576 47
7591 7598 55
7591 7601 162
7592 7549 720
7592 7586 61
7592 7599 159
7593 7590 43
7593 7577 31
7593 7559 351
7594 7552 252
7595 7586 39
7595 7597 82
7595 7599 74
7596 7587 77
7596 7576 71
7596 7597 15
7596 7598 68
7597 7595 82
7597 7596 15
7597 7602 94
7597 7609 74
7598 7596 68
7598 7591 55
7598 7600 53
7599 7592 159
7599 7595 74
7599 7609 40
7600 7598 53
7600 7601 68
7600 7643 592
7601 7600 68
7601 7591 162
7601 7633 458
7602 7603 73
7602 7597 94
7602 7606 33
7603 7602 73
7603 7609 55
7603 7615 161
7604 7605 146
7604 7564 237
7604 7636 204
7604 7682 1694
7605 7604 146
7606 7602 33
7606 7615 67
7606 7646 578
7607 7559 981
7607 7763 766
7608 7574 190
7609 7599 40
7609 7597 74
7609 7603 55
7609 7700 606
7610 7540 1497
7610 7613 106
7610 7631 218
7611 7568 620
7611 7477 1728
7611 7612 1114
7611 7617 26
7612 7504 1341
7612 7505 1335
7612 7611 1114
7612 7616 21
7612 7701 4297
7613 7610 106
7613 7588 125
7613 7614 9
7613 7631 112
7614 7613 9
7614 7590 126
7614 7632 112
7614 7657 416
7615 7603 161
7615 7606 67
7615 7645 455
7616 7612 21
7616 7617 1117
7616 7697 4207
7616 7711 609
7617 7573 626
7617 7611 26
7617 7616 1117
7618 7619 431
7618 7624 104
7618 7628 60
7619 7618 431
7619 7527 105
7620 7621 1985
7621 7620 1985
7622 7623 431
7622 7529 101
7623 7622 431
7623 7634 69
7623 7639 114
7624 7569 776
7624 7618 104
7624 7628 100
7625 7428 2514
7625 7555 609
7625 7626 19
7625 7627 16
7626 7625 19
7626 7557 599
7626 7630 22
7626 7860 3729
7627 7175 5801
7627 7625 16
7627 7630 18
7627 7743 640
7628 7624 100
7628 7618 60
7628 7634 83
7628 7635 33
7629 7574 808
7629 7635 81
7629 7659 154
7630 7627 18
7630 7626 22
7630 7744 638
7630 7859 3682
7631 7610 218
7631 7613 112
7631 7632 6
7631 7651 96
7632 7631 6
7632 7614 112
7632 7652 96
7633 7601 458
7633 7642 132
7633 7643 75
7634 7628 83
7634 7623 69
7634 7639 64
7634 7640 34
7635 7629 81
7635 7628 33
7635 7640 83
7635 7659 93
7636 7604 204
7637 7638 1429
7637 7641 16
7637 7644 23
7638 7637 1429
7639 7634 64
7639 7623 114
7639 7708 1912
7640 7635 83
7640 7634 34
7640 7649 70
7640 7660 63
7641 7637 16
7641 7642 16
7641 7650 40
7642 7633 132
7642 7641 16
7642 7643 69
7643 7600 592
7643 7633 75
7643 7642 69
7643 7650 62
7644 7637 23
7644 7656 52
7644 7658 120
7645 7615 455
7645 7646 66
7645 7662 121
7646 7645 66
7646 7606 578
7646 7648 21
7647 7564 1622
7647 7651 195
7647 7682 208
7648 7646 21
7648 7653 48
7648 7662 48
7649 7640 70
7649 7660 77
7649 7730 2116
7650 7643 62
7650 7641 40
7650 7653 15
7650 7656 59
7651 7647 195
7651 7631 96
7651 7652 12
7651 7687 210
7652 7651 12
7652 7632 96
7652 7657 194
7652 7717 388
7653 7648 48
7653 7650 15
7653 7663 53
7653 7664 25
7654 7655 131
7655 7654 131
7655 7711 2383
7655 7768 623
7655 7801 1970
7656 7650 59
7656 7644 52
7656 7661 19
7657 7652 194
7657 7614 416
7657 7753 1096
7658 7644 120
7658 7661 66
7658 7718 969
7659 7629 154
7659 7635 93
7659 7694 296
7660 7640 63
7660 7649 77
7660 7693 268
7661 7656 19
7661 7658 66
7661 7722 974
7662 7645 121
7662 7648 48
7662 7664 9
7662 7667 17
7663 7653 53
7663 7665 49
7663 7666 23
7664 7662 9
7664 7653 25
7664 7665 13
7664 7667 14
7665 7664 13
7665 7663 49
7665 7668 25
7665 7669 125
7666 7663 23
7666 7669 68
7666 7729 978
7667 7662 17
7667 7664 14
7667 7668 8
7668 7667 8
7668 7665 25
7668 7771 730
7669 7665 125
7669 7666 68
7669 7707 709
7670 7671 1608
7670 7381 1532
7670 7396 1532
7671 7670 1608
7671 7706 361
7671 7720 389
7672 7673 1606
7672 7724 391
7672 7728 384
7673 7672 1606
7673 7383 1536
7673 7398 1536
7674 7675 1515
7674 7676 16
7674 7861 1351
7675 7674 1515
7675 7452 323
7676 7674 16
7676 7677 1515
7676 7775 3130
7676 7856 1305
7677 7676 1515
7677 7453 324
7678 7355 2375
7678 7683 57
7678 7684 54
7679 7680 119
7679 7681 1047
7679 7725 604
7680 7679 119
7681 7679 1047
7682 7604 1694
7682 7647 208
7682 7687 196
7682 7708 174
7683 7678 57
7683 7684 67
7683 7689 2959
7683 7690 40
7684 7683 67
7684 7678 54
7684 7120 5365
7684 8295 5365
7684 7690 68
7685 7417 2414
7686 6814 6091
7686 6262 11201
7686 7913 11175
7687 7682 196
7687 7651 210
7687 7714 173
7688 7422 2410
7688 7689 61
7688 7691 70
7689 7688 61
7689 7683 2959
7689 7696 180
7690 7683 40
7690 7684 68
7691 7688 70
7691 7696 63
7691 7701 3670
7692 7693 103
7692 7583 1285
7692 7737 1285
7692 7862 1285
7692 7940 1285
7693 7692 103
7693 7660 268
7693 7705 62
7694 7659 296
7694 7695 124
7694 7703 25
7695 7694 124
7695 7580 1143
7695 7767 1143
7695 7833 1143
7696 7691 63
7696 7689 180
7696 7704 3692
7697 7616 4207
7697 7698 2
7697 7699 12
7697 7801 582
7698 7697 2
7699 7697 12
7699 7704 56
7699 7804 583
7700 7609 606
7700 7710 74
7700 7721 63
7700 7731 87
7701 7612 4297
7701 7284 5490
7701 7704 24
7701 7691 3670
7702 7703 1112
7703 7702 1112
7703 7694 25
7703 7705 81
7703 7727 70
7704 7699 56
7704 7701 24
7704 7696 3692
7705 7703 81
7705 7693 62
7705 7715 34
7705 7752 1204
7706 7671 361
7706 7710 22
7706 7728 112
7707 7669 709
7707 7716 49
7707 7791 504
7708 7639 1912
7708 7682 174
7708 7714 202
7709 7408 2418
7709 7718 31
7709 7733 62
7710 7706 22
7710 7700 74
7710 7721 46
7711 7616 609
7711 7655 2383
7711 7713 663
7711 7739 75
7712 7411 2421
7712 7723 26
7712 7734 61
7713 7711 663
7713 7756 340
7714 7708 202
7714 7687 173
7714 7717 22
7714 7730 38
7715 7705 34
7715 7737 59
7715 7776 359
7716 7707 49
7716 7719 76
7716 7726 59
7717 7714 22
7717 7652 388
7717 7730 34
7717 7753 883
7718 7658 969
7718 7709 31
7718 7722 66
7719 7716 76
7719 7726 20
7719 7735 100
7720 7671 389
7720 7772 101
7721 7710 46
7721 7700 63
7721 7731 43
7721 7741 62
7722 7661 974
7722 7718 66
7722 7733 66
7723 7712 26
7723 7745 69
7723 7750 145
7724 7672 391
7724 7778 100
7725 7679 604
7725 7742 282
7725 7796 433
7726 7716 59
7726 7719 20
7726 7735 85
7727 7703 70
7727 7767 171
7727 7775 327
7728 7672 384
7728 7706 112
7728 7732 17
7729 7666 978
7729 7736 64
7729 7748 81
7730 7649 2116
7730 7714 38
7730 7717 34
7730 7747 539
7730 7821 677
7731 7721 43
7731 7700 87
7731 7738 39
7732 7728 17
7732 7741 48
7732 7762 113
7733 7722 66
7733 7709 62
7733 7734 14
7733 7736 18
7734 7733 14
7734 7712 61
7734 7740 18
7734 7745 61
7735 7726 85
7735 7719 100
7735 7748 75
7736 7729 64
7736 7733 18
7736 7740 14
7736 7758 59
7737 7715 59
7737 7583 1285
7737 7692 1285
7737 7862 1285
7737 7940 1285
7738 7731 39
7738 7755 124
7738 7773 488
7739 7711 75
7739 7781 304
7740 7736 14
7740 7734 18
7740 7751 78
7740 7760 73
7741 7732 48
7741 7721 62
7741 7749 63
7741 7762 85
7742 7725 282
7743 7627 640
7743 8298 73
7744 7630 638
7744 8299 74
7745 7734 61
7745 7723 69
7745 7746 29
7746 7745 29
7746 7750 61
7746 7783 618
7747 7730 539
7747 7761 351
7747 7761 710
7748 7735 75
7748 7729 81
7748 7758 11
7749 7741 63
7749 7755 15
7749 7762 110
7750 7746 61
7750 7723 145
7750 7774 502
7751 7740 78
7751 7754 76
7751 7759 24
7752 7705 1204
7753 7717 883
7753 7657 1096
7753 7761 31
7753 7763 370
7754 7751 76
7754 7760 35
7754 7765 141
7755 7749 15
7755 7738 124
7755 7777 481
7756 7757 202
7756 7713 340
7756 7764 58
7756 7780 724
7757 7756 202
7758 7748 11
7758 7736 59
7758 7813 475
7759 7751 24
7759 7765 57
7759 7788 609
7760 7740 73
7760 7754 35
7760 7824 658
7761 7747 351
7761 7753 31
7761 7766 378
7761 7747 710
7762 7732 113
7762 7741 85
7762 7749 110
7762 7816 553
7763 7753 370
7763 7607 766
7763 7766 35
7763 7782 1726
7764 7756 58
7765 7754 141
7765 7759 57
7765 7786 498
7766 7761 378
7766 7763 35
7766 7782 1708
7766 7867 891
7767 7727 171
7767 7580 1143
7767 7695 1143
7767 7833 1143
7768 7655 623
7768 7769 0
7768 7770 0
7768 7770 7
7769 7768 0
7769 7770 0
7769 7794 216
7769 7795 195
7770 7769 0
7770 7768 0
7770 7768 7
7771 7668 730
7772 7773 511
7772 7720 101
7773 7772 511
7773 7738 488
7773 7800 255
7773 7825 1144
7774 7750 502
7774 7783 64
7774 7787 133
7775 7676 3130
7775 7727 327
7775 7776 87
7775 7869 751
7776 7775 87
7776 7715 359
7776 7779 720
7776 7906 922
7777 7755 481
7777 7778 512
7777 7826 1152
7777 7841 696
7778 7777 512
7778 7724 100
7779 7776 720
7779 7821 1557
7779 7909 960
7780 7756 724
7780 7781 11
7780 7815 241
7780 7817 634
7781 7780 11
7781 7739 304
7782 7766 1708
7782 7763 1726
7782 7809 315
7783 7746 618
7783 7774 64
7783 7790 35
7784 7785 695
7784 7787 11
7784 7797 46
7785 7784 695
7785 7789 14
7785 7798 49
7786 7765 498
7786 7788 63
7786 7803 134
7787 7774 133
7787 7784 11
7787 7790 53
7788 7786 63
7788 7759 609
7788 7792 40
7789 7785 14
7789 7802 66
7789 7812 193
7790 7783 35
7790 7787 53
7790 7797 56
7791 7707 504
7791 7813 264
7791 7822 431
7792 7788 40
7792 7799 51
7792 7803 44
7793 7794 445
7793 7883 1111
7793 7889 692
7794 7793 445
7794 7769 216
7794 7795 19
7794 7895 691
7795 7794 19
7795 7769 195
7795 7896 691
7795 7897 1035
7796 7725 433
7797 7790 56
7797 7784 46
7797 7798 11
7797 7799 16
7798 7797 11
7798 7785 49
7798 7799 16
7798 7802 47
7799 7792 51
7799 7797 16
7799 7798 16
7799 7806 58
7799 7808 44
7800 7773 255
7800 7805 50
7800 7820 773
7801 7655 1970
7801 7697 582
7801 7804 12
7801 7952 965
7802 7798 47
7802 7789 66
7802 7810 75
7803 7786 134
7803 7792 44
7803 7808 24
7804 7801 12
7804 7699 583
7804 7888 6694
7804 7951 960
7805 7800 50
7805 8302 360
7806 7807 52
7806 7799 58
7806 7811 63
7807 7806 52
7807 7808 25
7807 7814 170
7808 7803 24
7808 7799 44
7808 7807 25
7808 7885 719
7809 7782 315
7809 7815 975
7809 7829 385
7810 7802 75
7810 7812 64
7810 7837 563
7811 7806 63
7811 7814 69
7811 7845 625
7812 7810 64
7812 7789 193
7812 7827 440
7813 7791 264
7813 7758 475
7813 7822 185
7814 7807 170
7814 7811 69
7814 7843 501
7815 7809 975
7815 7780 241
7816 7762 553
7816 7836 112
7817 7780 634
7817 7828 804
7817 7961 1396
7818 7819 66
7818 8302 266
7819 7818 66
7819 7820 209
7819 7825 320
7820 7819 209
7820 7800 773
7820 7823 285
7821 7779 1557
7821 7730 677
7821 7867 1287
7821 7974 1634
7822 7791 431
7822 7813 185
7822 7823 17
7823 7820 285
7823 7822 17
7823 7824 14
7823 7844 146
7824 7823 14
7824 7760 658
7824 7831 492
7824 7844 146
7825 7773 1144
7825 7819 320
7825 7830 324
7826 7777 1152
7826 7851 753
7826 7840 324
7827 7812 440
7827 7837 67
7827 7846 218
7828 7817 804
7829 7809 385
7829 7868 48
7830 7831 357
7830 7825 324
7831 7830 357
7831 7824 492
7831 7838 247
7832 7833 399
7832 7954 521
7833 7832 399
7833 7936 1368
7833 7580 1143
7833 7695 1143
7833 7767 1143
7834 7835 346
7835 7834 346
7835 7836 298
7835 7955 3038
7836 7835 298
7836 7816 112
7837 7810 563
7837 7827 67
7837 7849 160
7838 7831 247
7838 7877 49
7839 7840 596
7839 7881 51
7840 7839 596
7840 7826 324
7841 7777 696
7841 7842 62
7841 7915 320
7842 7841 62
7842 8302 47
7843 7814 501
7843 7845 66
7843 7852 165
7844 7823 146
7844 7824 146
7844 7932 408
7845 7843 66
7845 7811 625
7845 7848 54
7846 7827 218
7846 7847 448
7846 7849 22
7847 7846 448
7848 7845 54
7848 7852 50
7848 7855 146
7849 7837 160
7849 7846 22
7849 7866 282
7850 7851 170
7850 8302 9
7851 7850 170
7851 7826 753
7851 7916 245
7852 7843 165
7852 7848 50
7852 7866 314
7853 7854 82
7853 7920 215
7854 7853 82
7854 7869 255
7854 7879 186
7855 7848 146
7855 7942 263
7856 7676 1305
7856 7875 87
7856 7876 92
7857 7858 322
7857 8300 380
7858 7857 322
7858 7908 325
7858 7921 236
7859 7630 3682
7860 7626 3729
7861 7674 1351
7861 7870 76
7861 7874 46
7862 7863 651
7862 7583 1285
7862 7692 1285
7862 7737 1285
7862 7940 1285
7863 7862 651
7863 7947 196
7864 7865 627
7865 7864 627
7865 7866 20
7865 7871 283
7865 7872 38
7866 7849 282
7866 7865 20
7866 7852 314
7867 7821 1287
7867 7766 891
7867 7868 1671
7868 7867 1671
7868 7829 48
7869 7775 751
7869 7854 255
7869 7928 319
7870 7861 76
7870 7873 82
7870 7874 43
7871 7865 283
7871 7873 58
7871 7878 314
7872 7865 38
7872 7911 83
7873 7871 58
7873 7870 82
7873 7900 146
7874 7870 43
7874 7861 46
7874 7875 23
7874 7902 76
7875 7874 23
7875 7856 87
7875 7876 51
7875 7903 71
7876 7875 51
7876 7856 92
7876 7887 386
7876 7905 163
7877 7878 1200
7877 7838 49
7878 7877 1200
7878 7871 314
7878 7882 278
7879 7854 186
7879 8303 123
7880 7881 1205
7880 7890 282
7880 7898 277
7881 7880 1205
7881 7839 51
7882 7878 278
7882 7886 318
7883 7884 339
7883 7793 1111
7883 7889 482
7883 7933 157
7884 7883 339
7885 7808 719
7886 7887 359
7886 7882 318
7887 7886 359
7887 7876 386
7887 7936 2321
7888 7804 6694
7889 7883 482
7889 7793 692
7889 7895 474
7889 7935 183
7890 7880 282
7890 7894 315
7891 7892 411
7891 8303 74
7892 7891 411
7892 8301 358
7893 7894 362
7893 7905 328
7893 7939 2405
7894 7893 362
7894 7890 315
7895 7889 474
7895 7794 691
7895 7896 19
7895 7948 282
7896 7895 19
7896 7795 691
7896 7897 444
7896 7949 283
7897 7896 444
7897 7795 1035
7897 7910 447
7897 7950 276
7898 7880 277
7898 7899 99
7898 7901 191
7899 7898 99
7899 7900 22
7899 7924 81
7900 7899 22
7900 7873 146
7900 7902 61
7901 7898 191
7901 7912 125
7901 7931 137
7902 7900 61
7902 7874 76
7902 7903 29
7902 7924 85
7903 7902 29
7903 7875 71
7903 7904 49
7903 7918 49
7904 7903 49
7904 7905 98
7904 7918 87
7905 7904 98
7905 7876 163
7905 7893 328
7906 7776 922
7906 7907 125
7906 7908 55
7907 7906 125
7907 7909 82
7907 7917 72
7908 7906 55
7908 7858 325
7908 7914 231
7909 7907 82
7909 7779 960
7909 7923 33
7910 7897 447
7911 7912 20
7911 7872 83
7912 7911 20
7912 7901 125
7912 7959 435
7913 7686 11175
7914 7908 231
7914 7929 218
7915 7841 320
7915 7981 1589
7915 7994 1589
7916 7851 245
7916 7983 1593
7916 7995 1593
7917 7907 72
7917 7922 157
7917 7923 64
7918 7903 49
7918 7904 87
7918 7971 1320
7919 7920 216
7919 7922 54
7919 7921 403
7920 7919 216
7920 7853 215
7921 7858 236
7921 7919 403
7921 7930 62
7922 7919 54
7922 7917 157
7922 7958 337
7923 7917 64
7923 7909 33
7923 7960 339
7924 7899 81
7924 7902 85
7924 7937 160
7925 7926 114
7925 7927 107
7925 7934 211
7926 7925 114
7926 8303 58
7927 7925 107
7927 7945 255
7928 7929 447
7928 7869 319
7928 7934 165
7929 7928 447
7929 7914 218
7930 7921 62
7930 7939 451
7930 7953 483
7931 7901 137
7931 7938 74
7931 7941 90
7932 7844 408
7932 7956 101
7933 7883 157
7934 7928 165
7934 7925 211
7934 7936 156
7935 7889 183
7936 7887 2321
7936 7934 156
7936 7833 1368
7937 7924 160
7937 7938 103
7937 7943 79
7938 7931 74
7938 7937 103
7938 7943 63
7939 7893 2405
7939 7940 1217
7939 7930 451
7940 7939 1217
7940 7583 1285
7940 7692 1285
7940 7737 1285
7940 7862 1285
7941 7942 236
7941 7931 90
7941 7944 51
7941 7957 118
7942 7941 236
7942 7855 263
7943 7938 63
7943 7937 79
7943 7944 19
7944 7941 51
7944 7943 19
7944 7957 86
7945 7946 317
7945 7927 255
7946 7945 317
7946 7947 169
7946 7958 46
7947 7946 169
7947 7863 196
7948 7895 282
7949 7896 283
7950 7897 276
7951 7804 960
7952 7801 965
7953 7930 483
7953 7954 108
7953 7968 590
7954 7953 108
7954 7832 521
7955 7956 86
7955 7835 3038
7955 7972 1508
7956 7955 86
7956 7932 101
7957 7941 118
7957 7944 86
7957 7970 917
7958 7946 46
7958 7922 337
7958 7967 566
7959 7912 435
7960 7923 339
7961 7817 1396
7962 7963 279
7963 7962 279
7964 7965 260
7965 7964 260
7966 7967 540
7966 8300 1109
7967 7966 540
7967 7958 566
7967 7977 251
7968 7953 590
7968 7969 544
7968 7978 251
7969 7968 544
7969 8301 1075
7970 7957 917
7970 7973 155
7971 7918 1320
7971 7976 161
7972 7955 1508
7972 7973 53
7972 7975 21
7972 7984 437
7973 7972 53
7973 7970 155
7974 7821 1634
7974 8306 464
7975 7972 21
7975 7976 47
7975 7986 428
7975 7990 486
7976 7975 47
7976 7971 161
7977 7967 251
7977 8304 276
7978 7968 251
7978 8305 275
7979 7980 1006
7980 7979 1006
7980 7981 388
7980 7982 44
7980 7987 21
7981 7980 388
7981 7915 1589
7981 7994 1589
7982 7980 44
7982 7983 386
7982 7989 21
7982 7984 2407
7983 7982 386
7983 7916 1593
7983 7995 1593
7984 7985 2870
7984 7972 437
7984 7986 11
7984 7982 2407
7985 7984 2870
7986 7984 11
7986 7975 428
7986 7990 317
7986 7989 2434
7987 7988 959
7987 7980 21
7987 7989 44
7987 7993 308
7988 7987 959
7989 7987 44
7989 7982 21
7989 7996 311
7989 7986 2434
7990 7986 317
7990 7975 486
7990 7999 403
7991 7992 957
7992 7991 957
7993 7987 308
7993 7994 160
7993 7997 36
7994 7993 160
7994 7915 1589
7994 7981 1589
7995 7996 160
7995 7916 1593
7995 7983 1593
7996 7995 160
7996 7989 311
7996 7998 41
7997 7993 36
7998 7996 41
7999 7990 403
8000 580 27
8001 8002 6175
8002 8001 6175
8003 8004 6219
8004 8003 6219
8005 8006 1145
8006 8005 1145
8007 8008 1120
8008 8007 1120
8009 840 2429
8009 8010 2429
8010 840 2429
8010 8009 2429
8011 834 2490
8011 893 2490
8011 8012 2490
8012 834 2490
8012 893 2490
8012 8011 2490
8013 1165 7279
8013 1228 7279
8013 8014 7279
8013 8016 279
8014 1165 7279
8014 1228 7279
8014 8013 7279
8015 8016 1614
8015 8029 2348
8016 8015 1614
8016 8013 279
8017 1211 7274
8017 1242 7274
8017 8018 7274
8018 1211 7274
8018 1242 7274
8018 8017 7274
8018 8019 263
8019 8020 1618
8019 8018 263
8020 8019 1618
8020 8030 2341
8021 1571 131
8022 8023 47
8023 8022 47
8024 8025 101
8024 8026 6
8024 8027 18
8024 8035 1121
8025 8024 101
8026 8024 6
8027 8024 18
8028 1713 83
8029 8015 2348
8029 8064 360
8030 8020 2341
8030 8065 346
8031 8032 364
8032 8031 364
8032 1794 287
8033 8034 366
8033 1799 286
8034 8033 366
8035 8024 1121
8035 1869 652
8035 2001 1616
8036 8037 1127
8037 8036 1127
8037 1931 703
8037 2007 1623
8038 8039 558
8038 1787 225
8038 8044 333
8039 8038 558
8040 8041 703
8041 8040 703
8041 8042 117
8041 8043 131
8042 8041 117
8043 8041 131
8044 8038 333
8045 1840 17
8046 1840 17
8047 1795 372
8047 1871 302
8047 1878 287
8048 1798 385
8048 1890 277
8048 1887 292
8049 8050 20
8050 8049 20
8050 8051 20
8050 8052 23
8051 8050 20
8052 8050 23
8052 1862 21
8052 8054 17
8052 1885 452
8053 1862 378
8053 1864 378
8053 1800 511
8054 8052 17
8054 8055 19
8054 8056 19
8055 8054 19
8056 8054 19
8057 1849 361
8058 1902 679
8058 1973 1790
8059 1888 197
8059 1901 390
8059 8062 418
8060 1934 732
8060 1976 1780
8061 1886 262
8061 1937 271
8061 1963 321
8062 8059 418
8062 8063 664
8062 8067 284
8063 8064 1798
8063 8062 664
8063 8067 546
8064 8063 1798
8064 8029 360
8065 8066 1814
8065 8030 346
8066 8065 1814
8066 1951 432
8066 8068 562
8067 8062 284
8067 8063 546
8067 8068 32
8067 1972 228
8068 8067 32
8068 8066 562
8068 1978 209
8068 1981 316
8069 1979 236
8069 1982 237
8069 2996 8655
8070 1983 287
8070 1971 439
8070 2994 8476
8071 8072 1987
8072 8071 1987
8072 8080 887
8073 2138 39
8074 8075 2037
8074 8308 1171
8075 8074 2037
8076 2100 243
8076 2275 438
8076 8094 1612
8077 2247 57
8077 2225 28
8078 8079 69
8079 8078 69
8080 8081 49
8080 8072 887
8081 8080 49
8081 8307 196
8082 2038 3515
8082 2085 3515
8082 2316 1363
8082 8089 581
8083 2040 3501
8083 2096 3501
8083 8086 411
8083 2405 2782
8083 8095 2782
8084 8085 77
8085 8084 77
8086 8083 411
8086 8089 173
8087 8088 14
8087 8091 50
8087 8092 18
8088 8087 14
8089 8082 581
8089 8086 173
8089 2323 796
8089 2396 1446
8089 8094 1446
8090 8091 14
8091 8090 14
8091 8087 50
8091 8093 18
8092 8087 18
8093 8091 18
8094 8076 1612
8094 2396 1446
8094 8089 1446
8094 8095 763
8094 2499 1571
8094 2554 1571
8095 8094 763
8095 2405 2782
8095 8083 2782
8095 2556 804
8096 8097 85
8097 8096 85
8098 2593 144
8098 8099 247
8098 2647 254
8099 2607 38
8099 8098 247
8099 2771 467
8100 2610 37
8100 8101 85
8100 2634 465
8101 8100 85
8101 2630 374
8101 2660 275
8102 2658 460
8102 2687 91
8102 8103 17
8102 2774 62
8103 8102 17
8103 2690 112
8103 2741 45
8103 2739 259
8104 3091 88
8104 3088 87
8104 3126 155
8105 8106 117
8106 8105 117
8107 3164 278
8107 3205 243
8107 8111 592
8108 3162 306
8108 8109 135
8108 3189 349
8109 8108 135
8109 3227 529
8110 3191 252
8110 3201 127
8110 3229 264
8111 3206 533
8111 3208 533
8111 8107 592
8111 3445 100
8112 3669 222
8112 8113 143
8113 3598 257
8113 8112 143
8113 3708 300
8114 3712 114
8114 3710 113
8114 8116 42
8115 3709 148
8115 3732 81
8115 8116 18
8115 8117 15
8116 8114 42
8116 8115 18
8116 8119 14
8116 3772 32
8117 8115 15
8117 3736 79
8117 8119 17
8117 3894 135
8118 3739 86
8119 8116 14
8119 8117 17
8119 3776 30
8119 3897 137
8120 3703 129
8120 3733 129
8120 3733 765
8120 3870 765
8121 3100 5868
8121 4088 547
8121 8123 854
8122 3099 5874
8122 4077 526
8122 8124 863
8123 4079 467
8123 8121 854
8123 4838 3337
8124 8122 863
8124 4085 477
8124 4831 3326
8125 4485 211
8125 4516 211
8125 4528 355
8126 4516 70
8126 4531 253
8126 8127 8
8126 8130 22
8127 4517 68
8127 8126 8
8127 8128 426
8127 8131 22
8128 4527 265
8128 8127 426
8128 4424 1702
8129 4537 201
8129 8130 52
8129 8132 52
8130 8126 22
8130 8129 52
8130 8131 9
8130 8132 5
8131 8127 22
8131 8130 9
8131 8133 6
8131 8134 556
8132 8130 5
8132 8129 52
8132 8133 9
8132 4579 216
8133 8131 6
8133 8132 9
8133 4576 131
8133 4577 201
8134 8131 556
8134 4425 1587
8134 4580 389
8135 4726 84
8135 4745 49
8135 4749 75
8136 4733 296
8136 4773 57
8136 4777 28
8136 8137 43
8137 8136 43
8137 4833 6
8137 4848 78
8137 4842 145
8138 4876 506
8138 4888 506
8139 8140 27
8139 8141 16
8139 8142 95
8140 8139 27
8141 8139 16
8142 8143 21
8142 8139 95
8142 8144 30
8143 8142 21
8144 8142 30
8145 4978 108
8145 5022 2
8146 5000 135
8146 4954 393
8146 8149 270
8147 8148 105
8148 8147 105
8149 8146 270
8149 8150 51
8149 5133 538
8150 4992 119
8150 8149 51
8150 5050 65
8151 5058 144
8151 5041 271
8151 5162 262
8152 5180 92
8153 8154 152
8154 8153 152
8155 8156 147
8156 8155 147
8157 8158 332
8158 8157 332
8159 5401 364
8160 5542 253
8160 5557 58
8160 5572 323
8161 5545 154
8161 5573 8
8161 8162 11
8161 5618 109
8162 8161 11
8162 5575 10
8162 8163 21
8162 5664 109
8163 8162 21
8163 5579 14
8163 8164 11
8163 5699 103
8164 8163 11
8164 5580 17
8164 5645 99
8164 8182 452
8165 5593 118
8165 5570 1408
8165 5592 1408
8165 8166 1408
8165 8167 15
8165 8168 31
8166 5570 1408
8166 5592 1408
8166 8165 1408
8167 5569 121
8167 8165 15
8167 8171 32
8167 8174 171
8168 8165 31
8168 5640 1308
8168 8169 1308
8168 8171 15
8168 5637 65
8169 5640 1308
8169 8168 1308
8170 5594 50
8170 8172 18
8170 5632 114
8170 5682 346
8171 8167 32
8171 8168 15
8171 5635 66
8171 8175 135
8172 5596 45
8172 8170 18
8172 5622 170
8172 5651 111
8173 5626 81
8174 8167 171
8175 8171 135
8176 5123 1907
8176 5775 92
8177 5126 1918
8177 5778 89
8178 5681 98
8179 5610 188
8179 8180 214
8179 8183 118
8180 5609 421
8180 5680 421
8180 8184 421
8180 8179 214
8181 5615 202
8181 8184 235
8181 8186 105
8182 5646 249
8182 5673 249
8182 8164 452
8183 8179 118
8183 8185 236
8183 5911 611
8184 5609 421
8184 5680 421
8184 8180 421
8184 8181 235
8185 5605 501
8185 5691 501
8185 8187 501
8185 8183 236
8186 8181 105
8186 8187 227
8186 5712 607
8186 5918 607
8187 5605 501
8187 5691 501
8187 8185 501
8187 8186 227
8188 5674 59
8189 5675 60
8190 5774 447
8190 5920 524
8190 8208 1297
8191 5779 441
8191 5929 523
8191 8210 1300
8192 8193 19
8193 8192 19
8193 8194 73
8193 8197 32
8194 8193 73
8194 8195 32
8194 8196 18
8195 8194 32
8196 8194 18
8197 8193 32
8198 8199 16
8199 8198 16
8199 8200 18
8199 8204 64
8200 8199 18
8201 8202 173
8202 8201 173
8203 8204 19
8204 8203 19
8204 8199 64
8204 8205 18
8205 8204 18
8206 5901 183
8206 8209 274
8206 8211 500
8207 5897 270
8207 6018 286
8207 8213 445
8208 5913 454
8208 8190 1297
8208 6465 1187
8209 8206 274
8209 8211 232
8210 8191 1300
8210 5943 480
8210 6466 1182
8211 8209 232
8211 8206 500
8211 8212 20
8211 8213 36
8212 6024 325
8212 8211 20
8212 8214 40
8212 6056 59
8213 8211 36
8213 8207 445
8213 8214 25
8213 6032 277
8214 8212 40
8214 8213 25
8214 6052 34
8214 6100 243
8215 4832 5481
8215 8217 246
8215 8220 422
8216 4837 5556
8216 6142 255
8216 8219 330
8217 8215 246
8217 6121 228
8217 8221 301
8218 6129 6
8218 8219 40
8218 6151 462
8218 8224 409
8219 8218 40
8219 8216 330
8219 8220 21
8219 8222 230
8220 8219 21
8220 8215 422
8220 8221 119
8220 8226 576
8221 8220 119
8221 8217 301
8221 6190 46
8221 8223 109
8222 8219 230
8222 6193 277
8222 8225 356
8223 8221 109
8223 6173 339
8223 8226 383
8224 6186 152
8224 8218 409
8224 8225 270
8225 8224 270
8225 8222 356
8225 6798 2003
8226 8220 576
8226 8223 383
8226 8260 1998
8227 6313 135
8227 6411 312
8227 6437 837
8227 8251 837
8228 6315 211
8228 8238 85
8229 6253 496
8229 8230 11
8229 8232 22
8229 8241 90
8230 8229 11
8230 6255 497
8230 8233 14
8230 8242 89
8231 6363 187
8231 6379 187
8231 6486 582
8232 6344 40
8232 8229 22
8232 8235 31
8233 8230 14
8233 6345 37
8233 8234 19
8234 8233 19
8234 6349 148
8234 8236 45
8235 6358 143
8235 8232 31
8235 8237 43
8236 8234 45
8236 6360 158
8236 8239 28
8237 8235 43
8237 6375 148
8237 8240 24
8238 6374 57
8238 8228 85
8238 6390 12
8238 8243 29
8239 8236 28
8239 8242 21
8239 6512 376
8240 8237 24
8240 8241 17
8240 6519 374
8241 8240 17
8241 8229 90
8241 8242 11
8241 8253 705
8242 8241 11
8242 8230 89
8242 8239 21
8242 8254 709
8243 6380 60
8243 8238 29
8243 6392 12
8243 8244 24
8244 6382 62
8244 8243 24
8244 6396 11
8244 6443 227
8245 6385 534
8245 6315 812
8245 6806 305
8246 8247 508
8247 8246 508
8248 8249 508
8249 8248 508
8250 6478 75
8251 6437 837
8251 8227 837
8251 6391 629
8251 6803 134
8252 6464 535
8252 6581 346
8252 8256 1052
8253 6518 113
8253 8241 705
8253 6672 363
8254 8242 709
8254 6513 133
8254 6662 348
8255 6620 344
8256 6567 449
8256 8252 1052
8256 8263 275
8257 6467 1598
8257 6605 489
8257 8264 267
8258 6642 121
8258 6644 57
8258 6711 195
8259 6646 57
8259 6692 114
8259 6714 195
8260 8226 1998
8260 7000 2096
8261 6604 2561
8261 6932 2561
8261 8262 2561
8261 6653 79
8262 6604 2561
8262 6932 2561
8262 8261 2561
8262 6666 80
8263 8256 275
8263 7080 4104
8264 8257 267
8264 7061 4098
8265 6712 211
8266 8267 394
8267 8266 394
8268 8269 394
8269 8268 394
8270 6700 315
8270 6765 315
8271 6845 870
8272 6847 875
8273 6917 374
8274 8275 325
8275 8274 325
8276 8277 327
8277 8276 327
8278 7081 169
8278 8280 73
8278 8283 321
8279 7112 126
8279 7082 169
8279 8282 249
8280 8278 73
8280 7104 86
8280 8281 175
8281 8280 175
8281 7115 150
8281 8283 72
8282 8279 249
8282 8284 94
8282 7153 104
8283 8278 321
8283 8281 72
8283 7208 343
8284 8282 94
8284 7082 505
8284 7202 8
8285 7184 190
8285 7163 553
8285 7188 553
8285 8301 3613
8286 8287 355
8287 8286 355
8288 8289 355
8289 8288 355
8290 7002 1585
8291 7001 1602
8292 8293 111
8293 8292 111
8294 7367 111
8295 7120 5365
8295 7684 5365
8295 8296 11426
8295 8297 1619
8296 8295 11426
8297 8295 1619
8298 7743 73
8299 7744 74
8300 7168 4112
8300 7187 4112
8300 7857 380
8300 7966 1109
8301 8285 3613
8301 7892 358
8301 7969 1075
8302 7805 360
8302 7818 266
8302 7850 9
8302 7842 47
8303 7879 123
8303 7891 74
8303 7926 58
8304 7977 276
8305 7978 275
8306 7974 464
8307 8081 196
8308 8074 1171
8309 3321 45
8310 8311 5649
8311 8310 5649
8312 8313 5768
8313 8312 5768
8314 4871 510
8314 5012 510
8314 5002 95
