12333 32692
0 1 166
1 0 166
2 3 487
3 2 487
4 5 1829
5 4 1829
5 6 1795
5 9 649
6 5 1795
7 8 921
8 7 921
8 19 721
8 28 3458
9 10 896
9 5 649
9 11 49
10 9 896
11 12 328
11 9 49
11 14 415
11 21 446
12 11 328
13 14 65
13 15 247
13 20 134
14 13 65
14 11 415
14 18 104
15 13 247
16 17 57
17 16 57
18 14 104
19 8 721
20 13 134
21 11 446
21 22 36
22 23 571
22 21 36
22 46 2790
23 22 571
24 25 98
25 24 98
26 27 52
26 31 590
26 58 5532
27 26 52
28 8 3458
28 29 203
28 30 339
29 28 203
30 28 339
31 26 590
32 33 259
33 32 259
33 35 886
33 36 351
34 35 2709
35 34 2709
35 33 886
35 37 557
36 33 351
37 35 557
37 38 91
37 41 198
38 37 91
39 40 272
40 39 272
40 42 297
40 44 1140
41 37 198
41 43 132
41 44 281
42 40 297
43 41 132
44 40 1140
44 41 281
44 45 92
45 44 92
46 22 2790
46 49 978
46 70 1762
47 48 1126
48 47 1126
48 50 2100
49 46 978
50 48 2100
50 51 63
50 52 302
51 50 63
52 50 302
53 54 447
53 55 67
53 61 869
54 53 447
55 53 67
55 56 10
56 57 920
56 55 10
57 56 920
58 26 5532
58 74 2759
58 78 2046
59 60 4387
60 59 4387
60 67 2936
60 181 4539
61 53 869
61 62 24
61 64 34
62 63 360
62 61 24
62 64 29
63 62 360
64 62 29
64 61 34
64 65 213
65 64 213
65 66 113
65 69 180
65 72 330
66 65 113
66 68 423
66 69 185
67 60 2936
67 90 4540
68 66 423
69 66 185
69 65 180
70 46 1762
70 71 29
70 73 47
71 70 29
71 73 27
71 176 5034
72 65 330
72 74 893
72 81 1335
73 71 27
73 70 47
73 75 201
74 58 2759
74 76 63
74 72 893
75 73 201
75 77 29
75 78 32
76 74 63
76 81 1054
77 75 29
77 78 34
77 79 564
78 77 34
78 75 32
78 58 2046
79 77 564
79 80 272
79 122 1870
80 79 272
81 72 1335
81 76 1054
81 89 1778
82 83 398
83 82 398
83 84 149
83 87 322
84 83 149
85 86 320
86 85 320
86 88 351
86 93 627
87 83 322
87 88 143
87 99 791
88 87 143
88 86 351
88 98 662
89 81 1778
89 91 1593
89 119 1685
90 67 4540
90 92 30
90 97 1003
91 89 1593
91 95 1168
91 100 1192
92 90 30
93 86 627
93 94 540
93 104 646
93 137 971
94 93 540
95 91 1168
95 96 149
95 118 577
96 95 149
97 90 1003
98 88 662
98 99 91
98 104 185
99 87 791
99 98 91
99 107 180
100 91 1192
100 103 849
100 121 922
101 102 103
102 101 103
103 100 849
104 98 185
104 93 646
104 107 194
105 106 2793
106 105 2793
107 99 180
107 104 194
107 149 1607
108 109 500
108 114 303
108 135 506
109 108 500
110 111 591
111 110 591
111 11737 96
112 113 37
113 112 37
114 108 303
114 131 680
114 139 509
115 116 11
116 115 11
117 118 1246
117 11738 14
118 117 1246
118 95 577
118 142 642
119 89 1685
119 122 82
120 121 288
121 120 288
121 100 922
122 79 1870
122 119 82
122 148 896
123 124 192
124 123 192
125 126 29
126 125 29
127 128 26
128 127 26
129 130 597
130 129 597
130 138 203
130 143 590
131 132 94
131 114 680
131 140 440
131 146 516
132 131 94
133 134 765
134 133 765
134 182 1570
135 108 506
135 136 41
135 139 315
136 135 41
137 93 971
138 130 203
139 114 509
139 135 315
139 141 74
140 131 440
141 139 74
141 145 663
141 153 515
142 118 642
143 144 602
143 130 590
143 152 580
144 143 602
145 141 663
145 146 12
145 172 589
146 131 516
146 145 12
146 147 8
147 146 8
147 151 350
147 173 603
148 122 896
148 179 900
148 184 4942
149 107 1607
149 150 27
149 159 522
149 198 3271
150 149 27
150 158 488
150 167 403
150 199 3227
151 147 350
152 143 580
153 141 515
153 172 578
153 212 2069
154 155 289
155 154 289
156 157 398
157 156 398
158 150 488
158 159 33
158 166 109
158 290 3337
159 158 33
159 149 522
159 258 2818
159 288 3311
160 161 3
161 160 3
162 163 75
163 162 75
164 165 340
164 174 230
164 200 764
165 164 340
166 158 109
166 171 23
167 150 403
167 170 87
167 175 110
168 169 38
169 168 38
170 167 87
170 171 76
170 175 113
171 170 76
171 166 23
172 145 589
172 153 578
172 173 26
172 188 355
173 147 603
173 172 26
173 187 331
174 164 230
175 167 110
175 170 113
175 202 803
176 71 5034
176 179 126
176 180 255
177 178 165
177 182 142
177 183 116
178 177 165
179 176 126
179 148 900
179 195 331
180 176 255
180 195 313
180 201 1329
181 60 4539
181 183 310
181 367 3642
182 177 142
182 134 1570
182 185 98
183 181 310
183 177 116
183 185 213
183 186 91
184 148 4942
185 183 213
185 182 98
185 197 233
186 183 91
187 173 331
187 188 16
187 189 17
188 187 16
188 172 355
188 190 16
188 226 1184
189 187 17
189 190 15
189 211 424
190 189 15
190 188 16
190 205 577
190 216 609
191 192 690
191 193 95
191 194 13
192 191 690
193 191 95
194 191 13
194 196 175
194 207 336
195 180 313
195 179 331
195 209 325
196 194 175
196 204 669
196 207 292
197 185 233
198 149 3271
198 199 40
198 235 1549
199 198 40
199 150 3227
199 236 1520
199 323 2817
200 164 764
200 203 26
201 180 1329
202 203 21
202 175 803
202 308 2567
203 202 21
203 200 26
204 196 669
204 206 384
204 233 870
205 190 577
205 219 515
205 227 583
206 204 384
206 208 497
206 210 116
207 196 292
207 194 336
207 233 912
208 206 497
208 212 675
208 213 124
209 195 325
209 262 1675
209 262 1733
209 289 2195
210 206 116
210 213 455
210 218 501
211 189 424
211 221 503
211 224 399
212 153 2069
212 208 675
212 215 133
212 226 1295
213 208 124
213 210 455
213 214 520
213 218 167
214 213 520
214 215 158
214 220 241
215 212 133
215 214 158
215 217 35
216 190 609
216 219 193
216 225 216
217 215 35
217 230 280
217 237 1137
218 213 167
218 210 501
218 220 531
218 231 731
219 216 193
219 205 515
219 229 238
220 214 241
220 218 531
220 230 190
221 222 6
221 211 503
221 223 76
222 221 6
223 221 76
223 224 189
223 245 499
224 223 189
224 211 399
224 225 19
224 246 515
225 224 19
225 216 216
225 229 296
225 247 513
226 188 1184
226 212 1295
226 227 13
226 237 407
227 205 583
227 226 13
227 228 213
227 232 190
228 227 213
228 229 58
228 234 482
229 219 238
229 228 58
229 225 296
230 217 280
230 220 190
230 231 97
231 230 97
231 218 731
231 254 606
232 227 190
232 234 53
232 240 225
233 204 870
233 207 912
233 257 801
234 232 53
234 228 482
234 238 130
235 198 1549
236 199 1520
237 226 407
237 217 1137
237 240 15
237 312 1424
238 234 130
238 239 6
238 241 50
239 238 6
239 240 78
239 244 118
240 232 225
240 237 15
240 239 78
240 263 583
241 238 50
241 242 83
241 243 118
242 241 83
243 241 118
244 239 118
244 255 317
244 264 452
245 223 499
245 246 342
245 248 574
245 267 366
246 245 342
246 224 515
246 247 17
246 271 375
247 246 17
247 225 513
247 251 150
248 245 574
248 273 366
249 250 100
249 251 371
249 252 93
250 249 100
251 247 150
251 249 371
251 256 132
252 249 93
252 253 126
252 259 109
253 252 126
254 231 606
254 257 1388
254 280 315
255 244 317
256 251 132
256 259 308
256 268 90
257 254 1388
257 233 801
257 293 1008
258 159 2818
258 274 162
258 288 538
259 256 308
259 252 109
259 270 91
260 261 57
260 265 167
260 275 138
261 260 57
262 209 1675
262 209 1733
262 292 759
262 375 1769
263 240 583
263 264 166
263 313 829
264 244 452
264 263 166
264 275 101
265 260 167
265 266 72
265 276 115
266 265 72
266 270 14
266 277 127
267 245 366
267 269 261
267 273 546
267 283 328
268 256 90
268 271 15
268 286 343
269 267 261
269 271 180
269 285 342
270 259 91
270 266 14
270 278 167
271 269 180
271 246 375
271 268 15
271 287 344
272 273 223
273 272 223
273 248 366
273 267 546
273 282 303
274 258 162
275 260 138
275 264 101
275 276 178
276 265 115
276 275 178
276 277 166
277 266 127
277 276 166
277 278 81
278 270 167
278 277 81
278 279 16
279 278 16
280 254 315
280 281 84
280 293 356
281 280 84
281 296 384
281 314 676
282 273 303
282 283 543
282 306 455
283 282 543
283 267 328
283 284 294
283 305 431
284 283 294
284 285 53
284 304 418
285 284 53
285 269 342
285 287 187
286 268 343
286 287 13
286 303 420
287 285 187
287 271 344
287 286 13
287 302 416
288 159 3311
288 258 538
288 290 26
288 569 4929
289 209 2195
289 294 91
289 422 3767
290 158 3337
290 288 26
290 321 655
290 571 4932
291 292 2509
292 291 2509
292 262 759
292 307 306
293 280 356
293 257 1008
293 295 23
294 289 91
294 335 716
295 293 23
295 296 52
295 300 204
296 281 384
296 295 52
296 299 165
297 298 283
298 297 283
298 306 548
298 330 498
299 296 165
300 295 204
300 301 164
300 326 446
300 327 322
301 300 164
302 287 416
302 303 16
302 304 299
302 383 1209
303 302 16
303 286 420
303 317 807
303 333 451
304 284 418
304 302 299
304 305 301
305 283 431
305 304 301
305 306 541
305 351 810
306 298 548
306 282 455
306 305 541
306 334 403
307 292 306
307 349 845
308 202 2567
308 323 243
308 350 614
309 310 1176
309 311 345
309 315 146
310 309 1176
311 309 345
312 237 1424
312 318 75
312 320 107
313 263 829
313 317 112
313 319 75
314 281 676
314 320 492
314 326 283
314 352 611
315 316 244
315 309 146
315 327 647
315 329 163
316 315 244
317 303 807
317 313 112
317 319 73
317 324 115
318 312 75
318 319 15
318 320 70
318 325 83
319 317 73
319 313 75
319 318 15
319 324 80
320 318 70
320 312 107
320 314 492
320 325 118
321 322 120
321 290 655
321 341 1299
322 321 120
323 199 2817
323 308 243
323 328 92
323 356 522
324 317 115
324 319 80
324 346 337
325 318 83
325 320 118
325 1175 11492
325 11745 11492
326 314 283
326 300 446
326 337 419
326 340 350
327 300 322
327 315 647
327 371 615
328 323 92
328 345 81
329 315 163
330 298 498
330 334 480
330 358 1182
331 332 74
331 346 923
331 378 566
332 331 74
332 333 164
332 379 632
333 303 451
333 332 164
333 368 434
334 330 480
334 306 403
334 351 284
335 294 716
335 336 194
335 338 80
335 364 518
336 335 194
337 326 419
337 359 238
337 393 1008
338 335 80
338 339 21
338 353 190
339 338 21
339 357 207
340 326 350
341 342 666
341 321 1299
341 511 2601
342 341 666
343 344 153
343 345 508
343 347 7
344 343 153
345 343 508
345 328 81
346 331 923
346 324 337
346 354 269
346 365 228
347 343 7
347 348 61
347 469 2012
348 347 61
349 307 845
349 375 294
349 426 2071
350 308 614
350 355 36
350 360 231
351 334 284
351 305 810
351 383 429
352 314 611
352 354 97
352 393 411
353 338 190
353 386 334
353 392 438
354 346 269
354 352 97
354 365 202
355 350 36
355 356 22
355 373 140
356 323 522
356 355 22
356 366 315
356 373 143
357 339 207
357 376 736
357 382 261
358 330 1182
359 337 238
359 371 525
359 418 679
360 350 231
360 369 46
360 372 100
361 362 112
361 363 189
361 369 54
362 361 112
363 361 189
364 335 518
365 346 228
365 354 202
365 402 474
365 404 1114
366 356 315
366 370 159
366 387 377
367 181 3642
367 412 587
368 333 434
368 374 91
368 379 188
369 360 46
369 361 54
369 380 180
370 366 159
371 359 525
371 327 615
371 663 3511
372 360 100
373 356 143
373 355 140
373 377 67
374 368 91
374 384 241
374 391 239
375 349 294
375 262 1769
375 444 1482
376 357 736
376 386 640
376 621 4540
377 373 67
377 387 197
377 398 250
378 331 566
379 368 188
379 332 632
379 391 112
380 369 180
380 381 228
380 401 318
381 380 228
382 357 261
382 397 71
383 351 429
383 302 1209
383 384 16
383 513 2158
384 383 16
384 374 241
384 385 8
385 384 8
385 411 537
385 436 754
386 376 640
386 353 334
386 388 9
386 392 186
387 366 377
387 377 197
387 398 232
388 389 365
388 386 9
388 390 10
388 396 246
389 388 365
389 390 473
389 622 4798
390 388 10
390 396 246
390 397 383
390 389 473
391 374 239
391 379 112
391 405 374
392 386 186
392 353 438
392 406 734
393 352 411
393 337 1008
393 399 93
394 395 2305
395 394 2305
396 390 246
396 388 246
396 407 674
397 390 383
397 382 71
398 387 232
398 377 250
398 400 54
399 393 93
399 402 155
399 433 476
400 398 54
400 401 20
400 410 200
401 400 20
401 380 318
401 414 208
402 365 474
402 399 155
402 403 482
402 433 432
403 402 482
404 365 1114
404 405 112
405 391 374
405 404 112
405 460 691
406 392 734
406 11739 37
407 396 674
407 11740 32
408 409 783
409 408 783
410 400 200
410 415 95
410 416 131
411 385 537
411 439 366
411 459 873
412 367 587
412 413 6462
412 655 2677
413 412 6462
414 401 208
414 423 117
414 427 202
415 410 95
415 416 80
415 417 47
416 410 131
416 415 80
416 482 1141
417 415 47
417 423 121
417 432 269
418 359 679
419 420 81
419 421 86
420 419 81
421 419 86
422 289 3767
423 414 117
423 417 121
423 427 243
424 425 784
425 424 784
426 349 2071
426 444 680
426 451 1121
426 468 744
427 414 202
427 423 243
427 454 227
428 429 48
428 432 40
428 437 77
429 428 48
430 431 619
431 430 619
432 417 269
432 428 40
432 438 21
433 402 432
433 399 476
433 477 593
433 659 2798
434 435 9
435 434 9
436 385 754
437 428 77
438 432 21
439 411 366
439 463 807
439 481 576
440 441 25
441 440 25
442 443 54
443 442 54
444 426 680
444 375 1482
444 529 2018
445 446 134
446 445 134
447 448 198
448 447 198
449 450 57
450 449 57
451 426 1121
451 464 419
451 480 494
452 453 553
453 452 553
454 427 227
454 511 868
454 512 905
455 456 172
456 455 172
457 458 172
458 457 172
459 411 873
459 460 336
459 463 12
460 459 336
460 405 691
460 475 169
461 462 202
462 461 202
463 459 12
463 439 807
463 478 246
464 451 419
464 465 5
464 485 448
465 464 5
465 507 863
466 467 170
467 466 170
468 426 744
468 476 242
468 480 344
469 347 2012
469 470 29
470 471 7
470 469 29
471 470 7
471 472 161
471 479 129
472 471 161
473 474 141
474 473 141
475 460 169
475 478 160
475 509 549
476 468 242
477 433 593
477 496 702
477 497 438
478 463 246
478 475 160
478 484 350
479 471 129
480 451 494
480 468 344
480 485 466
481 439 576
481 495 261
481 516 663
482 416 1141
482 483 44
482 486 154
483 482 44
484 478 350
484 495 623
484 509 681
485 464 448
485 480 466
485 507 792
485 529 382
486 482 154
486 487 49
486 530 460
487 486 49
487 488 50
487 494 210
488 487 50
489 490 142
490 489 142
490 493 95
491 492 1498
492 491 1498
492 538 728
492 542 1309
493 490 95
494 487 210
495 481 261
495 484 623
495 564 591
496 477 702
496 522 731
496 552 430
497 477 438
497 517 164
497 522 220
498 499 176
498 501 94
498 502 163
499 498 176
500 501 372
501 500 372
501 498 94
501 502 74
501 504 20
502 501 74
502 498 163
502 508 118
502 510 80
503 504 380
504 503 380
504 501 20
504 505 7
504 510 138
505 506 383
505 504 7
505 515 149
505 515 142
506 505 383
507 465 863
507 485 792
507 654 1629
508 502 118
508 520 203
508 532 241
509 475 549
509 514 18
509 484 681
510 504 138
510 502 80
510 598 1289
511 454 868
511 341 2601
511 512 3
512 454 905
512 511 3
512 531 85
513 383 2158
514 509 18
514 523 347
514 563 388
515 505 149
515 505 142
515 599 1270
516 481 663
517 497 164
517 547 163
517 547 526
518 519 849
518 11741 190
519 518 849
519 521 11
519 524 18
519 844 4435
520 508 203
521 519 11
521 528 18
521 930 4422
521 1107 8274
522 497 220
522 496 731
522 575 404
523 514 347
524 525 838
524 519 18
524 528 11
524 601 1064
525 524 838
525 11742 199
526 527 27
527 526 27
528 524 11
528 521 18
528 603 1070
528 930 4418
529 485 382
529 444 2018
529 656 2143
530 486 460
530 533 98
530 579 760
531 512 85
531 545 121
531 558 381
532 508 241
533 530 98
533 534 313
533 578 556
534 533 313
535 536 25
536 535 25
537 538 419
538 537 419
538 539 1518
538 492 728
538 591 619
539 538 1518
540 541 12
541 540 12
542 492 1309
542 557 372
542 591 2370
543 544 28
544 543 28
545 531 121
545 546 165
545 565 212
546 545 165
547 517 163
547 517 526
547 576 272
548 549 8
549 548 8
550 551 199
551 550 199
552 496 430
552 562 175
552 581 630
553 554 17
554 553 17
555 556 377
555 557 38
555 560 37
556 555 377
557 555 38
557 542 372
557 560 28
558 559 18
558 531 381
558 566 59
559 558 18
560 555 37
560 557 28
560 561 38
561 560 38
561 600 567
561 613 877
562 552 175
562 563 358
562 589 338
563 514 388
563 562 358
563 580 385
564 495 591
564 572 578
564 586 385
564 596 453
565 545 212
565 574 391
565 766 2131
566 558 59
566 567 34
566 568 6
567 566 34
568 566 6
568 570 90
568 574 71
569 288 4929
569 894 531
570 568 90
571 290 4932
571 899 520
572 564 578
572 573 452
572 580 61
573 572 452
574 568 71
574 565 391
574 578 271
575 522 404
575 576 302
575 581 97
576 547 272
576 577 182
576 575 302
576 590 202
577 576 182
578 533 556
578 574 271
578 579 30
579 578 30
579 530 760
579 594 279
580 572 61
580 563 385
580 593 278
581 552 630
581 575 97
581 590 319
582 583 55
583 582 55
584 585 32
585 584 32
586 564 385
587 588 171
588 587 171
589 562 338
589 658 1132
589 723 1730
590 581 319
590 576 202
590 597 246
591 538 619
591 592 3071
591 542 2370
592 591 3071
593 580 278
593 596 224
593 657 748
594 579 279
594 595 147
594 612 296
595 594 147
596 564 453
596 593 224
597 590 246
597 604 229
597 604 233
598 510 1289
598 623 1101
599 515 1270
599 626 1137
600 561 567
600 602 67
600 620 218
601 524 1064
602 600 67
603 528 1070
604 597 229
604 597 233
604 625 246
605 606 178
606 605 178
606 615 77
606 618 142
607 608 11
607 609 85
607 613 163
608 607 11
608 610 15
608 614 161
609 607 85
609 611 8
609 664 661
610 608 15
610 611 5
610 650 338
611 609 8
611 610 5
612 594 296
612 619 88
612 652 330
613 607 163
613 561 877
613 614 13
614 608 161
614 613 13
614 616 43
615 606 77
615 618 192
615 629 1269
616 614 43
616 617 436
616 631 238
617 616 436
618 615 192
618 606 142
618 670 847
619 612 88
620 600 218
621 376 4540
622 389 4798
622 922 5233
623 624 172
623 626 26
623 629 222
623 598 1101
624 623 172
625 604 246
625 653 548
625 658 454
626 623 26
626 599 1137
626 633 264
626 667 1134
627 628 920
628 627 920
628 721 960
628 753 1178
629 623 222
629 630 316
629 633 69
629 615 1269
630 629 316
631 616 238
631 632 20
631 634 27
632 631 20
632 634 25
632 650 115
633 626 264
633 629 69
633 662 856
633 669 2218
634 632 25
634 631 27
634 671 374
635 636 332
636 635 332
636 637 11
636 641 11
637 638 333
637 636 11
637 640 8
638 637 333
639 640 392
640 639 392
640 637 8
640 642 10
641 636 11
641 644 8
641 647 414
642 643 391
642 640 10
642 649 18
643 642 391
644 641 8
644 645 2
644 651 413
645 644 2
645 646 5
645 685 467
646 645 5
646 649 8
647 641 414
647 648 156
647 651 9
648 647 156
649 646 8
649 642 18
649 687 467
650 610 338
650 632 115
650 666 330
651 644 413
651 647 9
651 664 223
652 612 330
652 677 413
652 705 625
653 625 548
654 507 1629
654 655 53
654 656 67
655 412 2677
655 654 53
655 656 100
656 654 67
656 529 2143
656 655 100
656 691 468
657 593 748
657 706 439
657 706 917
658 589 1132
658 625 454
658 665 64
658 673 197
659 433 2798
659 661 18
659 663 948
659 938 2257
660 661 872
661 660 872
661 659 18
661 799 1225
662 633 856
662 668 827
663 371 3511
663 659 948
663 777 771
664 651 223
664 609 661
664 666 10
664 685 302
665 658 64
665 690 221
665 695 297
666 664 10
666 650 330
666 672 127
666 686 303
667 626 1134
667 680 826
668 669 205
668 662 827
669 668 205
669 633 2218
669 670 20
669 679 84
670 669 20
670 618 847
670 681 81
670 693 455
671 634 374
671 689 350
671 770 571
672 666 127
672 689 124
672 703 324
673 658 197
673 682 165
673 690 177
674 675 10
674 676 15
674 678 33
675 674 10
676 674 15
677 652 413
677 678 49
677 692 105
678 677 49
678 674 33
678 683 31
679 680 271
679 669 84
679 681 18
679 720 1005
680 679 271
680 667 826
681 679 18
681 670 81
681 697 418
681 715 951
682 673 165
682 684 65
682 710 264
683 678 31
684 682 65
684 711 244
684 769 671
685 645 467
685 664 302
685 686 8
685 687 11
686 685 8
686 666 303
686 688 11
686 703 130
687 649 467
687 685 11
687 688 8
687 700 143
688 687 8
688 686 11
688 701 144
688 704 127
689 672 124
689 671 350
689 709 349
689 795 609
690 665 221
690 673 177
690 702 83
691 656 468
691 763 475
691 782 928
692 677 105
692 694 132
692 713 256
693 670 455
694 692 132
695 665 297
695 696 26
695 702 146
696 695 26
696 906 1945
696 931 1651
697 681 418
698 699 13
699 698 13
700 687 143
700 701 9
700 707 306
701 700 9
701 688 144
701 708 307
701 722 206
702 690 83
702 695 146
702 710 249
703 686 130
703 672 324
703 704 11
703 709 114
704 688 127
704 703 11
704 712 114
705 652 625
705 717 120
705 725 236
706 657 439
706 657 917
706 1146 5514
707 700 306
707 708 7
707 739 356
708 707 7
708 701 307
708 735 291
708 759 206
709 703 114
709 689 349
709 712 11
709 801 480
710 682 264
710 702 249
710 711 82
711 684 244
711 710 82
711 765 470
712 704 114
712 709 11
712 722 155
712 803 479
713 692 256
713 714 43
713 717 54
714 713 43
714 730 80
714 734 155
715 681 951
715 716 391
715 720 35
715 727 121
716 715 391
717 705 120
717 713 54
717 726 35
718 719 1865
718 721 16
718 844 1437
719 718 1865
720 679 1005
720 715 35
720 728 80
720 752 225
721 718 16
721 628 960
721 822 820
721 845 1439
722 701 206
722 712 155
722 759 328
722 812 466
723 589 1730
724 725 435
725 724 435
725 705 236
725 727 7
725 731 59
726 717 35
726 729 41
726 733 28
727 715 121
727 725 7
727 728 10
727 732 54
728 720 80
728 727 10
728 736 51
729 726 41
729 731 126
729 733 43
730 714 80
731 725 59
731 729 126
731 732 12
731 764 276
732 727 54
732 731 12
732 736 12
732 756 122
733 729 43
733 726 28
733 764 155
734 714 155
735 708 291
735 746 63
735 758 83
736 728 51
736 732 12
736 752 97
737 738 6
737 740 444
737 743 9
738 737 6
738 742 518
738 744 9
739 707 356
739 742 17
739 746 10
740 741 1298
740 737 444
740 750 690
741 740 1298
742 739 17
742 738 518
742 748 9
743 737 9
743 744 6
743 747 75
743 755 48
744 743 6
744 738 9
744 745 44
744 754 47
745 744 44
745 749 401
745 754 55
746 739 10
746 735 63
746 748 17
746 758 67
747 743 75
747 751 1056
747 755 105
748 742 9
748 746 17
748 749 74
748 757 62
749 745 401
749 748 74
749 757 119
750 740 690
750 751 14
750 760 867
751 750 14
751 747 1056
751 760 872
751 761 64
752 720 225
752 736 97
752 756 31
752 805 347
753 628 1178
753 794 220
753 822 813
754 744 47
754 745 55
754 798 280
755 747 105
755 743 48
755 800 283
756 752 31
756 732 122
756 775 192
756 802 318
757 749 119
757 748 62
757 788 152
758 746 67
758 735 83
758 787 142
759 708 206
759 722 328
759 787 297
760 750 867
760 751 872
760 781 581
761 751 64
761 762 199
761 785 100
761 792 369
762 761 199
763 691 475
763 767 22
763 819 364
764 731 276
764 733 155
764 775 38
764 808 894
765 711 470
766 565 2131
766 779 120
766 790 80
767 763 22
767 768 20
767 811 242
767 818 333
768 767 20
769 684 671
770 671 571
770 771 346
770 774 12
770 795 296
771 770 346
771 772 115
771 773 244
771 776 11
772 771 115
773 771 244
774 770 12
774 776 346
774 796 292
774 840 514
775 756 192
775 764 38
775 783 43
775 789 39
776 774 346
776 771 11
776 778 249
776 815 321
777 663 771
777 797 298
777 1172 6360
778 776 249
779 766 120
779 780 610
779 781 29
779 790 148
780 779 610
781 779 29
781 760 581
781 791 199
782 691 928
782 786 91
782 838 911
783 775 43
783 784 5
783 789 32
783 813 627
784 783 5
785 761 100
785 793 622
785 823 351
786 782 91
787 758 142
787 759 297
787 788 17
787 824 385
788 757 152
788 787 17
788 820 492
788 826 385
789 775 39
789 783 32
789 802 125
790 766 80
790 779 148
790 791 26
790 807 675
791 790 26
791 781 199
791 809 657
792 761 369
793 785 622
794 753 220
795 689 609
795 770 296
795 796 11
795 801 154
796 795 11
796 774 292
796 804 154
797 777 298
797 825 52
798 754 280
798 800 8
798 820 153
799 661 1225
799 825 528
799 839 403
800 755 283
800 798 8
800 821 153
800 836 541
801 709 480
801 795 154
801 803 11
801 804 9
802 756 318
802 789 125
802 805 9
802 813 661
803 712 479
803 801 11
803 806 9
803 812 225
804 801 9
804 796 154
804 806 11
804 859 608
805 752 347
805 802 9
805 810 886
806 803 9
806 804 11
806 814 227
806 860 610
807 790 675
807 808 35
807 809 11
808 807 35
808 810 10
808 764 894
808 813 214
809 807 11
809 791 657
809 810 26
809 846 367
810 808 10
810 809 26
810 813 216
810 805 886
810 1138 4478
811 767 242
811 817 167
811 832 187
812 722 466
812 803 225
812 814 11
812 824 513
813 783 627
813 808 214
813 810 216
813 802 661
814 812 11
814 806 227
814 827 510
815 776 321
815 816 193
815 852 643
816 815 193
817 811 167
817 818 15
818 767 333
818 817 15
818 819 17
818 912 955
819 763 364
819 818 17
819 910 947
820 798 153
820 788 492
820 821 8
820 833 178
821 800 153
821 820 8
821 835 178
822 721 820
822 753 813
822 837 249
822 885 658
823 785 351
823 831 228
824 787 385
824 812 513
824 826 13
824 827 11
825 799 528
825 797 52
826 788 385
826 824 13
826 828 10
826 829 110
827 824 11
827 814 510
827 828 12
827 863 452
828 826 10
828 827 12
828 830 113
828 866 456
829 826 110
830 828 113
831 823 228
831 836 419
831 847 280
832 811 187
832 838 270
832 865 330
833 820 178
833 834 185
833 835 8
833 857 319
834 833 185
835 821 178
835 833 8
835 843 185
835 858 323
836 831 419
836 800 541
836 848 149
837 822 249
838 832 270
838 782 911
838 865 276
839 799 403
839 849 344
839 914 1135
840 774 514
840 841 334
840 850 101
841 840 334
842 846 126
843 835 185
844 519 4435
844 718 1437
844 845 29
845 844 29
845 721 1439
845 1108 3838
846 809 367
846 842 126
846 1137 4108
847 831 280
847 882 519
848 836 149
848 882 414
848 932 547
849 839 344
849 12329 59
850 840 101
850 851 22
850 853 32
851 850 22
851 852 17
851 854 18
852 851 17
852 815 643
852 854 21
853 850 32
853 855 15
853 856 19
854 851 18
854 852 21
854 855 12
855 853 15
855 854 12
855 856 21
856 853 19
856 855 21
856 859 122
856 861 121
857 833 319
857 858 8
857 876 130
858 835 323
858 857 8
858 877 123
858 878 151
859 804 608
859 856 122
859 860 11
859 861 9
860 806 610
860 859 11
860 862 9
860 921 618
861 859 9
861 856 121
861 862 11
861 901 200
862 860 9
862 861 11
862 905 199
862 924 615
863 827 452
863 864 417
863 866 12
863 867 30
864 863 417
865 832 330
865 838 276
865 922 374
866 828 456
866 863 12
866 868 29
867 863 30
867 868 12
867 919 318
868 866 29
868 867 12
868 918 482
868 920 315
869 870 256
869 889 115
869 901 291
870 869 256
871 872 48
871 873 9
871 875 22
872 871 48
873 871 9
873 874 70
873 875 15
874 873 70
875 871 22
875 873 15
875 881 60
876 857 130
876 877 8
876 918 277
877 858 123
877 876 8
877 878 149
877 923 281
878 858 151
878 877 149
878 932 426
879 880 83
879 883 21
879 884 40
880 879 83
880 891 58
881 875 60
882 847 519
882 848 414
883 879 21
883 887 18
883 888 13
884 879 40
884 886 12
884 887 15
884 893 26
885 822 658
886 884 12
887 884 15
887 883 18
887 888 14
887 897 30
888 887 14
888 883 13
888 891 35
888 900 29
889 869 115
889 890 304
889 915 289
889 936 268
890 889 304
891 888 35
891 880 58
891 896 15
891 902 23
892 893 6
893 892 6
893 884 26
893 897 12
893 907 20
894 895 2495
894 569 531
895 894 2495
895 898 21
895 903 12
896 891 15
897 893 12
897 887 30
897 904 15
897 909 22
898 899 2498
898 895 21
898 908 13
898 936 502
899 898 2498
899 571 520
900 888 29
901 861 200
901 869 291
901 905 13
901 915 115
902 891 23
903 895 12
903 908 20
903 960 443
904 897 15
905 862 199
905 901 13
905 917 115
906 696 1945
907 893 20
908 898 13
908 903 20
908 913 76
908 916 94
909 897 22
910 911 942
910 819 947
910 912 13
910 974 882
911 910 942
911 1000 2295
911 1001 2271
912 910 13
912 818 955
912 922 709
912 976 892
913 908 76
913 916 103
913 937 421
914 839 1135
915 901 115
915 889 289
915 917 14
915 934 110
916 913 103
916 908 94
916 963 395
917 905 115
917 915 14
917 933 142
917 935 110
918 876 277
918 868 482
918 923 7
918 951 319
919 867 318
919 920 8
919 921 10
920 868 315
920 919 8
920 925 21
921 919 10
921 860 618
921 924 11
922 912 709
922 865 374
922 622 5233
922 996 1448
923 877 281
923 918 7
923 942 337
923 953 318
924 921 11
924 862 615
924 926 19
925 920 21
925 927 10
925 951 398
926 924 19
926 928 6
926 939 143
927 925 10
927 929 8
927 954 396
928 926 6
928 929 13
928 941 140
929 927 8
929 928 13
930 528 4418
930 521 4422
930 1280 6944
930 1283 7004
931 696 1651
932 848 547
932 878 426
932 946 165
932 965 812
933 917 142
934 915 110
934 935 11
934 947 122
935 917 110
935 934 11
935 944 183
935 948 118
936 889 268
936 898 502
936 937 11
936 949 253
937 936 11
937 913 421
937 955 279
938 659 2257
938 1159 4341
939 926 143
939 940 183
939 941 7
939 964 341
940 939 183
941 928 140
941 939 7
941 966 342
942 923 337
942 943 17
942 945 15
943 942 17
943 945 19
943 946 327
944 935 183
945 942 15
945 943 19
945 967 311
946 932 165
946 943 327
946 959 197
946 984 465
947 934 122
947 949 49
947 950 40
948 935 118
948 952 44
948 958 54
949 947 49
949 936 253
949 950 27
950 947 40
950 949 27
950 952 8
950 955 11
951 918 319
951 925 398
951 953 7
951 954 9
952 948 44
952 950 8
952 957 11
952 958 29
953 923 318
953 951 7
953 956 9
953 967 481
954 951 9
954 927 396
954 956 7
954 981 399
955 950 11
955 937 279
955 957 7
956 953 9
956 954 7
956 968 485
956 982 397
957 952 11
957 955 7
957 962 180
958 948 54
958 952 29
958 961 151
959 946 197
960 903 443
961 958 151
961 962 11
961 972 410
962 961 11
962 957 180
962 969 195
962 975 410
963 916 395
964 939 341
964 966 12
964 970 53
965 932 812
966 941 342
966 964 12
966 971 49
966 981 410
967 945 311
967 953 481
967 968 9
967 984 274
968 967 9
968 956 485
968 991 326
969 962 195
969 989 434
969 1002 531
970 964 53
970 971 14
970 972 10
971 966 49
971 970 14
971 978 23
972 970 10
972 961 410
972 975 13
973 974 379
974 973 379
974 910 882
974 976 10
974 997 415
975 972 13
975 962 410
975 977 7
976 974 10
976 912 892
976 996 308
976 998 412
977 975 7
977 979 8
978 971 23
978 980 21
978 983 126
979 977 8
979 980 8
979 985 87
980 979 8
980 978 21
980 986 87
981 954 399
981 966 410
981 982 7
981 992 230
982 956 397
982 981 7
982 991 536
982 993 231
983 978 126
984 946 465
984 967 274
984 1004 598
985 979 87
985 986 8
985 987 9
986 980 87
986 985 8
986 988 8
986 992 375
987 985 9
987 988 7
987 989 83
988 986 8
988 987 7
988 990 83
988 994 374
989 987 83
989 969 434
989 990 7
989 1008 539
990 988 83
990 989 7
990 1009 541
991 968 326
991 982 536
991 1005 353
992 981 230
992 986 375
992 993 7
992 994 5
993 982 231
993 992 7
993 995 5
993 1005 552
994 992 5
994 988 374
994 995 7
994 1011 642
995 993 5
995 994 7
995 1006 551
995 1012 642
996 976 308
996 922 1448
996 1003 264
996 1028 1364
997 974 415
997 998 10
997 1054 1739
998 997 10
998 976 412
998 1003 359
998 1083 2263
999 1000 2154
1000 999 2154
1000 911 2295
1000 1001 22
1000 1112 3947
1001 1000 22
1001 911 2271
1001 1054 1548
1001 1106 3706
1002 969 531
1002 1008 468
1003 998 359
1003 996 264
1003 1007 149
1003 1025 804
1004 984 598
1004 1040 34
1005 991 353
1005 993 552
1005 1006 8
1005 1010 409
1006 1005 8
1006 995 551
1006 1010 409
1006 1015 605
1007 1003 149
1008 989 539
1008 1002 468
1008 1009 10
1008 1076 1398
1009 990 541
1009 1008 10
1009 1011 309
1009 1078 1400
1010 1005 409
1010 1006 409
1010 1013 285
1011 994 642
1011 1009 309
1011 1012 8
1012 995 642
1012 1011 8
1012 1014 421
1013 1010 285
1013 1039 24
1014 1012 421
1014 1016 17
1014 1018 17
1015 1006 605
1015 1016 9
1015 1017 13
1016 1015 9
1016 1014 17
1016 1017 12
1017 1015 13
1017 1016 12
1017 1018 13
1017 1019 20
1018 1014 17
1018 1017 13
1018 1019 15
1019 1017 20
1019 1018 15
1019 1052 572
1020 1021 63
1020 1022 82
1020 1023 60
1021 1020 63
1022 1020 82
1023 1020 60
1023 1024 319
1023 1026 56
1024 1023 319
1025 1003 804
1025 1084 1151
1026 1023 56
1026 1027 93
1026 1034 139
1027 1026 93
1028 996 1364
1029 1030 153
1030 1029 153
1030 1035 124
1030 1034 107
1031 1032 56
1031 1033 164
1031 1037 45
1032 1031 56
1033 1031 164
1034 1026 139
1034 1030 107
1034 1045 181
1035 1030 124
1035 1036 17
1035 1044 259
1036 1035 17
1037 1031 45
1037 1045 139
1037 1046 132
1038 1039 838
1038 1041 31
1038 1042 17
1038 1043 91
1039 1038 838
1039 1013 24
1040 1041 1082
1040 1004 34
1041 1040 1082
1041 1038 31
1041 1071 462
1042 1038 17
1043 1038 91
1044 1035 259
1044 1047 107
1044 1050 87
1045 1034 181
1045 1037 139
1045 1049 67
1046 1037 132
1046 1049 69
1046 1057 222
1047 1044 107
1047 1048 143
1047 1053 102
1048 1047 143
1049 1045 67
1049 1046 69
1049 1056 154
1050 1044 87
1050 1051 70
1050 1053 120
1051 1050 70
1052 1019 572
1052 1068 867
1052 1094 653
1053 1047 102
1053 1050 120
1053 1055 60
1054 1001 1548
1054 997 1739
1054 1082 510
1055 1053 60
1055 1065 132
1055 1069 661
1056 1049 154
1056 1065 189
1056 1066 112
1057 1046 222
1057 1058 629
1057 1063 55
1058 1057 629
1059 1060 1932
1060 1059 1932
1060 1061 18
1060 1229 3705
1061 1062 1937
1061 1060 18
1061 1079 467
1061 1227 3672
1062 1061 1937
1063 1057 55
1063 1064 10
1063 1067 139
1064 1063 10
1064 1066 94
1064 1081 405
1065 1055 132
1065 1056 189
1065 1073 178
1066 1056 112
1066 1064 94
1066 1075 142
1067 1063 139
1068 1052 867
1068 1072 27
1069 1055 661
1069 1070 123
1069 1074 63
1070 1069 123
1071 1041 462
1071 1072 1096
1071 1109 730
1071 1137 2369
1072 1071 1096
1072 1068 27
1073 1065 178
1074 1069 63
1074 1103 589
1074 1114 752
1075 1066 142
1075 1077 128
1075 1081 106
1076 1008 1398
1076 1078 14
1076 1079 36
1077 1075 128
1078 1009 1400
1078 1076 14
1078 1080 31
1078 1096 596
1079 1076 36
1079 1061 467
1079 1080 14
1079 1120 777
1080 1078 31
1080 1079 14
1080 1104 414
1081 1075 106
1081 1064 405
1081 1101 317
1082 1054 510
1082 1083 18
1082 1086 56
1083 1082 18
1083 998 2263
1083 1087 42
1083 1092 74
1084 1025 1151
1084 1085 8
1084 1128 850
1085 1084 8
1085 1095 414
1085 1128 853
1086 1082 56
1086 1087 10
1086 1088 9
1087 1086 10
1087 1083 42
1087 1089 9
1087 1092 55
1088 1086 9
1088 1089 10
1088 1093 48
1089 1088 10
1089 1087 9
1089 1090 32
1089 1091 43
1090 1089 32
1090 1091 53
1090 1093 19
1090 1098 148
1091 1090 53
1091 1089 43
1091 1095 304
1092 1087 55
1092 1083 74
1092 1095 284
1093 1088 48
1093 1090 19
1093 1097 136
1094 1052 653
1094 1099 284
1094 1100 157
1095 1085 414
1095 1092 284
1095 1091 304
1095 1098 428
1096 1078 596
1096 1100 180
1096 1113 421
1097 1093 136
1097 1098 11
1097 1160 3339
1097 1186 2720
1098 1097 11
1098 1090 148
1098 1095 428
1098 1188 2727
1099 1094 284
1099 1155 11
1100 1094 157
1100 1096 180
1100 1133 591
1101 1081 317
1101 1102 139
1101 1130 521
1102 1101 139
1103 1074 589
1103 1105 309
1103 1114 360
1104 1080 414
1104 1110 358
1104 1119 354
1105 1103 309
1106 1001 3706
1106 1123 378
1106 1126 492
1107 521 8274
1107 1266 99
1108 845 3838
1108 1268 101
1109 1071 730
1109 1149 662
1109 1158 1022
1110 1111 190
1110 1104 358
1110 1113 133
1110 1116 206
1111 1110 190
1112 1000 3947
1112 1117 461
1112 1139 517
1113 1096 421
1113 1110 133
1113 1115 60
1114 1103 360
1114 1074 752
1114 1127 303
1114 1129 258
1115 1113 60
1116 1110 206
1116 1118 37
1116 1121 36
1117 1112 461
1117 1125 80
1118 1116 37
1118 1119 276
1118 1121 40
1119 1118 276
1119 1104 354
1119 1120 15
1120 1119 15
1120 1079 777
1120 1227 2922
1121 1116 36
1121 1118 40
1121 1135 390
1122 1123 183
1122 1140 80
1123 1122 183
1123 1106 378
1123 1160 1316
1124 1125 184
1124 1126 377
1124 1161 1315
1125 1124 184
1125 1117 80
1126 1106 492
1126 1124 377
1126 1156 5224
1127 1114 303
1127 1131 348
1127 1131 398
1127 1151 1095
1128 1085 853
1128 1084 850
1128 1331 4764
1129 1114 258
1129 1131 27
1129 1132 44
1130 1101 521
1130 1141 386
1130 1143 102
1131 1127 348
1131 1129 27
1131 1132 35
1131 1127 398
1132 1131 35
1132 1129 44
1132 1145 444
1133 1100 591
1133 1134 25
1133 1136 26
1134 1133 25
1134 1135 5
1134 1136 24
1135 1134 5
1135 1121 390
1136 1133 26
1136 1134 24
1136 1147 137
1137 846 4108
1137 1071 2369
1137 1138 22
1137 1185 1525
1138 810 4478
1138 1137 22
1138 1171 2760
1138 1183 1516
1139 1140 521
1139 1112 517
1139 1153 4962
1140 1139 521
1140 1122 80
1141 1130 386
1141 1142 335
1141 1148 349
1142 1141 335
1143 1130 102
1143 1144 157
1143 1148 75
1144 1143 157
1145 1132 444
1145 1150 340
1145 1157 521
1146 706 5514
1147 1136 137
1147 1155 2483
1147 1240 2639
1148 1143 75
1148 1141 349
1148 1150 59
1149 1109 662
1150 1145 340
1150 1148 59
1150 1152 428
1150 1157 307
1151 1127 1095
1152 1150 428
1153 1154 875
1153 1139 4962
1153 1156 17
1153 1170 1951
1154 1153 875
1155 1147 2483
1155 1099 11
1156 1153 17
1156 1126 5224
1156 1165 548
1156 1169 1928
1157 1145 521
1157 1150 307
1157 1164 373
1158 1109 1022
1159 938 4341
1159 11743 523
1159 11743 552
1160 1123 1316
1160 1097 3339
1160 1161 3
1160 1186 1058
1161 1124 1315
1161 1160 3
1161 1187 1057
1161 1324 3373
1162 1163 1176
1162 1170 907
1162 1180 766
1163 1162 1176
1163 1164 465
1163 1180 996
1164 1157 373
1164 1163 465
1164 1176 1259
1165 1156 548
1165 1179 487
1165 1202 900
1166 1167 248
1166 1168 28
1166 1169 554
1166 1222 1159
1167 1166 248
1168 1166 28
1169 1156 1928
1169 1166 554
1169 1170 22
1169 1191 1181
1170 1153 1951
1170 1169 22
1170 1162 907
1170 1190 1155
1171 1138 2760
1172 777 6360
1172 1173 9
1172 1174 18
1172 1181 1693
1173 1172 9
1173 1175 818
1173 1238 4114
1173 11744 4114
1174 1172 18
1174 1182 1669
1174 1182 2109
1174 1239 4105
1174 11746 4105
1174 11747 4105
1175 1173 818
1175 325 11492
1175 11745 11492
1176 1164 1259
1176 1181 262
1176 1197 524
1177 1178 87
1177 1179 88
1177 1205 507
1178 1177 87
1179 1165 487
1179 1177 88
1179 1196 300
1180 1163 996
1180 1162 766
1180 1190 114
1181 1172 1693
1181 1176 262
1181 1182 21
1181 1197 592
1182 1174 1669
1182 1181 21
1182 1201 613
1182 1174 2109
1183 1184 2704
1183 1138 1516
1183 1185 22
1183 1369 3886
1184 1183 2704
1185 1183 22
1185 1137 1525
1185 1192 1365
1185 1370 3932
1186 1160 1058
1186 1097 2720
1186 1187 6
1186 1188 10
1187 1161 1057
1187 1186 6
1187 1189 10
1187 1324 3055
1188 1186 10
1188 1098 2727
1188 1189 5
1189 1187 10
1189 1188 5
1189 1325 3063
1190 1180 114
1190 1170 1155
1190 1191 11
1190 1195 877
1191 1190 11
1191 1169 1181
1191 1193 433
1191 1212 269
1192 1185 1365
1193 1191 433
1193 1198 608
1193 1208 423
1194 1195 375
1194 1210 80
1195 1194 375
1195 1190 877
1195 1199 446
1196 1179 300
1196 1204 614
1196 1211 164
1197 1181 592
1197 1176 524
1197 1201 21
1197 1199 635
1198 1193 608
1198 1201 913
1198 1209 366
1199 1200 583
1199 1195 446
1199 1197 635
1200 1199 583
1200 1207 79
1201 1182 613
1201 1197 21
1201 1198 913
1201 1368 3609
1202 1203 120
1202 1165 900
1202 1204 33
1203 1202 120
1203 1222 1095
1204 1202 33
1204 1196 614
1204 1232 620
1205 1177 507
1205 1206 59
1205 1211 125
1206 1205 59
1206 1214 158
1207 1208 147
1207 1200 79
1208 1207 147
1208 1193 423
1208 1218 319
1209 1198 366
1209 1210 151
1209 1218 320
1210 1209 151
1210 1194 80
1211 1196 164
1211 1205 125
1211 1213 120
1211 1216 140
1212 1191 269
1212 1217 237
1212 1225 300
1213 1211 120
1214 1206 158
1214 1215 120
1214 1216 196
1214 1243 522
1215 1214 120
1216 1211 140
1216 1214 196
1216 1226 222
1217 1212 237
1217 1223 394
1217 1231 383
1218 1209 320
1218 1208 319
1218 1225 576
1219 1220 361
1219 1221 599
1219 1274 932
1220 1219 361
1221 1219 599
1222 1166 1159
1222 1203 1095
1222 1230 537
1222 1267 865
1223 1217 394
1223 1224 631
1223 1231 139
1224 1223 631
1224 1228 165
1224 1230 126
1225 1218 576
1225 1212 300
1225 1259 888
1226 1216 222
1226 1243 389
1226 1249 365
1227 1061 3672
1227 1120 2922
1227 1229 44
1227 1275 932
1228 1224 165
1229 1227 44
1229 1060 3705
1229 1244 347
1229 1244 357
1230 1224 126
1230 1222 537
1230 1236 318
1231 1217 383
1231 1223 139
1231 1259 584
1232 1204 620
1232 1235 84
1232 1248 279
1233 1234 186
1234 1233 186
1235 1232 84
1235 1237 176
1235 1255 298
1236 1230 318
1236 1257 245
1236 1259 421
1237 1235 176
1238 1173 4114
1238 11744 4114
1239 1174 4105
1239 11746 4105
1239 11747 4105
1240 1147 2639
1240 1295 21
1241 1242 324
1241 1291 2987
1242 1241 324
1243 1226 389
1243 1214 522
1243 1247 42
1243 1365 2884
1244 1229 347
1244 1229 357
1244 1253 93
1244 1253 93
1245 1246 378
1246 1245 378
1246 1292 2990
1247 1243 42
1247 1250 100
1247 1260 166
1248 1232 279
1248 1249 10
1248 1258 55
1249 1248 10
1249 1226 365
1249 1252 125
1250 1247 100
1250 1251 38
1250 1254 39
1251 1250 38
1251 1252 41
1251 1254 22
1251 1256 25
1252 1249 125
1252 1251 41
1252 1256 42
1253 1244 93
1253 1244 93
1253 1277 480
1253 1278 546
1254 1251 22
1254 1250 39
1254 1332 1655
1255 1235 298
1255 1258 47
1255 1263 185
1256 1252 42
1256 1251 25
1256 1333 1656
1257 1236 245
1257 1261 264
1257 1289 920
1258 1255 47
1258 1248 55
1258 1264 152
1259 1231 584
1259 1236 421
1259 1225 888
1260 1247 166
1261 1257 264
1262 1263 234
1263 1262 234
1263 1255 185
1263 1264 123
1264 1263 123
1264 1258 152
1264 1333 1889
1265 1266 3540
1265 1270 227
1265 1282 360
1266 1265 3540
1266 1107 99
1267 1222 865
1267 1289 422
1268 1269 3741
1268 1108 101
1269 1268 3741
1269 1276 310
1269 1285 224
1270 1265 227
1270 1271 79
1270 1279 192
1271 1270 79
1271 1286 124
1272 1273 57
1272 1281 204
1272 1282 237
1273 1272 57
1273 1276 124
1274 1219 932
1274 1308 686
1274 1315 4021
1275 1227 932
1275 1277 23
1275 1297 336
1276 1269 310
1276 1273 124
1277 1275 23
1277 1253 480
1277 1278 141
1277 1299 339
1278 1253 546
1278 1277 141
1278 1316 1027
1279 1270 192
1279 1300 392
1280 930 6944
1280 1304 403
1280 1305 449
1281 1272 204
1281 1284 136
1282 1272 237
1282 1265 360
1282 1394 3811
1283 930 7004
1283 1296 284
1283 1303 346
1284 1281 136
1284 1287 39
1284 1288 60
1285 1269 224
1285 1286 367
1285 1395 3754
1286 1285 367
1286 1271 124
1287 1284 39
1287 1290 270
1287 1306 351
1288 1284 60
1288 1307 378
1289 1257 920
1289 1267 422
1289 1327 909
1290 1291 263
1290 1287 270
1290 1298 121
1291 1290 263
1291 1301 372
1291 1241 2987
1292 1293 77
1292 1246 2990
1293 1292 77
1293 1302 291
1293 1306 507
1294 1295 1288
1294 1421 24
1295 1294 1288
1295 1240 21
1296 1283 284
1296 1298 271
1297 1275 336
1298 1290 121
1298 1296 271
1299 1277 339
1300 1279 392
1300 1302 604
1300 1313 622
1301 1291 372
1301 11750 345
1302 1293 291
1302 1309 197
1302 1300 604
1303 1283 346
1303 11749 96
1304 1280 403
1304 11748 86
1305 1280 449
1305 11748 118
1306 1287 351
1306 1293 507
1306 11749 152
1307 1288 378
1307 11750 78
1308 1274 686
1309 1302 197
1309 1312 87
1310 1311 171
1310 11750 5
1311 1310 171
1311 1312 144
1311 1335 511
1312 1311 144
1312 1309 87
1313 1300 622
1313 1314 34
1313 1329 539
1314 1313 34
1314 11750 151
1315 1274 4021
1315 1318 66
1315 1328 212
1316 1278 1027
1316 1317 21
1316 1319 21
1317 1316 21
1317 1318 21
1317 1319 19
1318 1317 21
1318 1315 66
1318 1321 29
1319 1316 21
1319 1317 19
1319 1320 11
1320 1319 11
1320 1321 16
1320 1322 28
1321 1318 29
1321 1320 16
1321 1322 24
1322 1320 28
1322 1321 24
1322 1323 75
1323 1322 75
1323 1326 101
1323 1337 125
1324 1161 3373
1324 1187 3055
1324 1325 15
1324 1376 3796
1325 1324 15
1325 1189 3063
1325 1375 2697
1325 1377 3794
1326 1323 101
1326 1336 207
1326 1339 113
1327 1289 909
1327 1367 1830
1327 1366 3501
1328 1315 212
1328 1338 106
1328 1346 435
1329 1313 539
1329 1330 793
1329 1415 3435
1330 1329 793
1330 11748 39
1331 1128 4764
1332 1254 1655
1332 1333 13
1332 1365 1327
1333 1256 1656
1333 1332 13
1333 1264 1889
1333 1366 1343
1334 1335 837
1334 11749 27
1335 1334 837
1335 1311 511
1335 1414 3389
1336 1326 207
1337 1323 125
1337 1338 15
1337 1345 250
1338 1337 15
1338 1328 106
1338 1344 235
1339 1326 113
1340 1341 1032
1341 1340 1032
1342 1343 45
1343 1342 45
1344 1338 235
1344 1346 208
1344 1349 73
1345 1337 250
1345 1347 77
1345 1349 59
1346 1344 208
1346 1328 435
1346 1363 384
1347 1345 77
1347 1348 57
1347 1362 360
1348 1347 57
1348 1350 43
1348 1361 335
1349 1345 59
1349 1344 73
1349 1363 538
1350 1348 43
1351 1352 107
1352 1351 107
1353 1354 35
1354 1353 35
1355 1356 36
1356 1355 36
1357 1358 30
1358 1357 30
1359 1360 3
1360 1359 3
1361 1348 335
1362 1347 360
1363 1346 384
1363 1364 16
1363 1349 538
1364 1363 16
1365 1332 1327
1365 1243 2884
1365 1376 1994
1366 1333 1343
1366 1327 3501
1366 1378 1992
1367 1327 1830
1367 1368 544
1367 1371 666
1368 1201 3609
1368 1367 544
1368 1371 604
1369 1183 3886
1370 1185 3932
1371 1368 604
1371 1367 666
1371 1412 1864
1372 1373 1202
1373 1372 1202
1373 1374 1905
1373 1451 1886
1374 1373 1905
1375 1325 2697
1375 1381 17
1376 1365 1994
1376 1324 3796
1376 1377 13
1376 1378 14
1377 1376 13
1377 1325 3794
1377 1380 14
1377 1384 215
1378 1366 1992
1378 1376 14
1378 1379 9
1378 1390 223
1379 1378 9
1379 1380 3
1380 1379 3
1380 1377 14
1380 1385 207
1380 1391 218
1381 1382 93
1381 1375 17
1382 1381 93
1382 1383 45
1382 1425 1267
1383 1382 45
1383 1392 277
1383 1427 1250
1384 1377 215
1384 1399 19
1385 1380 207
1385 1402 18
1386 1387 619
1387 1386 619
1387 1398 1557
1387 1406 450
1388 1389 286
1389 1388 286
1389 1395 829
1389 1419 1092
1390 1378 223
1390 1439 32
1391 1380 218
1391 1436 30
1392 1383 277
1392 1393 13
1392 1400 1257
1393 1392 13
1393 1397 796
1393 1413 699
1394 1282 3811
1394 1395 16
1394 1396 280
1394 1422 938
1395 1394 16
1395 1285 3754
1395 1389 829
1395 1419 872
1396 1394 280
1397 1393 796
1397 1403 450
1397 1413 557
1398 1387 1557
1399 1400 210
1399 1384 19
1400 1399 210
1400 1392 1257
1400 1401 12
1400 1403 15
1401 1402 207
1401 1400 12
1401 1404 13
1401 1434 1034
1402 1401 207
1402 1385 18
1403 1400 15
1403 1397 450
1403 1404 12
1403 1405 22
1404 1401 13
1404 1403 12
1404 1405 25
1404 1432 1014
1405 1404 25
1405 1403 22
1405 1424 911
1406 1387 450
1406 1407 970
1406 1409 440
1406 1416 600
1407 1406 970
1408 1409 121
1409 1408 121
1409 1406 440
1409 1418 1627
1410 1411 299
1411 1410 299
1412 1371 1864
1412 1417 3589
1412 1454 8660
1412 1524 7751
1413 1397 557
1413 1393 699
1413 1424 557
1413 1429 857
1414 1335 3389
1414 1466 104
1415 1329 3435
1415 1470 104
1416 1406 600
1417 1412 3589
1417 1438 1669
1418 1409 1627
1419 1395 872
1419 1389 1092
1419 1423 60
1420 1421 5747
1420 1451 3486
1420 1518 7178
1421 1420 5747
1421 1294 24
1422 1394 938
1422 1442 127
1423 1419 60
1423 1444 127
1424 1405 911
1424 1413 557
1424 1426 205
1424 1430 153
1425 1382 1267
1425 1427 28
1425 1433 51
1425 1461 3805
1426 1424 205
1427 1383 1250
1427 1425 28
1427 1428 39
1427 1431 31
1428 1427 39
1428 1429 53
1428 1431 26
1429 1413 857
1429 1428 53
1429 1435 349
1430 1424 153
1430 1432 465
1430 1449 836
1430 1459 1221
1431 1428 26
1431 1427 31
1431 1433 28
1431 1452 661
1432 1404 1014
1432 1430 465
1432 1434 13
1433 1431 28
1433 1425 51
1433 1453 680
1433 1461 3423
1434 1401 1034
1434 1432 13
1434 1437 782
1435 1429 349
1435 1440 212
1435 1449 180
1436 1437 1315
1436 1391 30
1437 1436 1315
1437 1434 782
1437 1438 22
1437 1446 143
1438 1417 1669
1438 1439 1326
1438 1437 22
1438 1445 124
1439 1438 1326
1439 1390 32
1440 1435 212
1441 1442 187
1441 1443 13
1441 1457 897
1441 1458 1979
1442 1441 187
1442 1422 127
1443 1441 13
1443 1444 191
1443 1454 3023
1443 1457 886
1444 1443 191
1444 1423 127
1445 1438 124
1445 1446 22
1445 1448 49
1446 1445 22
1446 1437 143
1446 1447 28
1446 1459 1525
1447 1446 28
1447 1448 25
1447 1460 1530
1447 1525 6420
1448 1445 49
1448 1447 25
1448 1524 6403
1449 1435 180
1449 1450 127
1449 1430 836
1449 1452 338
1450 1449 127
1451 1373 1886
1451 1420 3486
1451 1478 1906
1452 1449 338
1452 1431 661
1452 1453 22
1452 1465 1345
1453 1452 22
1453 1433 680
1453 1471 1356
1454 1443 3023
1454 1412 8660
1454 1479 881
1455 1456 440
1456 1455 440
1457 1441 897
1457 1443 886
1457 1494 67
1458 1441 1979
1458 1462 470
1458 1463 308
1459 1446 1525
1459 1430 1221
1459 1460 15
1460 1447 1530
1460 1459 15
1460 1465 209
1461 1433 3423
1461 1425 3805
1461 1464 219
1462 1458 470
1462 1483 69
1463 1458 308
1463 1481 46
1464 1461 219
1464 1468 26
1464 1477 168
1465 1460 209
1465 1452 1345
1465 1471 21
1466 1467 1785
1466 1414 104
1467 1466 1785
1467 1502 40
1468 1464 26
1468 1474 137
1469 1470 1782
1469 1501 37
1470 1469 1782
1470 1415 104
1471 1465 21
1471 1453 1356
1471 1480 649
1472 1473 12
1473 1472 12
1474 1468 137
1474 11751 73
1475 1476 8
1476 1475 8
1477 1464 168
1477 11752 81
1478 1451 1906
1479 1454 881
1479 1492 4851
1479 1493 2876
1480 1471 649
1480 1485 803
1480 1486 804
1481 1482 842
1481 1463 46
1482 1481 842
1483 1484 2037
1483 1462 69
1484 1483 2037
1484 1488 31
1485 1480 803
1485 1486 19
1485 1487 57
1486 1485 19
1486 1480 804
1486 1487 49
1487 1485 57
1487 1486 49
1487 1490 650
1488 1489 514
1488 1484 31
1489 1488 514
1489 1491 846
1490 1487 650
1490 1495 31
1491 1489 846
1492 1479 4851
1492 1526 3573
1492 1528 3887
1493 1494 3435
1493 1479 2876
1493 1565 5616
1494 1493 3435
1494 1457 67
1495 1496 1037
1495 1490 31
1496 1495 1037
1496 1497 633
1496 1515 1083
1497 1496 633
1497 1498 517
1497 1509 791
1498 1497 517
1498 1499 199
1498 1510 997
1499 1498 199
1500 1501 2894
1500 1505 579
1500 1517 1344
1501 1500 2894
1501 1469 37
1502 1503 3057
1502 1467 40
1503 1502 3057
1503 1504 378
1503 1516 1087
1504 1503 378
1504 1507 383
1504 1508 282
1504 1508 322
1505 1500 579
1505 1506 20
1505 1511 431
1505 1511 503
1506 1505 20
1506 1511 383
1507 1504 383
1507 1508 16
1508 1504 282
1508 1507 16
1508 1504 322
1508 1516 426
1509 1497 791
1510 1498 997
1511 1506 383
1511 1505 431
1511 1505 503
1511 1517 416
1512 1513 110
1513 1512 110
1513 1514 710
1513 1515 688
1514 1513 710
1515 1496 1083
1515 1513 688
1515 1533 2471
1516 1503 1087
1516 1508 426
1516 1520 853
1517 1511 416
1517 1500 1344
1517 1519 731
1518 1420 7178
1518 1521 590
1518 1522 922
1519 1517 731
1519 1576 3975
1520 1516 853
1520 1574 3935
1521 1518 590
1521 1523 271
1521 1527 520
1522 1518 922
1523 1521 271
1524 1412 7751
1524 1448 6403
1524 1525 12
1524 1541 1553
1525 1524 12
1525 1447 6420
1525 1539 1696
1525 1540 1544
1526 1492 3573
1526 1528 97
1527 1521 520
1528 1492 3887
1528 1526 97
1528 1537 1450
1529 1530 130
1529 1531 64
1529 1532 182
1530 1529 130
1531 1529 64
1532 1529 182
1532 1536 298
1532 1548 2978
1533 1515 2471
1533 1534 103
1533 1535 108
1534 1533 103
1534 1535 98
1534 1539 677
1535 1534 98
1535 1533 108
1535 1631 7216
1536 1532 298
1537 1538 623
1537 1528 1450
1537 1545 990
1538 1537 623
1539 1525 1696
1539 1534 677
1539 1540 227
1540 1525 1544
1540 1539 227
1540 1541 10
1540 1549 3179
1541 1524 1553
1541 1540 10
1541 1548 3165
1542 1543 4179
1542 1544 3828
1542 1573 2638
1543 1542 4179
1544 1542 3828
1545 1546 349
1545 1537 990
1545 1547 472
1546 1545 349
1547 1545 472
1547 1550 1254
1547 1559 573
1548 1532 2978
1548 1541 3165
1548 1549 10
1548 1550 401
1549 1548 10
1549 1540 3179
1549 1646 4084
1550 1547 1254
1550 1548 401
1550 1559 956
1551 1552 109
1551 1570 40
1552 1551 109
1552 1553 817
1552 1573 1518
1553 1552 817
1554 1555 357
1555 1554 357
1555 1560 2916
1556 1557 680
1556 1558 118
1556 1572 382
1557 1556 680
1558 1556 118
1559 1547 573
1559 1550 956
1559 1645 2730
1560 1555 2916
1560 1569 21
1561 1562 2025
1561 1581 489
1562 1561 2025
1563 1564 2041
1564 1563 2041
1564 1582 535
1565 1493 5616
1565 1585 100
1566 1567 976
1566 1568 117
1566 1571 14
1567 1566 976
1568 1566 117
1569 1570 4145
1569 1560 21
1570 1569 4145
1570 1551 40
1571 1566 14
1571 1579 492
1571 1786 4573
1572 1556 382
1572 1577 1417
1572 1579 602
1573 1552 1518
1573 1542 2638
1573 1575 18
1574 1520 3935
1574 1586 61
1575 1573 18
1575 1603 59
1576 1519 3975
1576 1589 64
1577 1578 740
1577 1572 1417
1577 1647 10378
1578 1577 740
1579 1572 602
1579 1571 492
1579 1786 3586
1580 1581 172
1580 1640 675
1581 1580 172
1581 1561 489
1582 1583 176
1582 1564 535
1583 1582 176
1583 1636 650
1584 1585 574
1584 1587 814
1584 1592 1041
1584 1652 1633
1585 1584 574
1585 1565 100
1586 1587 384
1586 1574 61
1587 1586 384
1587 1584 814
1587 1588 18
1587 1707 2182
1588 1589 367
1588 1587 18
1588 1590 1688
1588 1715 2288
1589 1588 367
1589 1576 64
1590 1588 1688
1590 1591 404
1591 1590 404
1591 1594 431
1591 1641 1683
1592 1584 1041
1592 1593 911
1592 1602 762
1592 1622 815
1593 1592 911
1593 1599 2227
1594 1591 431
1594 1600 310
1594 1601 544
1595 1596 360
1596 1595 360
1597 1598 150
1598 1597 150
1599 1593 2227
1599 1625 772
1599 1648 1958
1600 1594 310
1600 1601 221
1601 1594 544
1601 1600 221
1601 1605 265
1602 1592 762
1602 1624 579
1602 1625 1429
1603 1604 1429
1603 1575 59
1604 1603 1429
1604 1606 1524
1604 1612 706
1605 1601 265
1606 1604 1524
1606 1607 801
1606 1620 765
1607 1608 247
1607 1606 801
1607 1610 118
1608 1607 247
1608 1609 392
1608 1614 151
1608 1616 275
1609 1608 392
1610 1607 118
1610 1613 58
1610 1614 266
1611 1612 633
1612 1611 633
1612 1604 706
1612 1672 1282
1613 1610 58
1613 1615 148
1613 1620 187
1614 1610 266
1614 1608 151
1614 1616 173
1614 1623 232
1615 1613 148
1616 1614 173
1616 1608 275
1616 1617 62
1617 1616 62
1617 1618 55
1617 1626 168
1618 1617 55
1618 1619 67
1618 1629 151
1619 1618 67
1619 1621 303
1619 1630 155
1620 1606 765
1620 1613 187
1620 1623 256
1620 1638 246
1621 1619 303
1621 1630 341
1621 1804 3388
1622 1592 815
1622 1624 632
1622 1665 570
1623 1620 256
1623 1614 232
1623 1626 193
1623 1633 101
1624 1622 632
1624 1602 579
1624 1661 1483
1624 1670 691
1625 1602 1429
1625 1599 772
1625 1649 678
1625 1661 531
1626 1623 193
1626 1617 168
1626 1629 91
1626 1632 65
1627 1628 39
1627 1634 217
1627 1658 1115
1628 1627 39
1628 1634 168
1628 1635 75
1628 1659 499
1629 1626 91
1629 1618 151
1629 1630 115
1629 1643 187
1630 1629 115
1630 1619 155
1630 1621 341
1630 1644 164
1631 1535 7216
1631 1647 623
1631 1651 438
1632 1626 65
1633 1623 101
1634 1628 168
1634 1627 217
1634 1639 1012
1635 1628 75
1636 1637 949
1636 1583 650
1637 1636 949
1637 1639 21
1637 1683 963
1637 1683 1034
1638 1620 246
1638 1660 413
1638 1829 10917
1639 1640 1005
1639 1637 21
1639 1634 1012
1639 1684 987
1640 1639 1005
1640 1580 675
1641 1591 1683
1641 1642 1951
1641 1804 3457
1642 1641 1951
1643 1629 187
1644 1630 164
1645 1559 2730
1645 1646 10
1645 1650 92
1646 1645 10
1646 1549 4084
1646 1662 306
1647 1631 623
1647 1577 10378
1647 1688 1013
1648 1599 1958
1648 1657 189
1648 1676 576
1649 1625 678
1649 1685 1273
1649 1689 532
1650 1645 92
1651 1631 438
1651 1687 531
1651 1717 5788
1652 1584 1633
1652 1665 843
1652 1694 511
1653 1654 2122
1653 1655 388
1653 1678 327
1654 1653 2122
1655 1653 388
1655 1658 310
1655 1678 427
1656 1657 198
1657 1656 198
1657 1648 189
1657 1669 142
1657 1679 323
1658 1655 310
1658 1627 1115
1658 1682 291
1659 1628 499
1659 1673 155
1659 1674 154
1660 1638 413
1661 1624 1483
1661 1625 531
1661 1689 785
1661 1720 741
1662 1646 306
1662 1666 150
1662 1702 1120
1663 1664 373
1664 1663 373
1664 1667 25
1665 1652 843
1665 1622 570
1665 1670 478
1665 1712 562
1666 1662 150
1666 1671 291
1666 1675 156
1667 1668 81
1667 1664 25
1668 1667 81
1668 1677 29
1669 1657 142
1669 1679 281
1669 1685 168
1670 1665 478
1670 1624 691
1670 1690 545
1671 1666 291
1672 1612 1282
1672 1871 6890
1673 1659 155
1673 1674 128
1673 1734 1159
1674 1659 154
1674 1673 128
1674 1682 734
1675 1666 156
1676 1648 576
1676 1677 109
1676 1698 296
1677 1676 109
1677 1668 29
1678 1653 327
1678 1655 427
1678 1692 181
1679 1669 281
1679 1657 323
1679 1686 254
1679 1693 187
1680 1681 1961
1680 1691 4310
1680 1700 1031
1681 1680 1961
1682 1658 291
1682 1674 734
1682 1692 455
1683 1637 963
1683 1637 1034
1683 1684 15
1683 1713 1600
1684 1639 987
1684 1683 15
1684 1708 1406
1684 1716 1338
1685 1649 1273
1685 1669 168
1685 1693 307
1685 1710 336
1686 1679 254
1687 1651 531
1687 1688 124
1687 1711 340
1688 1687 124
1688 1647 1013
1688 1699 131
1689 1661 785
1689 1649 532
1689 1751 765
1690 1670 545
1690 1720 1001
1690 1749 800
1691 1680 4310
1691 1706 290
1691 1729 1479
1692 1678 181
1692 1682 455
1692 1761 1207
1693 1685 307
1693 1679 187
1693 1695 159
1693 1714 268
1694 1652 511
1694 1712 706
1694 1848 3904
1695 1693 159
1695 1696 62
1695 1703 57
1696 1695 62
1696 1701 115
1696 1703 55
1697 1698 13
1697 1701 26
1698 1697 13
1698 1676 296
1698 1702 29
1699 1688 131
1699 1704 265
1699 1711 132
1700 1680 1031
1700 1719 377
1701 1696 115
1701 1697 26
1701 1705 27
1702 1698 29
1702 1662 1120
1702 1705 40
1703 1695 57
1703 1696 55
1703 1714 347
1704 1699 265
1705 1701 27
1705 1702 40
1705 1723 274
1706 1691 290
1706 1709 151
1706 1729 6750
1707 1587 2182
1707 1747 472
1707 1754 802
1708 1684 1406
1708 1730 442
1708 1738 481
1709 1706 151
1710 1685 336
1710 1714 368
1710 1733 543
1711 1687 340
1711 1699 132
1711 1806 2191
1712 1694 706
1712 1665 562
1712 1736 401
1712 1758 662
1713 1683 1600
1713 1726 382
1713 1727 261
1714 1710 368
1714 1693 268
1714 1703 347
1714 1755 534
1715 1588 2288
1715 1746 362
1715 1753 772
1716 1684 1338
1716 1741 578
1716 1744 541
1717 1718 2102
1717 1651 5788
1718 1717 2102
1718 1750 1175
1719 1700 377
1719 1721 92
1719 1722 161
1720 1690 1001
1720 1661 741
1720 1743 541
1721 1719 92
1721 1724 268
1721 1735 247
1722 1719 161
1723 1705 274
1724 1721 268
1725 1726 3
1725 1727 7
1726 1725 3
1726 1713 382
1726 1728 6
1726 1732 45
1727 1713 261
1727 1725 7
1727 1728 3
1727 1730 19
1728 1727 3
1728 1726 6
1728 1731 19
1728 1732 45
1729 1691 1479
1729 1761 2246
1729 1706 6750
1730 1708 442
1730 1727 19
1730 1731 3
1730 1738 126
1731 1730 3
1731 1728 19
1731 1739 123
1731 1745 302
1732 1728 45
1732 1726 45
1732 1826 2853
1733 1710 543
1733 1752 710
1733 1757 691
1734 1673 1159
1734 1748 2139
1734 1818 2914
1735 1721 247
1735 1740 71
1735 1774 698
1736 1712 401
1736 1737 793
1736 1749 540
1737 1736 793
1738 1708 481
1738 1730 126
1738 1741 53
1739 1731 123
1739 1742 55
1739 1745 356
1740 1735 71
1741 1716 578
1741 1738 53
1741 1742 6
1741 1744 281
1742 1741 6
1742 1739 55
1742 1744 286
1742 1811 2118
1743 1720 541
1743 1751 392
1743 1777 1087
1744 1716 541
1744 1741 281
1744 1742 286
1745 1739 356
1745 1731 302
1745 1827 2591
1746 1715 362
1746 1794 89
1747 1707 472
1747 1797 86
1748 1734 2139
1749 1736 540
1749 1690 800
1749 1770 722
1749 1775 344
1750 1718 1175
1750 1766 665
1750 2167 16564
1751 1743 392
1751 1689 765
1751 1757 310
1752 1733 710
1752 1755 369
1752 1781 260
1753 1715 772
1753 1756 67
1753 1798 827
1754 1707 802
1754 1762 30
1755 1752 369
1755 1714 534
1755 1784 269
1756 1753 67
1756 1765 29
1757 1751 310
1757 1733 691
1757 1776 685
1757 1805 1001
1758 1712 662
1758 1772 71
1759 1760 295
1759 1793 454
1760 1759 295
1760 1767 37
1761 1692 1207
1761 1729 2246
1761 1890 10848
1762 1763 289
1762 1754 30
1763 1762 289
1763 1769 39
1764 1765 290
1764 1780 35
1765 1764 290
1765 1756 29
1766 1750 665
1766 1784 968
1767 1768 61
1767 1760 37
1768 1767 61
1768 1769 61
1768 1771 159
1769 1768 61
1769 1763 39
1770 1749 722
1770 1777 144
1770 1787 322
1771 1768 159
1771 1773 177
1772 1773 78
1772 1758 71
1773 1772 78
1773 1771 177
1773 1778 36
1774 1735 698
1775 1749 344
1775 1778 1126
1775 1787 702
1776 1757 685
1776 1781 376
1776 1790 295
1777 1770 144
1777 1743 1087
1777 1785 151
1778 1773 36
1778 1779 174
1778 1775 1126
1779 1780 223
1779 1778 174
1780 1779 223
1780 1764 35
1781 1776 376
1781 1752 260
1781 1782 123
1781 1791 288
1782 1781 123
1782 1783 17
1782 1784 247
1782 1795 291
1783 1782 17
1784 1782 247
1784 1755 269
1784 1766 968
1785 1777 151
1786 1579 3586
1786 1571 4573
1786 2005 10051
1787 1775 702
1787 1770 322
1787 1796 279
1788 1789 330
1788 1801 33
1789 1788 330
1790 1776 295
1790 1791 335
1790 1807 343
1791 1790 335
1791 1781 288
1791 1795 124
1791 1808 322
1792 1793 562
1792 1794 608
1792 1845 2061
1793 1792 562
1793 1759 454
1794 1792 608
1794 1746 89
1795 1791 124
1795 1782 291
1795 1956 17571
1796 1787 279
1797 1798 694
1797 1747 86
1798 1797 694
1798 1753 827
1798 1844 1971
1799 1800 37
1799 1803 14
1800 1799 37
1801 1802 134
1801 1788 33
1802 1801 134
1802 1803 7
1802 1810 353
1803 1802 7
1803 1799 14
1804 1621 3388
1804 1641 3457
1804 1848 3046
1805 1757 1001
1806 1711 2191
1806 1809 196
1806 1852 5317
1807 1790 343
1807 1808 299
1808 1807 299
1808 1791 322
1808 1814 247
1809 1806 196
1809 1831 783
1809 1895 7203
1810 1802 353
1810 1824 17
1811 1742 2118
1811 1818 2636
1811 1898 8112
1812 1813 6643
1812 1857 3709
1813 1812 6643
1814 1808 247
1815 1816 77
1815 1817 78
1815 1821 256
1816 1815 77
1817 1815 78
1818 1734 2914
1818 1811 2636
1818 1909 8827
1819 1820 1375
1820 1819 1375
1820 1830 1503
1820 1835 1592
1821 1815 256
1821 1822 112
1821 1823 53
1822 1821 112
1822 1828 1131
1822 1832 261
1823 1821 53
1824 1825 369
1824 1810 17
1825 1824 369
1825 1836 15
1826 1732 2853
1826 1858 1781
1827 1745 2591
1827 1861 1776
1828 1822 1131
1829 1638 10917
1829 1832 635
1829 1833 390
1830 1820 1503
1831 1809 783
1832 1822 261
1832 1829 635
1832 1833 440
1833 1829 390
1833 1832 440
1833 1834 40
1834 1833 40
1835 1820 1592
1835 1868 6725
1836 1837 747
1836 1825 15
1837 1836 747
1837 1838 19
1838 1839 186
1838 1837 19
1839 1838 186
1839 1846 24
1840 1841 829
1840 1849 572
1840 1864 1349
1841 1840 829
1842 1843 4895
1842 1855 988
1843 1842 4895
1844 1798 1971
1844 1955 135
1845 1792 2061
1845 1958 142
1846 1847 269
1846 1839 24
1847 1846 269
1847 1853 37
1848 1804 3046
1848 1694 3904
1848 1961 5557
1849 1840 572
1850 1851 1631
1851 1850 1631
1852 1806 5317
1853 1854 793
1853 1847 37
1854 1853 793
1854 1872 19
1855 1842 988
1855 1857 187
1855 1867 1259
1856 1868 792
1857 1812 3709
1857 1855 187
1857 1913 5330
1858 1859 1395
1858 1826 1781
1859 1858 1395
1859 1896 1794
1860 1861 1408
1860 1899 1784
1861 1860 1408
1861 1827 1776
1862 1863 971
1862 1874 2137
1862 1878 2200
1863 1862 971
1864 1840 1349
1864 1876 1250
1865 1866 3320
1866 1865 3320
1867 1855 1259
1868 1856 792
1868 1835 6725
1868 1887 5771
1869 1870 921
1870 1869 921
1871 1672 6890
1871 1886 1281
1871 1926 5187
1872 1873 1319
1872 1854 19
1873 1872 1319
1873 1884 23
1874 1862 2137
1874 1875 1604
1874 1878 147
1875 1874 1604
1876 1877 1030
1876 1864 1250
1876 1890 1079
1877 1876 1030
1878 1874 147
1878 1862 2200
1878 1881 590
1879 1880 330
1879 1882 262
1879 1891 1087
1880 1879 330
1881 1878 590
1881 1894 2805
1882 1883 1414
1882 1879 262
1882 1918 2524
1883 1882 1414
1884 1885 713
1884 1873 23
1885 1884 713
1885 1892 22
1886 1871 1281
1886 1903 12173
1886 1947 3824
1887 1868 5771
1888 1889 2963
1888 1904 22
1889 1888 2963
1890 1876 1079
1890 1761 10848
1890 1913 3457
1891 1879 1087
1892 1893 1039
1892 1885 22
1893 1892 1039
1893 1930 2467
1894 1881 2805
1894 1908 1219
1895 1809 7203
1895 1905 952
1895 1917 2159
1896 1897 1743
1896 1859 1794
1897 1896 1743
1897 1898 14
1897 1911 1189
1897 1911 1387
1898 1899 1736
1898 1897 14
1898 1811 8112
1898 1912 1200
1899 1898 1736
1899 1860 1784
1900 1901 8
1900 1902 2368
1900 1914 5135
1900 1963 4772
1901 1900 8
1902 1900 2368
1903 1904 1922
1903 1919 858
1903 1886 12173
1904 1903 1922
1904 1888 22
1905 1895 952
1905 1910 280
1905 1943 2329
1906 1907 263
1906 1908 74
1906 1966 3607
1907 1906 263
1908 1894 1219
1908 1906 74
1908 1923 5372
1909 1818 8827
1909 1916 2178
1909 1962 2866
1910 1905 280
1910 1915 967
1910 1921 1196
1911 1897 1189
1911 1897 1387
1911 1912 14
1911 1993 4646
1912 1898 1200
1912 1911 14
1912 1952 2197
1912 1994 4640
1913 1857 5330
1913 1890 3457
1913 1939 5103
1914 1900 5135
1914 1915 265
1914 1925 2334
1915 1910 967
1915 1914 265
1915 1921 900
1916 1909 2178
1917 1895 2159
1917 1945 3152
1918 1882 2524
1918 1920 1175
1918 1935 1224
1919 1903 858
1920 1918 1175
1921 1910 1196
1921 1922 62
1921 1915 900
1922 1921 62
1923 1908 5372
1923 1924 12
1923 1926 251
1923 1978 5258
1924 1923 12
1925 1914 2334
1925 1927 179
1925 1950 1306
1926 1923 251
1926 1871 5187
1927 1925 179
1927 1928 1694
1927 1946 1441
1928 1927 1694
1928 1929 445
1928 1932 403
1929 1928 445
1930 1893 2467
1930 1931 50
1930 1972 2747
1931 1930 50
1931 1936 328
1931 1941 668
1932 1928 403
1933 1934 287
1933 1942 925
1933 1965 2720
1934 1933 287
1935 1918 1224
1935 1942 215
1935 1965 1240
1936 1931 328
1937 1938 27260
1938 1937 27260
1938 1939 23
1938 1940 25
1939 1938 23
1939 1913 5103
1939 1940 24
1940 1938 25
1940 1939 24
1940 1977 2345
1941 1931 668
1942 1935 215
1942 1933 925
1942 1944 82
1943 1905 2329
1943 1949 285
1944 1942 82
1945 1917 3152
1945 1948 250
1946 1927 1441
1947 1886 3824
1947 1953 189
1947 1964 1617
1948 1945 250
1948 1949 66
1948 1960 1021
1949 1948 66
1949 1943 285
1949 1951 1186
1950 1925 1306
1950 1954 914
1950 1959 1675
1951 1949 1186
1952 1912 2197
1952 1980 1773
1953 1947 189
1953 1973 1761
1953 2040 5229
1954 1950 914
1955 1956 5427
1955 1844 135
1956 1955 5427
1956 1957 15
1956 1795 17571
1956 1988 1726
1957 1958 5414
1957 1956 15
1957 1961 913
1957 2124 4166
1957 11757 4166
1958 1957 5414
1958 1845 142
1959 1950 1675
1960 1948 1021
1960 1984 3270
1961 1848 5557
1961 1957 913
1961 2022 2402
1962 1909 2866
1962 1969 5331
1962 1987 1720
1963 1900 4772
1963 2024 3404
1964 1947 1617
1964 1973 711
1965 1935 1240
1965 1933 2720
1965 1967 154
1966 1906 3607
1966 1983 2335
1967 1965 154
1967 1968 3008
1967 2058 5231
1968 1967 3008
1969 1970 2878
1969 1962 5331
1969 2000 3575
1970 1969 2878
1970 1971 1550
1970 2079 5287
1971 1970 1550
1972 1930 2747
1972 1981 1226
1973 1964 711
1973 1953 1761
1973 1979 900
1974 1975 487
1974 1976 839
1974 2029 2034
1975 1974 487
1976 1974 839
1977 1940 2345
1977 2036 13940
1977 2444 7725
1978 1923 5258
1979 1973 900
1979 1989 659
1979 1997 711
1980 1952 1773
1980 2046 190
1981 1982 17358
1981 1972 1226
1981 2101 3766
1982 1981 17358
1983 1966 2335
1983 1986 161
1984 1985 1144
1984 1960 3270
1984 1995 633
1985 1984 1144
1986 1983 161
1986 1992 382
1987 1962 1720
1987 2055 5293
1987 2373 7491
1988 1956 1726
1988 1991 119
1988 1991 119
1989 1990 9
1989 1979 659
1989 2084 4798
1990 1989 9
1991 1988 119
1991 1988 119
1991 2122 2303
1991 2122 2397
1992 1986 382
1992 1998 909
1992 1999 105
1993 1911 4646
1993 2127 1871
1994 1912 4640
1994 2153 1870
1995 1984 633
1995 1996 681
1995 2023 568
1996 1995 681
1997 1979 711
1997 2043 1254
1997 2105 2337
1998 1992 909
1998 2038 1752
1999 1992 105
1999 2008 1268
1999 2090 2819
2000 1969 3575
2001 2002 516
2001 2007 170
2001 2019 811
2002 2001 516
2003 2004 320
2003 2006 2317
2004 2003 320
2005 1786 10051
2005 2006 23
2005 2007 64
2006 2005 23
2006 2003 2317
2006 2009 43
2007 2001 170
2007 2005 64
2007 2010 44
2008 1999 1268
2009 2006 43
2009 2013 48
2009 2026 807
2010 2007 44
2010 2011 14
2010 2016 57
2011 2010 14
2011 2012 8
2011 2017 17
2012 2011 8
2012 2013 12
2013 2012 12
2013 2009 48
2013 2017 21
2014 2015 1189
2015 2014 1189
2016 2010 57
2016 2018 55
2016 2034 959
2017 2011 17
2017 2013 21
2017 2018 43
2018 2016 55
2018 2017 43
2018 2042 926
2019 2001 811
2019 2024 391
2019 2034 397
2020 2021 1319
2020 2022 645
2020 2032 672
2021 2020 1319
2022 1961 2402
2022 2020 645
2022 2241 3386
2023 1995 568
2023 2025 524
2023 2028 104
2024 1963 3404
2024 2019 391
2024 2027 74
2025 2023 524
2026 2009 807
2027 2024 74
2027 2035 231
2027 2080 1280
2028 2023 104
2028 2033 512
2029 1974 2034
2029 2118 29
2030 2031 608
2030 2033 129
2030 2039 590
2031 2030 608
2032 2020 672
2033 2028 512
2033 2030 129
2033 2065 700
2034 2019 397
2034 2016 959
2034 2035 349
2034 2042 271
2035 2027 231
2035 2034 349
2035 2044 397
2036 2037 1509
2036 2048 498
2036 1977 13940
2037 2036 1509
2038 1998 1752
2039 2030 590
2040 1953 5229
2040 2041 2941
2040 2123 1683
2041 2040 2941
2042 2034 271
2042 2018 926
2042 2070 625
2043 1997 1254
2043 2045 105
2044 2035 397
2044 2054 260
2044 2063 351
2045 2043 105
2045 2084 1505
2046 2047 1899
2046 1980 190
2047 2046 1899
2047 2174 4100
2048 2036 498
2048 2049 65
2048 2113 968
2049 2050 123
2049 2048 65
2049 2051 59
2050 2049 123
2051 2049 59
2051 2052 53
2051 2062 714
2052 2051 53
2052 2053 72
2052 2064 150
2053 2052 72
2054 2044 260
2054 2070 160
2054 2075 341
2055 1987 5293
2055 2058 201
2055 2061 67
2056 2057 1581
2056 2059 104
2056 2060 80
2057 2056 1581
2058 2055 201
2058 2061 109
2058 1967 5231
2059 2056 104
2059 2062 178
2059 2071 100
2060 2056 80
2061 2058 109
2061 2055 67
2061 2109 1258
2062 2059 178
2062 2051 714
2062 2113 865
2063 2044 351
2063 2075 117
2063 2080 296
2064 2052 150
2065 2066 139
2065 2033 700
2065 2077 1405
2066 2065 139
2066 2067 3386
2067 2068 6521
2067 2069 42
2067 2066 3386
2068 2067 6521
2068 2069 1857
2068 2078 2238
2069 2068 1857
2069 2067 42
2069 2076 152
2070 2054 160
2070 2042 625
2070 2082 353
2071 2059 100
2072 2073 1086
2073 2072 1086
2073 2074 374
2073 2219 2719
2074 2073 374
2075 2063 117
2075 2054 341
2075 2082 164
2076 2069 152
2076 2085 228
2076 2087 477
2077 2065 1405
2077 2083 338
2077 2100 992
2078 2068 2238
2078 2312 3715
2079 1970 5287
2079 2092 55
2080 2027 1280
2080 2063 296
2080 2081 7
2081 2080 7
2081 2086 145
2081 2095 487
2082 2075 164
2082 2070 353
2082 2086 346
2083 2077 338
2084 2045 1505
2084 1989 4798
2084 2116 668
2085 2076 228
2086 2081 145
2086 2082 346
2086 2091 186
2087 2076 477
2088 2089 221
2088 2114 326
2088 2125 980
2089 2088 221
2090 1999 2819
2090 2094 464
2090 2110 345
2091 2086 186
2091 2102 271
2091 2106 257
2092 2093 254
2092 2079 55
2093 2092 254
2093 2111 1458
2093 2163 1359
2094 2090 464
2095 2081 487
2095 2104 94
2095 2125 865
2096 2097 2068
2096 2098 1780
2096 2364 4763
2097 2096 2068
2098 2099 5079
2098 2096 1780
2098 2166 2484
2099 2098 5079
2100 2077 992
2100 2114 584
2100 2157 766
2101 1981 3766
2101 2121 7610
2101 2134 649
2102 2091 271
2102 2103 9
2102 2104 9
2103 2102 9
2103 2106 55
2104 2095 94
2104 2102 9
2104 2107 41
2104 2120 234
2105 1997 2337
2106 2103 55
2106 2091 257
2106 2108 18
2107 2104 41
2107 2108 42
2107 2112 112
2107 2119 137
2108 2106 18
2108 2107 42
2108 2115 87
2109 2061 1258
2109 2173 1210
2109 2566 9257
2110 2090 345
2110 2191 1351
2111 2093 1458
2111 2192 2041
2112 2107 112
2112 2119 107
2112 2120 96
2113 2062 865
2113 2048 968
2113 2388 4217
2114 2088 326
2114 2100 584
2114 2145 524
2115 2108 87
2115 2119 62
2115 2261 1909
2116 2084 668
2116 2210 1779
2117 2118 2868
2117 2325 2996
2118 2117 2868
2118 2029 29
2119 2112 107
2119 2107 137
2119 2115 62
2119 2252 1646
2120 2104 234
2120 2112 96
2120 2177 970
2121 2101 7610
2122 1991 2303
2122 1991 2397
2122 2124 23
2122 2168 554
2123 2040 1683
2123 2126 126
2123 2159 3621
2124 1957 4166
2124 11757 4166
2124 2122 23
2124 2169 536
2124 2241 1412
2125 2088 980
2125 2095 865
2125 2129 372
2125 2177 550
2126 2123 126
2126 2182 1142
2126 2316 3257
2127 2128 1424
2127 1993 1871
2128 2127 1424
2128 2135 377
2128 2146 296
2129 2130 93
2129 2125 372
2129 2145 160
2130 2129 93
2131 2132 662
2131 2151 1130
2132 2131 662
2132 2232 461
2133 2134 427
2133 2140 319
2134 2133 427
2134 2101 649
2134 2141 38
2134 2151 222
2135 2128 377
2135 2146 133
2135 2154 187
2136 2137 104
2137 2136 104
2137 2138 142
2137 2158 66
2138 2137 142
2139 2140 1170
2139 2187 734
2140 2139 1170
2140 2133 319
2141 2142 411
2141 2134 38
2141 2164 282
2141 2209 1028
2142 2141 411
2142 2147 358
2143 2144 755
2143 11755 382
2144 2143 755
2144 2164 1048
2145 2114 524
2145 2129 160
2145 2162 131
2146 2128 296
2146 2135 133
2146 2149 4
2146 2152 9
2147 2148 1123
2147 2142 358
2148 2147 1123
2148 2188 729
2149 2146 4
2149 2150 208
2149 2155 9
2149 2165 238
2150 2149 208
2150 2156 107
2150 2165 264
2151 2134 222
2151 2131 1130
2152 2153 1720
2152 2146 9
2152 2155 4
2152 2172 440
2153 2152 1720
2153 1994 1870
2154 2135 187
2154 2176 250
2155 2152 4
2155 2149 9
2155 2160 63
2155 2160 340
2156 2150 107
2156 2175 243
2157 2100 766
2157 2158 277
2157 2162 239
2157 2180 233
2158 2137 66
2158 2157 277
2158 2161 689
2158 2181 233
2159 2123 3621
2159 2171 2432
2160 2155 63
2160 2155 340
2160 2172 244
2161 2158 689
2162 2157 239
2162 2145 131
2162 2184 328
2163 2093 1359
2163 2271 57
2164 2141 282
2164 2144 1048
2165 2149 238
2165 2150 264
2165 2175 190
2166 2098 2484
2167 1750 16564
2167 2311 2190
2168 2122 554
2168 2266 407
2169 2124 536
2169 2269 410
2170 2171 699
2171 2170 699
2171 2159 2432
2171 2199 486
2172 2152 440
2172 2160 244
2172 2178 129
2173 2109 1210
2174 2047 4100
2174 2192 281
2174 2203 496
2175 2165 190
2175 2156 243
2175 2176 5
2175 2178 11
2176 2175 5
2176 2154 250
2176 2179 11
2176 2187 735
2177 2125 550
2177 2120 970
2177 2201 411
2178 2172 129
2178 2175 11
2178 2179 5
2178 2203 388
2179 2178 5
2179 2176 11
2179 2188 737
2179 2204 393
2180 2157 233
2180 2181 303
2180 2184 15
2181 2158 233
2181 2180 303
2181 2183 309
2181 2185 22
2182 2126 1142
2182 2282 1345
2183 2181 309
2184 2180 15
2184 2162 328
2184 2186 37
2185 2181 22
2185 2186 275
2185 2189 74
2186 2185 275
2186 2184 37
2186 2193 208
2187 2176 735
2187 2139 734
2188 2179 737
2188 2148 729
2189 2185 74
2189 2190 410
2189 2193 123
2190 2189 410
2190 2197 222
2191 2110 1351
2192 2111 2041
2192 2174 281
2192 2310 2182
2193 2189 123
2193 2186 208
2193 2194 105
2193 2195 110
2194 2193 105
2194 2196 224
2194 2198 58
2195 2193 110
2195 2202 146
2195 2208 138
2196 2194 224
2196 2197 157
2196 2216 191
2197 2190 222
2197 2196 157
2197 2212 130
2198 2194 58
2198 2208 167
2198 2218 219
2199 2171 486
2200 2201 707
2201 2200 707
2201 2177 411
2201 2228 366
2202 2195 146
2202 2214 110
2202 2228 364
2203 2174 496
2203 2178 388
2203 2204 16
2204 2203 16
2204 2179 393
2204 2251 652
2205 2206 33
2205 2213 282
2205 2213 251
2206 2205 33
2206 2207 20
2206 2215 107
2206 2217 219
2207 2206 20
2207 2209 1326
2207 2215 110
2208 2198 167
2208 2195 138
2208 2214 140
2208 2223 190
2209 2207 1326
2209 2141 1028
2209 2264 950
2209 2294 1082
2210 2116 1779
2211 2212 538
2211 2229 595
2211 2237 365
2212 2211 538
2212 2197 130
2212 2216 174
2212 2236 276
2213 2205 282
2213 2205 251
2213 2217 68
2214 2208 140
2214 2202 110
2214 2226 221
2215 2206 107
2215 2207 110
2215 2224 129
2216 2212 174
2216 2196 191
2216 2218 101
2217 2213 68
2217 2206 219
2217 2222 21
2217 2227 114
2218 2216 101
2218 2198 219
2218 2223 147
2218 2240 223
2219 2220 55
2219 2221 1761
2219 2073 2719
2220 2219 55
2220 2267 592
2221 2219 1761
2222 2217 21
2222 2227 117
2222 2251 948
2223 2218 147
2223 2208 190
2223 2246 352
2224 2215 129
2224 2225 20
2224 2238 179
2225 2224 20
2225 2227 126
2225 2239 182
2226 2214 221
2226 2230 76
2226 2246 252
2227 2222 117
2227 2217 114
2227 2225 126
2228 2202 364
2228 2201 366
2228 2231 49
2229 2211 595
2230 2226 76
2230 2231 55
2230 2248 265
2231 2230 55
2231 2228 49
2231 2252 1144
2231 2253 295
2232 2233 1233
2232 2132 461
2233 2232 1233
2233 2249 326
2234 2235 1042
2234 2263 331
2235 2234 1042
2235 11755 175
2236 2212 276
2236 2240 244
2236 2237 537
2237 2211 365
2237 2236 537
2237 2244 76
2238 2224 179
2238 2239 15
2238 2264 432
2239 2225 182
2239 2238 15
2239 2245 124
2239 2265 442
2240 2236 244
2240 2218 223
2240 2274 439
2241 2022 3386
2241 2124 1412
2241 2292 1341
2241 2413 2276
2242 2243 207
2242 2247 61
2242 2358 4649
2243 2242 207
2244 2237 76
2244 2257 1733
2245 2239 124
2245 2291 655
2245 2310 966
2246 2223 352
2246 2226 252
2246 2248 73
2247 2242 61
2248 2246 73
2248 2230 265
2248 2253 128
2249 2250 73
2249 2233 326
2250 2249 73
2250 2285 510
2251 2204 652
2251 2222 948
2251 2254 610
2252 2231 1144
2252 2119 1646
2252 2284 330
2253 2248 128
2253 2231 295
2253 2275 256
2254 2251 610
2255 2256 21
2255 2258 20
2255 2260 170
2255 2260 168
2256 2255 21
2256 2257 7
2257 2256 7
2257 2258 0
2257 2244 1733
2258 2255 20
2258 2257 0
2258 2259 29
2258 2274 2459
2259 2258 29
2259 2278 2453
2259 2281 247
2260 2255 170
2260 2255 168
2260 2272 287
2260 2272 275
2261 2115 1909
2262 2263 246
2262 2273 185
2262 2273 185
2263 2262 246
2263 2234 331
2264 2238 432
2264 2209 950
2264 2265 16
2264 2294 1263
2265 2239 442
2265 2264 16
2265 2291 369
2265 2297 1275
2266 2267 959
2266 2168 407
2267 2266 959
2267 2220 592
2267 2268 15
2267 2358 2440
2268 2269 964
2268 2267 15
2268 2292 395
2268 2361 2440
2269 2268 964
2269 2169 410
2270 2271 3306
2270 2365 9607
2271 2270 3306
2271 2163 57
2272 2260 287
2272 2260 275
2272 2309 477
2272 2418 3314
2273 2262 185
2273 2262 185
2273 2302 405
2273 2306 486
2274 2258 2459
2274 2240 439
2274 2275 609
2274 2278 33
2275 2274 609
2275 2253 256
2275 2279 1164
2275 2280 29
2276 2277 693
2277 2276 693
2278 2259 2453
2278 2274 33
2278 2280 608
2278 2345 1022
2279 2275 1164
2280 2278 608
2280 2275 29
2280 2284 1181
2280 2351 1013
2281 2259 247
2281 2288 112
2281 2290 151
2282 2182 1345
2282 2283 8
2282 2322 1561
2283 2282 8
2284 2280 1181
2284 2252 330
2284 2730 8811
2285 2250 510
2285 2298 257
2285 2300 255
2286 2287 384
2286 2289 112
2286 2293 190
2287 2286 384
2287 2320 4996
2288 2281 112
2288 2290 33
2288 2304 221
2289 2286 112
2289 11758 290
2290 2288 33
2290 2281 151
2290 2305 200
2291 2245 655
2291 2265 369
2291 2313 535
2292 2241 1341
2292 2268 395
2292 2330 864
2293 2286 190
2293 2295 20
2293 2296 22
2294 2209 1082
2294 2297 23
2294 2264 1263
2295 2293 20
2295 2306 124
2296 2293 22
2296 2308 180
2297 2294 23
2297 2265 1275
2297 2319 413
2298 2285 257
2298 2299 6
2298 2300 14
2298 2315 499
2299 2298 6
2299 2301 14
2300 2285 255
2300 2298 14
2300 2301 7
2300 2302 20
2301 2300 7
2301 2299 14
2301 2303 20
2301 2315 345
2302 2273 405
2302 2300 20
2302 2303 7
2302 2306 205
2303 2302 7
2303 2301 20
2303 2308 162
2303 2318 341
2304 2288 221
2304 2305 20
2304 2309 119
2305 2304 20
2305 2290 200
2305 2307 74
2306 2295 124
2306 2273 486
2306 2302 205
2307 2305 74
2307 2338 583
2307 2347 2521
2308 2296 180
2308 2303 162
2308 2318 439
2309 2272 477
2309 2304 119
2309 2331 647
2309 2334 468
2310 2192 2182
2310 2245 966
2310 2327 383
2311 2167 2190
2311 2312 63
2311 2314 110
2312 2311 63
2312 2078 3715
2312 2314 60
2312 2323 299
2313 2291 535
2313 2332 212
2314 2311 110
2314 2312 60
2314 2343 400
2315 2301 345
2315 2298 499
2315 2337 523
2316 2317 8059
2316 2126 3257
2316 2385 1038
2317 2316 8059
2318 2308 439
2318 2303 341
2318 2326 124
2318 2339 541
2319 2297 413
2319 2320 409
2319 2336 273
2320 2319 409
2320 2321 295
2320 2287 4996
2321 2320 295
2322 2282 1561
2323 2312 299
2323 2324 646
2323 2343 364
2324 2323 646
2324 2348 989
2324 2362 1163
2324 2362 1212
2325 2117 2996
2325 2407 3037
2325 11759 239
2326 2318 124
2327 2310 383
2327 2328 62
2327 2329 62
2328 2327 62
2328 2335 414
2328 2349 351
2329 2327 62
2329 2341 116
2330 2292 864
2330 2371 478
2330 2397 1820
2331 2309 647
2331 2334 495
2331 2418 3044
2332 2333 84
2332 2313 212
2333 2332 84
2333 2344 189
2333 2336 1196
2334 2331 495
2334 2309 468
2334 2338 217
2335 2328 414
2335 2349 184
2335 2369 336
2336 2319 273
2336 2333 1196
2336 2430 7667
2336 11758 7667
2336 11764 7667
2337 2315 523
2337 2363 746
2338 2334 217
2338 2307 583
2338 2372 2516
2339 2318 541
2339 2367 721
2340 2341 129
2340 2342 166
2340 2360 320
2341 2340 129
2341 2329 116
2342 2340 166
2342 2344 544
2342 2346 384
2343 2314 400
2343 2323 364
2343 2348 56
2344 2342 544
2344 2333 189
2344 2346 24
2345 2278 1022
2345 2347 20
2345 2351 733
2346 2342 384
2346 2344 24
2346 2378 302
2347 2307 2521
2347 2345 20
2347 2372 238
2348 2343 56
2348 2324 989
2348 2352 421
2348 2352 530
2349 2335 184
2349 2328 351
2349 2350 17
2349 2370 258
2350 2349 17
2350 2359 127
2351 2345 733
2351 2280 1013
2351 2353 9
2352 2348 421
2352 2354 161
2352 2354 151
2352 2348 530
2353 2351 9
2353 2395 858
2353 2410 679
2354 2352 161
2354 2352 151
2354 2374 361
2354 2374 364
2355 2356 522
2355 2357 449
2355 2396 500
2356 2355 522
2357 2355 449
2358 2267 2440
2358 2361 15
2358 2242 4649
2358 2420 1299
2359 2360 102
2359 2350 127
2360 2359 102
2360 2340 320
2360 2391 283
2361 2268 2440
2361 2358 15
2361 2397 428
2361 2421 1360
2362 2324 1163
2362 2324 1212
2362 2386 161
2362 2386 178
2363 2364 208
2363 2337 746
2364 2363 208
2364 2096 4763
2364 2366 22
2364 2379 232
2365 2270 9607
2365 2373 1287
2366 2367 225
2366 2364 22
2366 2400 1015
2366 2412 784
2367 2366 225
2367 2339 721
2368 2369 188
2369 2368 188
2369 2335 336
2369 2370 95
2370 2369 95
2370 2349 258
2370 2381 85
2371 2330 478
2371 2375 148
2371 2423 868
2372 2347 238
2372 2399 310
2372 2338 2516
2373 2365 1287
2373 1987 7491
2373 2475 2107
2374 2354 361
2374 2354 364
2374 2387 157
2374 2387 159
2375 2371 148
2375 2380 158
2375 2429 1046
2376 2377 311
2376 2380 124
2376 2384 540
2377 2376 311
2378 2346 302
2378 2394 227
2378 2401 430
2379 2364 232
2379 2398 674
2380 2376 124
2380 2375 158
2380 2413 769
2381 2370 85
2381 2389 130
2382 2383 189
2382 2466 368
2383 2382 189
2383 11762 1124
2384 2376 540
2385 2316 1038
2385 11763 341
2386 2362 161
2386 2362 178
2386 2405 266
2386 2405 260
2387 2374 157
2387 2374 159
2387 2435 1096
2387 2435 1235
2388 2113 4217
2389 2390 58
2389 2381 130
2390 2389 58
2390 2391 51
2390 2409 380
2391 2390 51
2391 2360 283
2391 2406 588
2392 2393 562
2393 2392 562
2394 2378 227
2395 2353 858
2396 2355 500
2397 2330 1820
2397 2361 428
2397 2443 1223
2398 2379 674
2398 11761 447
2399 2372 310
2399 2410 704
2399 2441 899
2400 2366 1015
2400 11762 347
2401 2378 430
2401 2406 139
2401 2411 198
2402 2403 1816
2402 2404 134
2402 2503 2660
2403 2402 1816
2404 2402 134
2405 2386 266
2405 2386 260
2405 2408 77
2405 2408 76
2406 2401 139
2406 2391 588
2406 2417 229
2407 2325 3037
2408 2405 77
2408 2405 76
2408 2414 153
2408 2414 170
2409 2390 380
2410 2399 704
2410 2353 679
2410 2419 490
2410 2440 714
2411 2401 198
2412 2366 784
2412 2432 1200
2412 11764 219
2413 2241 2276
2413 2380 769
2413 2415 355
2413 2429 373
2414 2408 153
2414 2408 170
2414 2416 30
2414 2416 29
2415 2413 355
2415 2436 9890
2416 2414 30
2416 2414 29
2416 2418 390
2416 2418 264
2417 2406 229
2417 2505 78
2418 2272 3314
2418 2416 390
2418 2416 264
2418 2331 3044
2419 2410 490
2420 2358 1299
2420 2422 220
2420 2433 496
2421 2361 1360
2421 2427 218
2421 2434 481
2422 2420 220
2422 2424 70
2422 2426 129
2423 2371 868
2424 2422 70
2424 2425 7
2424 2426 72
2425 2424 7
2425 2428 25
2426 2424 72
2426 2422 129
2426 2433 160
2427 2421 218
2427 2428 35
2427 2431 52
2427 2434 275
2428 2427 35
2428 2425 25
2429 2413 373
2429 2375 1046
2429 2442 374
2429 2451 803
2430 2336 7667
2430 11758 7667
2430 11764 7667
2430 2445 449
2430 2450 791
2431 2427 52
2432 2412 1200
2433 2420 496
2433 2426 160
2433 2498 2526
2434 2427 275
2434 2421 481
2434 2500 2484
2435 2387 1096
2435 2387 1235
2435 2455 557
2435 2460 575
2436 2437 3746
2436 2415 9890
2436 2468 1490
2437 2436 3746
2438 2439 64
2438 2444 240
2438 2446 137
2439 2438 64
2440 2410 714
2440 2441 649
2440 2462 457
2441 2399 899
2441 2440 649
2441 2467 584
2442 2429 374
2442 11767 1945
2443 2397 1223
2443 2459 59
2444 1977 7725
2444 2438 240
2444 2447 68
2445 2430 449
2445 2450 735
2445 2547 2277
2446 2438 137
2446 2447 257
2446 2546 16763
2447 2444 68
2447 2446 257
2447 3864 18989
2448 2449 1445
2449 2448 1445
2450 2430 791
2450 2445 735
2450 2453 6460
2451 2429 803
2451 2452 37
2451 2454 221
2452 2451 37
2453 2450 6460
2453 2456 111
2453 2464 270
2454 2451 221
2455 2435 557
2455 2461 294
2455 2476 918
2456 2453 111
2456 2457 797
2457 2456 797
2457 2474 453
2457 2518 14317
2457 11759 14317
2457 11763 14317
2458 2459 489
2458 2472 417
2458 2495 1261
2459 2458 489
2459 2443 59
2460 2435 575
2460 2461 43
2461 2455 294
2461 2460 43
2461 2482 440
2461 2622 3807
2462 2440 457
2462 2467 549
2462 2481 427
2463 2464 3460
2463 11760 559
2464 2463 3460
2464 2453 270
2464 2465 12
2464 2522 1641
2465 2466 3461
2465 2464 12
2465 2524 1639
2465 2942 8873
2466 2465 3461
2466 2382 368
2467 2441 584
2467 2462 549
2467 2480 305
2468 2436 1490
2469 2470 122
2469 2471 1199
2469 2929 8567
2470 2469 122
2471 2469 1199
2472 2473 226
2472 2458 417
2472 2491 589
2473 2472 226
2474 2457 453
2474 2479 108
2474 2494 697
2475 2373 2107
2475 2477 153
2475 2630 6239
2476 2455 918
2476 2478 1687
2476 2489 417
2477 2475 153
2478 2476 1687
2478 2512 7518
2479 2474 108
2479 2494 699
2479 2522 1282
2480 2467 305
2480 2483 238
2480 2486 128
2481 2462 427
2481 2486 452
2481 2496 490
2482 2461 440
2482 2489 1322
2482 2609 2527
2483 2480 238
2483 2484 163
2483 2487 122
2484 2485 631
2484 2483 163
2484 2488 205
2485 2484 631
2486 2480 128
2486 2481 452
2486 2487 233
2486 2490 116
2487 2483 122
2487 2486 233
2487 2488 39
2488 2484 205
2488 2487 39
2488 2492 125
2489 2476 417
2489 2482 1322
2489 2493 213
2490 2486 116
2490 2492 162
2490 2497 283
2491 2472 589
2491 2504 707
2491 2507 608
2492 2488 125
2492 2490 162
2492 2502 644
2493 2489 213
2493 2663 37
2494 2479 699
2494 2474 697
2494 2513 500
2494 2583 3683
2495 2458 1261
2495 2501 305
2495 2508 400
2496 2481 490
2496 2497 380
2496 2510 310
2497 2490 283
2497 2496 380
2497 2514 357
2498 2433 2526
2498 2499 16189
2498 2500 21
2498 2548 1155
2499 2498 16189
2500 2434 2484
2500 2498 21
2500 2528 566
2500 2549 1149
2501 2495 305
2501 2504 29
2502 2492 644
2503 2402 2660
2503 2512 407
2503 2548 1039
2504 2491 707
2504 2501 29
2504 2511 258
2505 2506 2150
2505 2417 78
2506 2505 2150
2506 2530 868
2506 2676 4080
2507 2491 608
2507 2509 61
2507 2601 1969
2508 2495 400
2508 2526 756
2508 2531 926
2509 2507 61
2510 2496 310
2510 2514 326
2510 2538 433
2511 2504 258
2511 2515 45
2511 2531 318
2512 2503 407
2512 2516 446
2512 2478 7518
2512 2557 1314
2513 2494 500
2513 2533 291
2513 2534 306
2514 2497 357
2514 2510 326
2514 2537 390
2515 2511 45
2515 2517 103
2515 2521 87
2516 2512 446
2517 2515 103
2517 2520 21
2517 2521 72
2518 2457 14317
2518 11759 14317
2518 11763 14317
2518 2656 2333
2519 2520 309
2520 2519 309
2520 2517 21
2520 2525 31
2521 2517 72
2521 2515 87
2521 2523 20
2522 2464 1641
2522 2479 1282
2522 2524 15
2522 2529 144
2523 2521 20
2523 2525 49
2523 2527 65
2524 2465 1639
2524 2522 15
2524 2532 196
2524 2558 698
2525 2520 31
2525 2523 49
2525 2527 74
2526 2508 756
2526 2528 80
2526 2554 560
2527 2525 74
2527 2523 65
2527 2541 295
2528 2526 80
2528 2500 566
2528 2555 996
2529 2522 144
2529 2534 448
2529 2539 318
2530 2506 868
2530 2551 44
2531 2511 318
2531 2508 926
2531 2543 272
2532 2524 196
2532 2542 270
2532 2545 288
2533 2513 291
2533 2540 232
2533 2553 447
2534 2513 306
2534 2529 448
2534 2539 219
2535 2536 254
2535 2537 491
2535 2570 624
2536 2535 254
2537 2535 491
2537 2514 390
2537 2538 245
2537 2564 407
2538 2537 245
2538 2510 433
2538 2590 845
2539 2529 318
2539 2534 219
2539 2540 7
2539 2542 20
2540 2539 7
2540 2533 232
2540 2544 19
2540 2553 336
2541 2527 295
2541 2543 330
2541 2585 708
2542 2532 270
2542 2539 20
2542 2544 7
2542 2545 40
2543 2541 330
2543 2531 272
2543 2581 1111
2544 2542 7
2544 2540 19
2544 2545 40
2544 2556 496
2545 2542 40
2545 2544 40
2545 2532 288
2545 2556 521
2546 2446 16763
2546 2605 1558
2547 2445 2277
2547 2568 529
2547 2711 2969
2548 2498 1155
2548 2503 1039
2548 2549 18
2548 2557 218
2549 2500 1149
2549 2548 18
2549 2555 195
2549 2559 214
2550 2551 334
2550 2552 87
2550 2560 234
2551 2550 334
2551 2530 44
2552 2550 87
2552 2592 972
2552 2624 3207
2553 2540 336
2553 2533 447
2553 2561 464
2554 2526 560
2554 2580 834
2554 2581 292
2555 2528 996
2555 2549 195
2555 2572 196
2556 2545 521
2556 2544 496
2556 2565 321
2557 2548 218
2557 2512 1314
2557 2559 18
2557 2571 174
2558 2524 698
2558 2775 7184
2558 3073 11051
2559 2549 214
2559 2557 18
2559 2567 123
2559 2572 208
2560 2550 234
2560 2592 509
2560 2848 5680
2561 2553 464
2561 2575 1140
2562 2563 133
2562 2569 164
2562 2621 2241
2563 2562 133
2564 2537 407
2564 2570 271
2564 2573 115
2565 2556 321
2565 2579 1134
2566 2109 9257
2566 2604 757
2566 2732 11916
2567 2559 123
2567 2582 235
2567 2598 504
2568 2547 529
2569 2562 164
2570 2535 624
2570 2564 271
2570 2573 326
2571 2557 174
2571 2577 119
2571 2597 456
2572 2555 196
2572 2559 208
2572 2574 12
2573 2564 115
2573 2570 326
2573 2595 355
2574 2572 12
2574 2580 385
2574 2584 266
2575 2576 1153
2575 2561 1140
2576 2575 1153
2576 2661 3656
2577 2571 119
2577 11771 451
2578 2579 1154
2578 2666 3637
2579 2578 1154
2579 2565 1134
2580 2554 834
2580 2574 385
2580 2594 989
2581 2543 1111
2581 2554 292
2581 2594 247
2582 2567 235
2582 11775 352
2583 2494 3683
2584 2574 266
2584 2742 37
2585 2541 708
2585 2586 43
2585 2589 40
2586 2587 0
2586 2585 43
2586 2593 33
2586 2594 1203
2587 2586 0
2588 2589 248
2589 2588 248
2589 2585 40
2589 2593 47
2590 2538 845
2590 2591 2989
2590 2595 36
2591 2590 2989
2592 2560 509
2592 2552 972
2592 2729 2370
2593 2589 47
2593 2586 33
2593 2596 33
2594 2586 1203
2594 2581 247
2594 2580 989
2594 2620 542
2595 2573 355
2595 2590 36
2595 2608 361
2596 2593 33
2596 2743 2365
2597 2571 456
2597 11772 26
2598 2567 504
2598 11773 27
2599 2600 4426
2599 2607 212
2599 2610 422
2600 2599 4426
2601 2507 1969
2601 2602 247
2601 2603 110
2602 2601 247
2603 2601 110
2603 2610 690
2603 2611 255
2604 2566 757
2604 2625 494
2605 2606 33
2605 2546 1558
2605 2606 295
2606 2605 33
2606 2605 295
2606 2732 11218
2607 2599 212
2607 2623 361
2608 2595 361
2608 2626 744
2608 2637 574
2609 2482 2527
2609 2639 550
2610 2599 422
2610 2603 690
2610 2623 284
2611 2603 255
2612 2613 283
2612 11772 48
2613 2612 283
2613 2614 261
2613 2712 1253
2614 2613 261
2614 11771 87
2615 2616 246
2615 2617 323
2615 2713 1221
2616 2615 246
2616 11774 263
2617 2615 323
2617 11773 37
2618 2619 333
2619 2618 333
2620 2594 542
2621 2562 2241
2621 2628 128
2621 2655 834
2622 2461 3807
2622 2650 884
2622 2914 4015
2623 2607 361
2623 2610 284
2623 2677 744
2624 2552 3207
2624 2819 4463
2625 2604 494
2625 2627 53
2625 2629 78
2626 2608 744
2626 2637 359
2626 2657 570
2627 2625 53
2627 2629 21
2627 2631 266
2628 2621 128
2628 2691 1822
2628 2695 1469
2629 2625 78
2629 2627 21
2629 3287 13913
2630 2475 6239
2630 2631 183
2630 2634 121
2631 2627 266
2631 2630 183
2631 2632 4
2632 2631 4
2632 2633 45
2632 2635 62
2633 2632 45
2633 2635 20
2633 2636 53
2634 2630 121
2635 2632 62
2635 2633 20
2635 2638 85
2636 2633 53
2637 2626 359
2637 2608 574
2637 2679 518
2638 2635 85
2638 2640 79
2638 2686 751
2639 2609 550
2639 2650 134
2639 2659 270
2639 2664 391
2640 2638 79
2641 2642 1139
2642 2641 1139
2642 2651 948
2643 2644 532
2643 2645 221
2643 2678 549
2644 2643 532
2645 2643 221
2646 2647 990
2646 11768 449
2647 2646 990
2647 11776 998
2648 2649 1001
2648 11778 1350
2649 2648 1001
2649 11769 440
2650 2639 134
2650 2622 884
2650 2658 150
2651 2642 948
2651 2652 37
2651 2654 40
2652 2651 37
2652 2653 115
2652 2654 13
2652 2669 302
2653 2652 115
2654 2651 40
2654 2652 13
2654 2671 184
2655 2621 834
2656 2518 2333
2656 2660 210
2656 2807 5406
2657 2626 570
2657 2679 459
2657 2684 268
2658 2650 150
2658 2659 16
2658 2689 383
2659 2639 270
2659 2658 16
2659 2675 416
2659 2689 380
2660 2656 210
2660 2667 33
2660 2694 1543
2660 2721 2098
2661 2662 516
2661 2576 3656
2662 2661 516
2662 2665 34
2662 2668 48
2662 2668 68
2663 2664 4206
2663 2493 37
2664 2663 4206
2664 2639 391
2664 2675 148
2665 2666 511
2665 2662 34
2665 2670 79
2665 2691 723
2666 2665 511
2666 2578 3637
2667 2660 33
2667 2696 1553
2667 2696 1829
2667 2715 1418
2668 2662 48
2668 2662 68
2668 2670 34
2668 2692 1470
2669 2652 302
2669 2677 1090
2669 2683 105
2670 2665 79
2670 2668 34
2670 2693 1456
2670 2706 971
2671 2654 184
2671 2672 170
2671 2683 156
2672 2671 170
2672 2673 4
2672 2685 130
2673 2672 4
2673 2674 297
2674 2673 297
2675 2664 148
2675 2659 416
2675 2716 529
2676 2506 4080
2677 2669 1090
2677 2623 744
2677 2678 77
2678 2677 77
2678 2643 549
2678 2697 532
2679 2657 459
2679 2637 518
2679 2710 562
2680 2681 199
2680 2682 350
2680 2708 446
2681 2680 199
2682 2680 350
2683 2671 156
2683 2669 105
2683 2700 509
2683 2714 480
2684 2657 268
2684 2710 505
2684 2824 2114
2685 2672 130
2686 2638 751
2687 2688 276
2687 2690 202
2687 2698 650
2688 2687 276
2689 2659 380
2689 2658 383
2689 2716 724
2689 2944 3348
2690 2687 202
2691 2628 1822
2691 2665 723
2691 2733 1064
2692 2668 1470
2692 2693 18
2692 2694 95
2692 2694 116
2693 2670 1456
2693 2692 18
2693 2696 112
2693 2706 680
2694 2692 95
2694 2692 116
2694 2696 16
2694 2660 1543
2695 2628 1469
2695 2698 293
2695 2744 1404
2696 2693 112
2696 2694 16
2696 2667 1553
2696 2667 1829
2697 2678 532
2697 2699 1781
2697 2720 848
2698 2695 293
2698 2687 650
2698 2731 1681
2699 2697 1781
2700 2683 509
2701 2702 331
2702 2701 331
2702 2705 22
2702 2707 24
2703 2704 1755
2703 2759 3038
2704 2703 1755
2705 2702 22
2705 3193 6374
2706 2670 971
2706 2693 680
2706 2842 4571
2707 2702 24
2707 3195 6373
2708 2680 446
2708 2709 58
2708 2759 744
2709 2708 58
2710 2684 505
2710 2679 562
2710 2793 1145
2711 2547 2969
2711 2812 1488
2712 2613 1253
2712 2777 44
2713 2615 1221
2713 2739 41
2714 2683 480
2715 2667 1418
2715 2722 605
2716 2675 529
2716 2689 724
2716 2758 602
2717 2718 49
2717 2719 1262
2717 2753 580
2718 2717 49
2719 2717 1262
2720 2697 848
2720 2771 1671
2720 2829 1703
2721 2660 2098
2721 2822 1784
2722 2715 605
2722 2838 1777
2723 2724 2274
2723 2753 1622
2724 2723 2274
2724 2725 851
2724 2726 23
2724 2737 258
2725 2724 851
2726 2727 2463
2726 2724 23
2726 2728 1601
2726 2740 259
2727 2726 2463
2727 2755 1401
2728 2726 1601
2728 2751 459
2728 2766 2255
2729 2592 2370
2729 2911 79
2730 2284 8811
2730 2734 111
2730 2745 155
2731 2698 1681
2731 2736 753
2731 2756 505
2732 2606 11218
2732 2566 11916
2732 3357 11495
2733 2691 1064
2733 2874 1776
2734 2730 111
2734 2735 6
2734 2745 79
2735 2734 6
2735 2746 75
2735 2747 109
2736 2731 753
2737 2724 258
2737 2748 91
2738 2739 421
2738 2754 134
2738 2794 548
2739 2738 421
2739 2713 41
2740 2726 259
2740 2750 92
2741 2742 2184
2741 2757 493
2741 2821 811
2742 2741 2184
2742 2584 37
2743 2596 2365
2743 2771 206
2743 2780 476
2744 2695 1404
2745 2730 155
2745 2734 79
2745 2836 1262
2746 2735 75
2746 2747 137
2746 2833 1071
2747 2746 137
2747 2735 109
2747 2809 815
2748 2737 91
2748 2749 39
2748 2750 9
2748 2851 1279
2749 2748 39
2750 2740 92
2750 2748 9
2750 2752 63
2750 2855 1277
2751 2728 459
2751 2840 2833
2751 2844 1170
2752 2750 63
2752 2768 242
2752 2877 1477
2753 2717 580
2753 2723 1622
2753 2755 29
2753 2800 970
2754 2738 134
2754 2770 81
2755 2753 29
2755 2727 1401
2755 2766 66
2755 2804 960
2756 2731 505
2756 2791 488
2756 2792 487
2757 2741 493
2757 2760 53
2757 2761 73
2757 2764 42
2758 2716 602
2758 2788 381
2758 2796 474
2759 2708 744
2759 2703 3038
2759 2816 617
2760 2757 53
2760 2764 40
2760 2765 99
2761 2757 73
2761 2764 605
2761 11784 605
2762 2763 366
2762 2763 366
2762 2779 126
2762 2779 126
2762 11793 126
2763 2762 366
2763 2762 366
2763 2783 4319
2763 11775 4319
2764 2757 42
2764 2760 40
2764 2767 139
2764 2761 605
2764 11784 605
2765 2760 99
2765 2769 167
2766 2755 66
2766 2728 2255
2766 2787 360
2766 2808 507
2767 2764 139
2767 2772 166
2768 2752 242
2769 2765 167
2769 2770 151
2769 2773 147
2770 2769 151
2770 2754 81
2771 2720 1671
2771 2743 206
2771 2797 498
2772 2767 166
2772 2774 148
2772 2776 161
2773 2769 147
2773 2806 143
2774 2772 148
2774 2786 146
2775 2558 7184
2775 2790 462
2775 2988 3790
2776 2772 161
2776 2795 82
2777 2778 709
2777 2712 44
2778 2777 709
2778 2786 424
2778 2805 416
2779 2762 126
2779 2762 126
2779 11793 126
2779 2782 64
2779 2782 64
2780 2743 476
2780 2781 415
2780 2797 314
2781 2780 415
2781 11784 131
2782 2783 1120
2782 11780 1120
2782 2779 64
2782 2779 64
2782 2784 13
2782 3066 4660
2782 11801 4660
2782 3066 4660
2782 11801 4660
2783 2782 1120
2783 11780 1120
2783 2763 4319
2783 11775 4319
2784 2782 13
2784 2785 553
2784 11782 553
2784 2802 503
2784 3067 4658
2784 11803 4658
2785 2784 553
2785 11782 553
2785 11779 381
2786 2778 424
2786 2774 146
2787 2766 360
2787 2811 594
2787 2818 359
2788 2789 4403
2788 2758 381
2788 2796 230
2789 2788 4403
2790 2775 462
2791 2756 488
2791 2803 256
2791 2946 2386
2792 2756 487
2793 2710 1145
2793 2820 391
2793 2828 448
2794 2795 230
2794 2738 548
2794 2899 1371
2795 2794 230
2795 2776 82
2796 2788 230
2796 2758 474
2796 2843 635
2797 2771 498
2797 2780 314
2797 2813 132
2798 2799 128
2798 2831 543
2799 2798 128
2799 2801 128
2799 2807 716
2800 2753 970
2800 2836 1968
2800 3027 1968
2801 2799 128
2801 2827 437
2802 2784 503
2802 11799 726
2802 11804 726
2803 2791 256
2804 2755 960
2804 11805 1193
2805 2778 416
2805 2806 517
2805 2893 1190
2806 2805 517
2806 2773 143
2807 2656 5406
2807 2799 716
2807 2897 1251
2808 2766 507
2808 2818 312
2808 2840 360
2809 2747 815
2809 2810 12
2809 2815 45
2810 2809 12
2810 2811 25
2811 2810 25
2811 2787 594
2811 2814 32
2812 2711 1488
2812 2875 1280
2812 2941 1788
2813 2797 132
2813 2821 1677
2813 2994 3793
2813 11808 3793
2814 2811 32
2814 2815 41
2814 2825 208
2815 2809 45
2815 2814 41
2815 3044 4306
2816 2759 617
2816 2817 1397
2816 2830 254
2817 2816 1397
2818 2787 359
2818 2808 312
2818 2825 409
2819 2624 4463
2819 2868 955
2820 2793 391
2820 2826 495
2820 2828 272
2821 2741 811
2821 2813 1677
2821 3090 3942
2822 2823 175
2822 2721 1784
2823 2822 175
2823 2831 261
2823 2834 267
2824 2684 2114
2824 2826 37
2824 2854 2117
2825 2814 208
2825 2818 409
2825 2847 779
2826 2824 37
2826 2820 495
2826 2850 334
2827 2801 437
2827 2832 102
2827 2858 415
2828 2820 272
2828 2793 448
2828 2864 370
2829 2720 1703
2830 2816 254
2830 2846 299
2830 2896 683
2831 2823 261
2831 2798 543
2831 2832 9
2831 2834 21
2832 2831 9
2832 2827 102
2832 2835 23
2832 2849 243
2833 2746 1071
2833 11805 531
2834 2823 267
2834 2831 21
2834 2835 9
2834 2837 22
2835 2834 9
2835 2832 23
2835 2839 22
2835 2849 208
2836 2745 1262
2836 2800 1968
2836 3027 1968
2837 2838 490
2837 2834 22
2837 2839 9
2837 2853 227
2838 2837 490
2838 2722 1777
2839 2837 9
2839 2835 22
2839 2841 48
2839 2841 383
2840 2808 360
2840 2751 2833
2840 2847 141
2841 2839 48
2841 2852 158
2841 2839 383
2842 2706 4571
2843 2796 635
2843 2912 573
2843 3135 3879
2844 2751 1170
2844 2845 160
2844 2928 1810
2845 2844 160
2846 2830 299
2846 2895 555
2846 2918 897
2847 2825 779
2847 2840 141
2847 2928 1238
2847 3071 5224
2848 2560 5680
2848 2892 82
2849 2835 208
2849 2832 243
2849 2852 18
2849 2860 114
2850 2826 334
2850 2856 254
2850 2971 1442
2851 2748 1279
2851 2855 84
2851 2872 202
2852 2841 158
2852 2849 18
2852 2853 127
2852 2861 110
2853 2837 227
2853 2852 127
2853 2862 177
2854 2824 2117
2855 2750 1277
2855 2851 84
2855 2873 203
2856 2857 293
2856 2850 254
2856 2857 260
2857 2856 293
2857 2856 260
2857 2864 238
2858 2827 415
2858 2859 70
2858 2860 15
2858 2869 95
2859 2858 70
2860 2849 114
2860 2858 15
2860 2861 18
2860 2869 92
2861 2852 110
2861 2860 18
2861 2862 32
2861 2884 258
2862 2853 177
2862 2861 32
2862 2863 48
2862 2884 269
2863 2862 48
2863 2865 816
2863 2950 1077
2864 2857 238
2864 2828 370
2864 2959 1023
2865 2863 816
2866 2867 235
2866 11802 431
2867 2866 235
2867 2880 121
2867 2883 128
2868 2819 955
2869 2860 92
2869 2858 95
2869 2939 709
2870 2871 271
2870 2879 83
2870 2881 101
2871 2870 271
2871 11804 167
2872 2851 202
2872 2873 66
2872 2947 797
2873 2855 203
2873 2872 66
2873 2877 38
2873 2887 109
2873 2948 796
2874 2733 1776
2875 2876 35
2875 2812 1280
2875 2878 24
2876 2875 35
2877 2752 1477
2877 2873 38
2877 2882 99
2877 2887 103
2878 2875 24
2879 2870 83
2879 2880 22
2879 2881 33
2879 2906 187
2880 2879 22
2880 2867 121
2880 2883 26
2880 2907 187
2881 2870 101
2881 2879 33
2881 2886 280
2881 2886 294
2882 2877 99
2882 2888 99
2882 2898 101
2883 2880 26
2883 2867 128
2883 2900 116
2883 2907 224
2884 2862 269
2884 2861 258
2884 2940 540
2885 2886 93
2886 2885 93
2886 2881 280
2886 2881 294
2887 2877 103
2887 2873 109
2887 2894 33
2887 2898 100
2888 2882 99
2889 2890 68
2889 2904 139
2889 2906 319
2890 2889 68
2891 2892 633
2891 3287 10024
2892 2891 633
2892 2848 82
2893 2805 1190
2893 2961 813
2894 2887 33
2894 2908 114
2894 2919 213
2895 2846 555
2895 2896 502
2895 2920 703
2896 2830 683
2896 2895 502
2896 2909 140
2897 2807 1251
2897 2901 45
2897 2903 18
2898 2882 101
2898 2887 100
2898 2905 43
2899 2794 1371
2899 2964 825
2900 2883 116
2900 2922 234
2900 2935 343
2901 2902 1600
2901 2897 45
2901 2903 51
2901 2939 1318
2902 2901 1600
2903 2901 51
2903 2897 18
2903 2967 908
2904 2889 139
2904 2921 256
2904 2930 298
2905 2898 43
2906 2889 319
2906 2879 187
2906 2907 29
2906 2921 120
2907 2880 187
2907 2883 224
2907 2906 29
2907 2922 126
2908 2894 114
2908 2913 170
2908 2917 89
2909 2896 140
2909 2936 730
2909 2938 275
2910 2911 3135
2910 3194 4392
2911 2910 3135
2911 2729 79
2912 2843 573
2912 2943 62
2913 2908 170
2913 2917 79
2913 2951 477
2914 2622 4015
2914 2944 2488
2914 2980 1583
2915 2916 4993
2916 2915 4993
2917 2908 89
2917 2913 79
2917 2919 22
2918 2846 897
2918 2925 87
2918 2929 66
2919 2894 213
2919 2917 22
2919 2924 58
2919 2947 650
2920 2895 703
2920 2925 73
2920 2927 35
2921 2904 256
2921 2906 120
2921 2932 118
2922 2907 126
2922 2900 234
2922 2934 121
2923 2924 41
2924 2923 41
2924 2919 58
2924 2926 84
2925 2918 87
2925 2920 73
2925 2927 52
2925 2931 73
2926 2924 84
2927 2925 52
2927 2920 35
2927 2933 153
2928 2847 1238
2928 2844 1810
2928 2973 2065
2929 2469 8567
2929 2918 66
2929 2931 88
2929 3025 1906
2930 2904 298
2930 3001 1150
2931 2929 88
2931 2925 73
2931 2937 177
2932 2921 118
2932 11810 1029
2933 2927 153
2933 2937 75
2933 2949 309
2934 2922 121
2934 11806 997
2935 2900 343
2935 2996 979
2936 2909 730
2937 2931 177
2937 2933 75
2937 2949 246
2938 2909 275
2938 2953 423
2938 2960 849
2939 2869 709
2939 2901 1318
2939 2940 14
2939 2978 957
2940 2884 540
2940 2939 14
2940 2945 360
2940 2979 957
2941 2812 1788
2942 2465 8873
2942 3105 4129
2943 2944 829
2943 2912 62
2944 2943 829
2944 2689 3348
2944 2914 2488
2944 3116 3748
2945 2940 360
2945 2991 919
2946 2791 2386
2947 2872 797
2947 2948 49
2947 2919 650
2948 2873 796
2948 2947 49
2948 2951 25
2949 2937 246
2949 2933 309
2949 2960 362
2949 3083 2138
2950 2863 1077
2950 2992 1169
2951 2913 477
2951 2948 25
2951 2952 130
2952 2951 130
2953 2938 423
2953 2954 2121
2953 2969 448
2953 2970 370
2954 2953 2121
2955 2956 106
2955 2957 249
2955 2958 5
2956 2955 106
2957 2955 249
2958 2955 5
2958 2968 3687
2958 2977 900
2959 2864 1023
2959 2965 422
2959 3026 4794
2960 2949 362
2960 2938 849
2960 2969 667
2961 2962 290
2961 2893 813
2962 2961 290
2962 2966 142
2962 2972 452
2963 2964 299
2963 2976 417
2963 2985 481
2964 2963 299
2964 2899 825
2965 2959 422
2965 2971 274
2965 3036 2600
2966 2962 142
2966 2981 130
2967 2903 908
2967 2978 960
2967 2990 435
2968 2958 3687
2969 2960 667
2969 2953 448
2969 2970 97
2970 2953 370
2970 2969 97
2970 3103 2631
2971 2850 1442
2971 2965 274
2971 2980 1751
2972 2962 452
2972 2983 126
2973 2928 2065
2973 3019 1461
2973 3256 3762
2974 2975 81
2974 2989 767
2974 2997 1164
2975 2974 81
2976 2963 417
2976 2987 162
2977 2958 900
2977 3011 1745
2978 2939 957
2978 2967 960
2978 2979 19
2978 3018 673
2979 2940 957
2979 2978 19
2979 2991 640
2979 3020 680
2980 2914 1583
2980 2971 1751
2980 3061 2452
2980 3114 1783
2981 2982 232
2981 2966 130
2982 2981 232
2982 2984 767
2982 2985 20
2982 3002 420
2983 2984 443
2983 2972 126
2984 2983 443
2984 2982 767
2984 3021 1860
2985 2963 481
2985 2982 20
2985 3035 779
2985 3035 761
2986 2987 450
2986 3002 987
2986 3022 1852
2987 2986 450
2987 2976 162
2988 2775 3790
2988 3016 1263
2989 2974 767
2990 2967 435
2990 3023 583
2990 3032 819
2991 2945 919
2991 2979 640
2991 2992 132
2991 2993 140
2992 2950 1169
2992 2991 132
2992 2993 194
2992 3043 1709
2993 2992 194
2993 2991 140
2993 3024 372
2993 3024 408
2994 2813 3793
2994 11808 3793
2994 2995 64
2994 3005 172
2995 2996 267
2995 2994 64
2995 3000 94
2996 2995 267
2996 2935 979
2997 2998 102
2997 2999 14
2997 2974 1164
2998 2997 102
2999 2997 14
2999 3004 214
2999 3088 5140
3000 3001 230
3000 2995 94
3000 3003 27
3001 3000 230
3001 2930 1150
3002 2982 420
3002 2986 987
3002 3041 535
3003 3000 27
3003 3005 96
3003 3008 56
3004 2999 214
3005 3003 96
3005 2994 172
3005 3012 51
3006 3007 551
3006 3013 93
3006 3059 1095
3007 3006 551
3008 3003 56
3008 3015 162
3008 3068 2567
3009 3010 2547
3009 3014 115
3009 3021 369
3010 3009 2547
3011 2977 1745
3011 3066 2882
3012 3005 51
3012 11812 313
3013 3006 93
3014 3009 115
3015 3008 162
3015 11811 171
3016 2988 1263
3016 3017 846
3016 3097 1937
3017 3016 846
3018 2978 673
3018 3020 19
3018 3030 126
3018 3040 891
3019 2973 1461
3019 3052 1268
3019 3130 1377
3020 2979 680
3020 3018 19
3020 3031 123
3020 3055 903
3021 2984 1860
3021 3009 369
3021 3022 13
3021 3096 3154
3022 2986 1852
3022 3021 13
3022 3037 317
3022 3098 3164
3023 2990 583
3023 3032 135
3023 3039 363
3024 2993 372
3024 2993 408
3024 3055 473
3024 3065 637
3025 2929 1906
3026 2959 4794
3026 3027 3210
3026 3028 34
3026 3034 135
3027 3026 3210
3027 2800 1968
3027 2836 1968
3028 3026 34
3028 3029 3194
3028 3033 107
3028 3047 1037
3029 3028 3194
3029 11805 769
3030 3018 126
3030 3171 1562
3031 3020 123
3031 3172 1559
3032 2990 819
3032 3023 135
3032 3038 204
3033 3028 107
3033 3034 57
3033 3093 1849
3033 3129 3716
3034 3026 135
3034 3033 57
3034 3036 2832
3034 3124 3657
3035 2985 779
3035 2985 761
3035 3042 178
3036 2965 2600
3036 3034 2832
3036 3076 1944
3037 3022 317
3037 3057 2700
3037 3151 3193
3038 3032 204
3038 3040 200
3038 3039 579
3039 3023 363
3039 3038 579
3039 3106 871
3040 3018 891
3040 3038 200
3041 3002 535
3041 3057 196
3042 3035 178
3042 3060 198
3043 2992 1709
3044 2815 4306
3044 3048 141
3044 3050 118
3045 3046 162
3046 3045 162
3047 3028 1037
3047 3048 105
3047 3051 63
3048 3047 105
3048 3044 141
3048 3049 10
3048 3053 60
3049 3048 10
3049 3054 53
3050 3044 118
3050 3053 31
3050 3056 67
3051 3047 63
3051 3054 43
3051 3062 174
3052 3019 1268
3053 3048 60
3053 3050 31
3053 3054 55
3053 3056 48
3054 3051 43
3054 3049 53
3054 3053 55
3055 3024 473
3055 3020 903
3055 3065 185
3055 3189 1350
3056 3053 48
3056 3050 67
3056 3062 89
3057 3041 196
3057 3037 2700
3057 3060 21
3057 3091 337
3058 3059 1225
3059 3058 1225
3059 3006 1095
3059 3063 92
3059 3125 1133
3060 3042 198
3060 3057 21
3060 3086 965
3060 3092 335
3061 2980 2452
3061 3069 105
3061 3072 106
3062 3051 174
3062 3056 89
3062 3093 429
3063 3064 1046
3063 3059 92
3063 3087 250
3064 3063 1046
3065 3024 637
3065 3055 185
3065 3081 401
3066 3011 2882
3066 2782 4660
3066 11801 4660
3066 2782 4660
3066 11801 4660
3066 3067 13
3066 3169 3310
3066 3169 3310
3067 3066 13
3067 2784 4658
3067 11803 4658
3067 3068 29
3067 3170 3299
3068 3067 29
3068 3008 2567
3068 3170 3357
3069 3061 105
3069 3070 122
3069 3072 70
3069 3074 54
3070 3069 122
3070 3074 131
3070 3115 970
3071 2847 5224
3071 3094 367
3071 3261 2951
3072 3069 70
3072 3061 106
3072 3078 44
3072 3080 118
3073 2558 11051
3073 3182 1977
3073 3320 4349
3074 3070 131
3074 3069 54
3074 3075 10
3075 3074 10
3075 3078 33
3076 3036 1944
3076 3077 760
3077 3076 760
3077 3101 1246
3077 3161 1135
3078 3072 44
3078 3075 33
3078 3079 101
3078 3085 84
3079 3078 101
3079 3080 23
3079 3085 80
3080 3079 23
3080 3072 118
3080 3110 1241
3081 3082 543
3081 3065 401
3081 3102 526
3082 3081 543
3083 2949 2138
3083 3084 498
3083 3144 2034
3084 3083 498
3084 3131 1336
3085 3078 84
3085 3079 80
3085 3226 1894
3086 3060 965
3086 3090 54
3086 3108 272
3087 3063 250
3087 3089 46
3087 3128 1018
3088 3089 914
3088 2999 5140
3089 3088 914
3089 3087 46
3089 3095 447
3090 2821 3942
3090 3086 54
3090 3109 271
3091 3057 337
3091 3339 1092
3092 3060 335
3092 3337 1092
3093 3062 429
3093 3094 160
3093 3033 1849
3094 3093 160
3094 3071 367
3094 3181 1353
3095 3089 447
3095 3100 501
3095 3140 501
3096 3021 3154
3096 3185 1520
3097 3016 1937
3097 3121 422
3097 3139 1249
3098 3022 3164
3098 3178 1507
3099 3100 78
3100 3099 78
3100 3095 501
3100 3225 1712
3101 3077 1246
3101 3114 460
3101 3161 680
3102 3081 526
3102 3125 462
3102 3199 1277
3103 2970 2631
3103 3104 346
3103 3167 529
3104 3103 346
3105 2942 4129
3105 3107 1237
3105 3182 2139
3106 3039 871
3106 3133 210
3106 3134 242
3107 3105 1237
3107 3118 211
3108 3086 272
3108 3232 544
3109 3090 271
3109 3230 523
3110 3080 1241
3110 3111 330
3110 3112 445
3110 3154 369
3111 3110 330
3112 3110 445
3112 3113 306
3112 3114 439
3112 3159 373
3113 3112 306
3114 3112 439
3114 2980 1783
3114 3101 460
3114 3155 362
3115 3070 970
3115 3116 18
3115 3207 1024
3116 2944 3748
3116 3115 18
3116 3119 99
3117 3118 795
3117 3238 4214
3118 3117 795
3118 3107 211
3118 3238 1827
3119 3116 99
3119 3120 203
3119 3122 312
3120 3119 203
3120 3175 322
3121 3097 422
3121 3147 2043
3121 3187 1253
3122 3123 221
3122 3119 312
3122 3145 1389
3123 3122 221
3123 3163 307
3124 3034 3657
3124 3280 443
3125 3059 1133
3125 3102 462
3125 3128 19
3126 3127 142
3127 3126 142
3127 3165 48
3128 3087 1018
3128 3125 19
3129 3033 3716
3129 3282 442
3130 3019 1377
3130 3158 526
3130 3195 3063
3130 3219 1128
3131 3132 64
3131 3084 1336
3132 3131 64
3132 3134 56
3132 3143 155
3133 3106 210
3133 3136 68
3134 3106 242
3134 3132 56
3134 3160 628
3135 2843 3879
3135 3137 41
3135 3138 69
3136 3133 68
3136 3143 78
3136 3149 86
3137 3135 41
3137 3141 26
3137 3142 36
3138 3135 69
3138 3141 41
3138 3150 85
3139 3097 1249
3139 3183 442
3139 3303 4794
3140 3095 501
3140 3166 320
3140 3241 1160
3141 3138 41
3141 3137 26
3141 3142 20
3141 3146 46
3142 3141 20
3142 3137 36
3142 3145 75
3143 3132 155
3143 3136 78
3143 3149 70
3144 3083 2034
3144 3167 862
3144 3206 1332
3144 11851 1332
3145 3142 75
3145 3122 1389
3145 3146 81
3146 3141 46
3146 3145 81
3146 3148 51
3146 3157 67
3147 3121 2043
3147 3196 9055
3148 3146 51
3148 3150 58
3148 3152 45
3149 3143 70
3149 3136 86
3149 3204 588
3150 3138 85
3150 3148 58
3150 3151 13
3151 3150 13
3151 3037 3193
3151 3152 65
3152 3151 65
3152 3148 45
3152 3156 18
3153 3154 607
3154 3153 607
3154 3110 369
3154 3159 431
3154 3226 757
3155 3114 362
3155 3159 444
3155 3161 830
3155 3227 757
3156 3152 18
3156 3157 49
3156 3162 50
3157 3146 67
3157 3156 49
3157 3162 60
3158 3130 526
3159 3154 431
3159 3112 373
3159 3155 444
3159 3224 745
3160 3134 628
3160 3171 361
3160 3214 612
3161 3155 830
3161 3101 680
3161 3077 1135
3161 3205 503
3162 3156 50
3162 3157 60
3162 3191 477
3163 3164 299
3163 3123 307
3164 3163 299
3164 3165 282
3164 3176 110
3165 3164 282
3165 3127 48
3166 3140 320
3167 3144 862
3167 3103 529
3167 3168 196
3167 3168 205
3168 3167 196
3168 3167 205
3168 3169 95
3169 3168 95
3169 3170 20
3169 3066 3310
3169 3066 3310
3169 3267 3600
3169 3267 3600
3170 3169 20
3170 3067 3299
3170 3068 3357
3170 3268 3617
3171 3030 1562
3171 3160 361
3171 3172 15
3171 3254 859
3172 3031 1559
3172 3171 15
3172 3189 671
3172 3255 856
3173 3174 531
3173 3175 401
3173 3185 646
3173 3209 585
3174 3173 531
3175 3173 401
3175 3120 322
3176 3164 110
3176 3190 177
3176 3177 957
3177 3178 51
3177 3188 201
3177 3176 957
3178 3177 51
3178 3098 1507
3179 3180 412
3179 3192 810
3179 3198 420
3180 3179 412
3180 3210 436
3180 3272 5536
3181 3094 1353
3181 3288 1713
3181 3351 1923
3182 3073 1977
3182 3184 70
3182 3105 2139
3183 3139 442
3183 3200 503
3183 3208 362
3184 3182 70
3185 3186 249
3185 3173 646
3185 3096 1520
3186 3185 249
3186 11819 622
3187 3121 1253
3187 3197 213
3188 3177 201
3188 11818 404
3189 3055 1350
3189 3172 671
3189 3199 522
3190 3176 177
3190 11819 442
3191 3162 477
3192 3179 810
3192 3215 282
3192 3265 2995
3193 2705 6374
3193 3195 18
3194 2910 4392
3194 3658 7473
3194 4191 11333
3195 2707 6373
3195 3193 18
3195 3130 3063
3196 3147 9055
3196 3221 3508
3197 3187 213
3197 3200 98
3197 3212 304
3198 3179 420
3198 3215 552
3198 3218 259
3199 3102 1277
3199 3189 522
3199 3201 15
3200 3183 503
3200 3197 98
3200 3208 307
3201 3199 15
3201 3269 667
3201 3302 1012
3202 3203 61
3202 3261 618
3202 3276 1545
3203 3202 61
3204 3149 588
3204 3249 757
3204 3305 1090
3205 3161 503
3206 3144 1332
3206 11851 1332
3206 11850 1812
3207 3115 1024
3207 3220 573
3207 3223 652
3208 3183 362
3208 3200 307
3208 3213 163
3209 3173 585
3209 11818 370
3210 3180 436
3210 3211 6
3210 3218 607
3210 11816 607
3210 11817 607
3211 3210 6
3212 3197 304
3212 3250 862
3212 3274 980
3213 3208 163
3214 3160 612
3214 3249 462
3214 3251 325
3215 3192 282
3215 3198 552
3215 3222 88
3216 3217 15
3216 3423 2619
3217 3216 15
3217 3221 306
3217 3243 516
3218 3198 259
3218 3210 607
3218 11816 607
3218 11817 607
3218 3260 704
3219 3130 1128
3219 3299 1059
3219 3312 4335
3220 3207 573
3221 3217 306
3221 3196 3508
3221 3253 1434
3222 3215 88
3222 3259 348
3222 3262 358
3223 3207 652
3224 3159 745
3224 3226 437
3224 3227 450
3224 3443 1725
3225 3100 1712
3225 3233 109
3226 3085 1894
3226 3154 757
3226 3224 437
3227 3224 450
3227 3155 757
3227 3228 330
3227 3314 781
3228 3227 330
3229 3230 1011
3229 3231 21
3229 3234 63
3230 3229 1011
3230 3109 523
3231 3229 21
3231 3232 1029
3231 3236 48
3231 3240 67
3232 3231 1029
3232 3108 544
3233 3225 109
3233 3235 483
3233 3253 158
3234 3229 63
3234 3236 18
3234 3237 19
3235 3233 483
3235 3241 201
3236 3234 18
3236 3231 48
3236 3239 20
3236 3240 54
3237 3234 19
3237 3239 18
3237 3244 68
3238 3117 4214
3238 3118 1827
3238 3252 168
3239 3237 18
3239 3236 20
3239 3242 43
3239 3245 66
3240 3236 54
3240 3231 67
3240 3281 604
3241 3235 201
3241 3140 1160
3241 3366 1585
3242 3239 43
3242 3244 33
3242 3245 87
3242 3512 2827
3243 3217 516
3243 3263 1159
3244 3237 68
3244 3242 33
3244 3508 2807
3245 3242 87
3245 3239 66
3245 3284 607
3246 3247 81
3246 3248 2511
3246 3258 124
3247 3246 81
3248 3246 2511
3249 3214 462
3249 3204 757
3249 3251 273
3250 3212 862
3250 3275 1008
3250 3495 2861
3251 3214 325
3251 3249 273
3251 3254 216
3252 3238 168
3252 3292 1472
3252 3330 1057
3253 3233 158
3253 3221 1434
3253 3297 694
3254 3171 859
3254 3251 216
3254 3255 10
3254 3365 1436
3254 11826 1436
3255 3172 856
3255 3254 10
3255 3269 1273
3255 3362 1365
3255 11825 1365
3256 2973 3762
3256 3257 25
3256 3273 474
3257 3256 25
3257 3264 283
3257 3276 704
3258 3246 124
3258 3290 373
3258 3301 750
3259 3222 348
3259 3260 16
3259 3266 210
3260 3259 16
3260 3218 704
3260 3272 551
3261 3071 2951
3261 3202 618
3261 3288 359
3261 3323 1148
3262 3222 358
3262 3266 44
3262 3294 2236
3263 3243 1159
3264 3257 283
3264 3273 209
3264 3312 469
3265 3192 2995
3265 3270 318
3265 3289 345
3266 3262 44
3266 3259 210
3266 3272 785
3267 3169 3600
3267 3169 3600
3267 3306 728
3268 3170 3617
3268 3308 727
3269 3201 667
3269 3255 1273
3269 3302 853
3270 3271 566
3270 3265 318
3270 3298 626
3271 3270 566
3272 3260 551
3272 3180 5536
3272 3266 785
3273 3264 209
3273 3256 474
3273 3311 1203
3274 3212 980
3274 3296 310
3275 3250 1008
3275 3277 90
3275 3278 97
3276 3202 1545
3276 3257 704
3276 3312 781
3276 3393 1364
3277 3275 90
3278 3275 97
3279 3280 2489
3279 3371 2363
3280 3279 2489
3280 3124 443
3281 3240 604
3281 3335 691
3282 3283 2477
3282 3129 442
3283 3282 2477
3283 3360 2361
3284 3245 607
3284 3344 702
3285 3286 971
3286 3285 971
3286 3300 1725
3286 3341 746
3287 2629 13913
3287 2891 10024
3287 4255 7993
3288 3181 1713
3288 3261 359
3288 3293 37
3288 3351 1205
3289 3265 345
3289 3294 425
3289 3298 264
3290 3258 373
3290 3291 166
3290 3340 476
3291 3290 166
3292 3252 1472
3293 3288 37
3293 3349 33
3294 3295 337
3294 3289 425
3294 3262 2236
3294 3313 190
3295 3294 337
3296 3274 310
3296 3322 801
3296 3456 2131
3297 3253 694
3297 3304 127
3298 3270 626
3298 3289 264
3299 3219 1059
3299 3300 181
3299 3379 873
3300 3299 181
3300 3286 1725
3300 3603 2740
3301 3258 750
3301 3340 811
3301 3353 1642
3302 3201 1012
3302 3269 853
3302 3326 288
3303 3139 4794
3303 3324 402
3303 3329 464
3304 3297 127
3304 3316 232
3305 3204 1090
3305 3306 126
3305 3307 11
3305 3342 601
3305 11828 601
3305 11831 601
3306 3305 126
3306 3267 728
3307 3305 11
3307 3308 124
3307 3318 155
3307 3350 703
3308 3307 124
3308 3268 727
3309 3310 84
3309 3315 66
3309 3331 310
3310 3309 84
3310 3315 70
3310 3317 177
3311 3273 1203
3312 3276 781
3312 3264 469
3312 3355 523
3312 3219 4335
3313 3294 190
3314 3227 781
3315 3310 70
3315 3309 66
3315 3319 89
3316 3304 232
3316 3317 77
3316 3325 308
3317 3316 77
3317 3310 177
3317 3319 91
3318 3307 155
3318 3346 446
3318 3347 354
3318 11846 354
3319 3317 91
3319 3315 89
3319 3325 175
3320 3073 4349
3320 3321 240
3320 3383 1879
3321 3320 240
3321 3324 155
3322 3296 801
3322 3466 2167
3323 3261 1148
3323 3332 97
3323 3356 285
3324 3321 155
3324 3303 402
3324 3329 92
3325 3316 308
3325 3319 175
3325 3331 188
3326 3302 288
3326 3366 1231
3326 3392 437
3327 3328 33
3327 3378 391
3327 3361 1436
3328 3327 33
3328 11823 274
3329 3324 92
3329 3303 464
3329 3521 1466
3330 3252 1057
3330 3384 486
3331 3309 310
3331 3325 188
3331 3376 439
3332 3323 97
3333 3334 238
3333 3348 103
3333 3377 388
3334 3333 238
3335 3336 1480
3335 3281 691
3336 3335 1480
3336 3337 1333
3336 3338 6
3336 3343 31
3337 3336 1333
3337 3092 1092
3338 3336 6
3338 3339 1337
3338 3345 31
3338 3358 454
3339 3338 1337
3339 3091 1092
3340 3301 811
3340 3290 476
3340 7311 13555
3341 3286 746
3342 3305 601
3342 11828 601
3342 11831 601
3342 11835 33
3343 3344 1474
3343 3336 31
3343 3345 7
3343 3951 7040
3343 11938 7040
3343 11949 7040
3343 11950 7040
3344 3343 1474
3344 3284 702
3345 3343 7
3345 3338 31
3345 3359 424
3345 3957 7051
3345 11940 7051
3345 11953 7051
3346 3318 446
3346 11836 35
3347 3318 354
3347 11846 354
3347 3374 178
3348 3349 599
3348 3333 103
3348 3363 191
3349 3348 599
3349 3293 33
3350 3307 703
3350 3352 39
3350 3465 1511
3351 3181 1923
3351 3288 1205
3351 3389 285
3352 3350 39
3352 3436 1033
3352 11854 1033
3352 3444 941
3352 11862 941
3352 3550 2712
3353 3354 75
3353 3301 1642
3353 3453 802
3354 3353 75
3354 3357 229
3354 3364 207
3355 3312 523
3355 3396 1083
3355 3415 1398
3356 3323 285
3356 3377 297
3356 3406 360
3357 2732 11495
3357 3354 229
3357 3364 79
3358 3338 454
3359 3345 424
3360 3361 322
3360 3283 2361
3361 3360 322
3361 3405 668
3361 3327 1436
3362 3255 1365
3362 11825 1365
3362 3386 251
3363 3348 191
3363 3367 282
3363 3381 168
3364 3357 79
3364 3354 207
3364 3375 124
3365 3254 1436
3365 11826 1436
3365 3394 261
3366 3241 1585
3366 3326 1231
3366 3376 125
3367 3363 282
3367 3368 20
3368 3369 5
3368 3367 20
3369 3368 5
3369 3389 1138
3369 3413 690
3370 3371 482
3370 3382 835
3370 3398 499
3371 3370 482
3371 3279 2363
3372 3373 271
3372 11836 16
3373 3372 271
3373 3374 53
3373 3394 160
3374 3373 53
3374 3347 178
3375 3364 124
3375 3428 479
3375 3437 394
3376 3331 439
3376 3366 125
3376 3434 978
3377 3333 388
3377 3356 297
3377 3380 81
3377 3399 182
3378 3327 391
3378 3421 231
3379 3299 873
3379 3567 1957
3379 3608 1684
3380 3377 81
3380 3381 31
3380 3390 31
3381 3363 168
3381 3380 31
3381 3388 25
3382 3370 835
3382 3395 512
3382 11822 277
3383 3320 1879
3383 3397 189
3383 3534 1120
3384 3330 486
3384 3385 12
3384 3709 8478
3385 3384 12
3385 3600 2878
3386 3387 76
3386 3362 251
3386 3414 224
3387 3386 76
3387 11848 238
3388 3381 25
3388 3391 31
3388 3416 261
3389 3351 285
3389 3369 1138
3389 3433 278
3390 3380 31
3390 3391 5
3391 3390 5
3391 3388 31
3391 3435 345
3392 3326 437
3392 3447 516
3392 3497 845
3393 3276 1364
3393 3400 136
3393 3415 149
3394 3365 261
3394 3373 160
3394 3412 134
3395 3382 512
3395 11857 122
3396 3355 1083
3397 3383 189
3398 3370 499
3398 11857 229
3399 3377 182
3400 3401 90
3400 3393 136
3400 3427 171
3401 3400 90
3402 3403 167
3402 3404 166
3402 3524 1199
3403 3402 167
3403 11838 219
3404 3402 166
3404 11842 208
3405 3361 668
3405 11859 269
3406 3356 360
3406 3425 82
3406 3435 363
3407 3408 181
3407 11845 186
3408 3407 181
3408 3409 89
3408 3525 1179
3409 3408 89
3409 11848 397
3410 3411 36
3411 3410 36
3411 3493 666
3411 3493 1011
3412 3394 134
3412 3424 100
3413 3369 690
3414 3386 224
3414 3426 91
3415 3393 149
3415 3355 1398
3415 3427 78
3416 3388 261
3416 3479 37
3417 3418 334
3417 11859 97
3418 3417 334
3418 3419 244
3418 3442 301
3419 3418 244
3419 11859 185
3420 3421 429
3420 3422 402
3420 3438 251
3421 3420 429
3421 3378 231
3422 3420 402
3422 11857 130
3423 3216 2619
3423 3429 652
3423 3434 2153
3424 3412 100
3424 3458 2795
3424 3475 2795
3424 3663 2795
3424 3677 2795
3425 3406 82
3425 3445 354
3425 3446 213
3426 3414 91
3426 3499 2806
3426 3502 2806
3426 3668 2806
3427 3400 171
3427 3415 78
3427 3462 403
3428 3375 479
3428 3437 447
3428 3448 457
3429 3423 652
3430 3431 745
3430 3432 5
3430 3440 4049
3431 3430 745
3432 3430 5
3432 3439 336
3432 3548 2088
3433 3389 278
3433 3478 476
3433 4801 8316
3434 3376 978
3434 3423 2153
3434 3585 2325
3435 3391 345
3435 3406 363
3435 3445 74
3436 3352 1033
3436 11854 1033
3436 3471 294
3436 11863 294
3437 3375 394
3437 3428 447
3437 3453 153
3438 3420 251
3438 11897 2330
3439 3432 336
3440 3441 817
3440 3430 4049
3440 3443 1815
3440 3584 1415
3441 3440 817
3442 3418 301
3442 11898 2327
3443 3224 1725
3443 3440 1815
3443 3619 1318
3444 3352 941
3444 11862 941
3444 3460 221
3444 11861 162
3445 3435 74
3445 3425 354
3445 3464 203
3446 3425 213
3446 3464 332
3446 3477 427
3447 3392 516
3447 3455 126
3447 3461 139
3448 3449 465
3448 3428 457
3448 3481 303
3449 3448 465
3450 3451 13
3450 3454 18
3450 3489 502
3451 3450 13
3451 3452 18
3452 3451 18
3452 3454 15
3452 3640 1613
3453 3437 153
3453 3353 802
3453 3588 1022
3454 3450 18
3454 3452 15
3454 3490 501
3454 3641 1612
3455 3447 126
3455 3457 272
3456 3296 2131
3457 3455 272
3458 3459 438
3458 3424 2795
3458 3475 2795
3458 3663 2795
3458 3677 2795
3459 3458 438
3459 3460 106
3459 3467 75
3460 3444 221
3460 3459 106
3460 3467 61
3461 3447 139
3461 3463 31
3461 3473 155
3462 3427 403
3462 3477 97
3462 3480 174
3463 3461 31
3464 3445 203
3464 3446 332
3464 3483 447
3464 3526 616
3465 3350 1511
3465 3542 1186
3466 3322 2167
3466 3472 19
3466 3472 19
3467 3459 75
3467 3460 61
3467 3468 10
3467 3470 18
3468 3469 58
3468 3467 10
3468 3474 18
3468 3476 52
3469 3468 58
3469 3475 436
3469 3476 87
3470 3467 18
3470 3471 155
3470 3474 11
3471 3470 155
3471 3436 294
3471 11863 294
3472 3466 19
3472 3466 19
3472 3529 2307
3472 3580 875
3473 3461 155
3473 3482 123
3473 3556 2059
3474 3468 18
3474 3470 11
3474 3502 826
3475 3469 436
3475 3424 2795
3475 3458 2795
3475 3663 2795
3475 3677 2795
3476 3469 87
3476 3468 52
3476 3499 781
3477 3446 427
3477 3462 97
3477 3480 110
3477 3526 358
3478 3433 476
3478 3479 905
3478 3484 159
3479 3478 905
3479 3416 37
3480 3477 110
3480 3462 174
3480 3514 372
3481 3448 303
3482 3473 123
3482 3505 241
3482 3539 589
3483 3464 447
3483 3576 30
3484 3478 159
3485 3486 105
3485 3521 548
3485 3561 604
3486 3485 105
3487 3488 239
3487 3516 4045
3487 11872 4045
3487 11878 4045
3488 3487 239
3488 3494 394
3488 3506 1441
3488 11869 1441
3488 11871 1441
3489 3450 502
3489 3490 18
3489 3570 770
3490 3489 18
3490 3454 501
3490 3501 112
3490 3503 179
3491 3492 222
3491 3500 431
3491 3517 1329
3491 11874 1329
3491 11875 1329
3492 3491 222
3492 3496 938
3492 3498 652
3493 3411 666
3493 3411 1011
3493 3546 353
3494 3488 394
3494 3498 33
3494 3498 33
3494 3504 441
3495 3250 2861
3495 3529 214
3496 3492 938
3496 3517 180
3496 3547 690
3497 3392 845
3497 3524 897
3497 3563 451
3498 3492 652
3498 3494 33
3498 3494 33
3498 3500 17
3498 3500 17
3498 3519 647
3499 3476 781
3499 3426 2806
3499 3502 2806
3499 3668 2806
3500 3491 431
3500 3498 17
3500 3498 17
3500 3518 422
3501 3490 112
3501 3577 568
3501 3598 1096
3502 3474 826
3502 3426 2806
3502 3499 2806
3502 3668 2806
3503 3490 179
3503 3523 107
3503 3572 591
3504 3494 441
3504 3516 181
3504 3536 1225
3505 3482 241
3506 3488 1441
3506 11869 1441
3506 11871 1441
3506 3507 189
3506 3540 468
3507 3506 189
3507 3613 1636
3507 11872 1636
3507 11881 1636
3508 3244 2807
3508 3512 20
3508 3513 17
3509 3510 435
3509 3511 1210
3509 3541 827
3510 3509 435
3511 3509 1210
3512 3508 20
3512 3242 2827
3512 3515 17
3512 3544 1176
3513 3508 17
3513 3515 17
3513 3520 47
3514 3480 372
3514 3552 469
3514 3560 313
3515 3513 17
3515 3512 17
3515 3522 50
3515 3549 1187
3516 3504 181
3516 3487 4045
3516 11872 4045
3516 11878 4045
3517 3496 180
3517 3491 1329
3517 11874 1329
3517 11875 1329
3517 3554 507
3518 3500 422
3518 3519 227
3518 3538 1236
3519 3518 227
3519 3498 647
3519 3537 1013
3520 3513 47
3520 3694 2234
3521 3329 1466
3521 3527 74
3521 3485 548
3522 3515 50
3522 3697 2237
3523 3503 107
3523 3582 635
3523 3689 2188
3524 3497 897
3524 3402 1199
3524 3525 12
3524 3568 500
3525 3524 12
3525 3408 1179
3525 3542 309
3525 3569 503
3526 3464 616
3526 3477 358
3526 3560 616
3526 4591 6084
3527 3521 74
3527 3528 18
3527 3530 22
3528 3527 18
3528 3530 19
3528 3533 619
3529 3495 214
3529 3472 2307
3529 3595 1823
3530 3527 22
3530 3528 19
3530 3559 231
3531 3532 765
3532 3531 765
3533 3528 619
3534 3535 413
3534 3383 1120
3534 3600 1421
3535 3534 413
3536 3504 1225
3536 3537 38
3536 3553 350
3537 3519 1013
3537 3536 38
3537 3538 13
3537 3557 310
3538 3518 1236
3538 3537 13
3538 3543 112
3539 3482 589
3540 3506 468
3540 3547 38
3540 3612 812
3541 3509 827
3541 3553 131
3541 3566 344
3542 3525 309
3542 3465 1186
3542 3550 40
3542 3591 461
3543 3538 112
3543 3558 172
3543 3558 197
3544 3512 1176
3544 3545 1054
3544 3546 18
3544 3549 15
3545 3544 1054
3546 3544 18
3546 3493 353
3546 3551 15
3546 3579 1092
3547 3540 38
3547 3496 690
3547 3554 13
3547 3607 659
3548 3432 2088
3548 3555 353
3548 3587 394
3549 3515 1187
3549 3544 15
3549 3551 17
3549 3614 506
3550 3542 40
3550 3352 2712
3550 3964 3181
3551 3549 17
3551 3546 15
3551 3583 1094
3551 3615 507
3552 3514 469
3552 3560 357
3552 3676 1553
3553 3536 350
3553 3541 131
3553 3557 50
3553 3566 389
3554 3547 13
3554 3517 507
3554 3621 825
3554 3679 976
3555 3548 353
3556 3473 2059
3557 3537 310
3557 3553 50
3557 3558 34
3557 3660 2211
3557 11882 2211
3557 11884 2211
3558 3543 172
3558 3557 34
3558 3543 197
3558 3578 549
3559 3530 231
3560 3514 313
3560 3552 357
3560 3526 616
3560 3967 2882
3561 3485 604
3561 3562 472
3561 3605 390
3562 3561 472
3563 3497 451
3563 3568 356
3563 3606 329
3564 3565 313
3564 3592 180
3564 3705 1182
3565 3564 313
3566 3553 389
3566 3541 344
3566 3571 97
3567 3379 1957
3567 3608 1829
3567 3634 1340
3567 3642 770
3568 3563 356
3568 3524 500
3568 3569 9
3568 3606 453
3569 3568 9
3569 3525 503
3569 3591 320
3569 3609 479
3570 3489 770
3570 3939 3979
3571 3566 97
3572 3503 591
3572 3638 749
3573 3574 1339
3573 3616 362
3574 3573 1339
3575 3576 1929
3576 3575 1929
3576 3483 30
3577 3501 568
3577 3582 67
3577 3597 152
3578 3558 549
3579 3546 1092
3580 3472 875
3580 3581 6
3580 3581 6
3580 3595 845
3581 3580 6
3581 3580 6
3581 3671 2501
3582 3523 635
3582 3577 67
3582 3599 174
3582 3601 153
3583 3551 1094
3584 3440 1415
3584 3721 1330
3584 3798 2942
3585 3586 1098
3585 3434 2325
3585 3629 604
3586 3585 1098
3587 3548 394
3587 3589 71
3587 3596 88
3588 3453 1022
3589 3587 71
3589 3590 120
3589 3628 336
3590 3589 120
3591 3569 320
3591 3542 461
3591 3654 580
3592 3564 180
3592 3610 144
3592 3618 562
3593 3594 244
3593 3602 277
3593 3602 613
3594 3593 244
3594 3625 473
3594 3632 280
3595 3580 845
3595 3529 1823
3596 3587 88
3597 3577 152
3597 3601 53
3597 3627 249
3598 3501 1096
3598 3627 389
3598 3675 601
3599 3582 174
3600 3385 2878
3600 3534 1421
3600 3718 821
3601 3582 153
3601 3597 53
3601 3633 245
3602 3593 277
3602 3593 613
3602 3618 641
3602 3653 330
3603 3300 2740
3603 3604 323
3603 3608 449
3603 3818 1558
3604 3603 323
3605 3561 390
3605 3611 407
3605 3657 438
3606 3563 329
3606 3568 453
3606 3609 28
3606 3772 1646
3607 3547 659
3607 3621 169
3607 3651 435
3608 3567 1829
3608 3379 1684
3608 3603 449
3608 3856 1500
3609 3606 28
3609 3569 479
3609 3617 75
3609 3779 1625
3610 3592 144
3611 3605 407
3612 3540 812
3612 3613 99
3612 3662 529
3613 3612 99
3613 3507 1636
3613 11872 1636
3613 11881 1636
3614 3549 506
3615 3551 507
3616 3573 362
3616 3646 366
3616 11886 366
3616 3659 255
3617 3609 75
3617 3654 393
3617 3863 1998
3618 3602 641
3618 3592 562
3618 3674 378
3619 3443 1318
3619 3622 16
3619 3635 547
3620 3683 676
3621 3607 169
3621 3554 825
3621 3647 187
3622 3619 16
3622 3637 113
3622 5680 14961
3623 3624 121
3623 3626 171
3623 3628 40
3624 3623 121
3625 3594 473
3625 3630 107
3625 3632 204
3626 3623 171
3627 3597 249
3627 3598 389
3627 3633 78
3627 3682 432
3628 3623 40
3628 3589 336
3628 3686 1723
3629 3585 604
3629 3631 6
3630 3625 107
3630 3679 999
3630 3807 1174
3631 3629 6
3631 3670 760
3631 3710 658
3632 3625 204
3632 3594 280
3632 3653 543
3633 3601 245
3633 3627 78
3633 3688 437
3634 3567 1340
3634 3642 627
3634 3676 1755
3635 3636 700
3635 3619 547
3635 3956 5072
3636 3635 700
3637 3622 113
3637 3639 171
3637 4381 5079
3638 3572 749
3638 3765 830
3638 3944 3236
3639 3637 171
3640 3452 1613
3640 3641 10
3640 3643 47
3641 3454 1612
3641 3640 10
3641 3648 41
3642 3567 770
3642 3634 627
3642 3706 621
3642 3792 1612
3643 3640 47
3643 3644 751
3643 3649 33
3644 3643 751
3645 3646 138
3646 3645 138
3646 3616 366
3646 11886 366
3646 3665 363
3647 3621 187
3647 3684 369
3647 3692 624
3648 3641 41
3648 3652 47
3648 3675 300
3649 3643 33
3649 3650 13
3649 3811 1309
3650 3649 13
3650 3652 5
3651 3607 435
3651 11896 484
3652 3650 5
3652 3648 47
3652 3815 1313
3653 3632 543
3653 3602 330
3653 3674 471
3654 3617 393
3654 3591 580
3654 3960 2144
3655 3656 477
3656 3655 477
3656 3661 58
3656 3695 363
3657 3605 438
3657 3685 498
3657 4126 3430
3658 3194 7473
3658 3709 5227
3658 4736 7938
3659 3616 255
3659 3665 36
3660 3557 2211
3660 11882 2211
3660 11884 2211
3660 3693 531
3660 3701 577
3661 3656 58
3661 3969 2640
3662 3612 529
3662 3678 310
3662 3681 288
3663 3664 210
3663 3666 208
3663 3424 2795
3663 3458 2795
3663 3475 2795
3663 3677 2795
3664 3663 210
3664 11894 216
3665 3646 363
3665 3659 36
3665 3673 79
3666 3663 208
3666 11900 261
3667 3668 193
3667 3669 13
3667 3691 213
3668 3667 193
3668 3426 2806
3668 3499 2806
3668 3502 2806
3669 3667 13
3669 11893 5
3670 3631 760
3670 3671 754
3671 3581 2501
3671 3670 754
3672 3673 197
3672 11887 2631
3672 11931 2631
3673 3672 197
3673 3665 79
3673 3694 393
3674 3653 471
3674 3618 378
3674 3705 995
3675 3598 601
3675 3648 300
3675 3704 427
3676 3552 1553
3676 3634 1755
3676 3792 985
3677 3678 399
3677 3424 2795
3677 3458 2795
3677 3475 2795
3677 3663 2795
3678 3677 399
3678 3662 310
3678 3680 53
3679 3554 976
3679 3630 999
3679 3684 977
3679 3736 830
3679 3784 575
3680 3678 53
3680 3681 58
3680 3687 48
3681 3680 58
3681 3662 288
3681 3692 62
3682 3627 432
3682 3688 49
3682 3702 155
3683 3620 676
3683 3719 676
3683 3724 315
3684 3647 369
3684 3679 977
3684 3736 395
3685 3657 498
3686 3628 1723
3686 3836 2434
3687 3680 48
3687 3690 23
3687 3691 107
3688 3633 437
3688 3682 49
3688 3795 839
3689 3523 2188
3690 3687 23
3690 3698 50
3690 3700 117
3691 3667 213
3691 3687 107
3691 3695 30
3692 3681 62
3692 3647 624
3692 3696 21
3693 3660 531
3693 11928 1688
3694 3673 393
3694 3520 2234
3694 3701 59
3695 3656 363
3695 3691 30
3695 3700 43
3696 3692 21
3696 3699 34
3696 3763 443
3697 3522 2237
3697 3913 1746
3698 3690 50
3698 3699 62
3698 3730 517
3699 3696 34
3699 3698 62
3699 3768 440
3700 3695 43
3700 3690 117
3700 3722 356
3701 3660 577
3701 3694 59
3701 3912 1695
3702 3682 155
3702 3703 5
3702 3707 30
3703 3702 5
3703 3704 30
3704 3703 30
3704 3675 427
3704 3708 22
3705 3674 995
3705 3564 1182
3705 3711 97
3706 3642 621
3707 3702 30
3707 3713 34
3707 3729 282
3708 3704 22
3708 3713 38
3708 3714 40
3708 3715 34
3708 3717 37
3709 3384 8478
3709 3658 5227
3709 4073 3281
3710 3631 658
3710 3723 733
3710 3739 221
3711 3705 97
3711 3712 144
3711 3725 418
3712 3711 144
3713 3707 34
3713 3708 38
3713 3756 236
3714 3708 40
3714 3715 15
3714 3716 11
3715 3708 34
3715 3714 15
3715 3717 11
3715 3720 49
3716 3714 11
3716 3734 32
3717 3708 37
3717 3715 11
3717 3726 92
3718 3600 821
3718 3749 179
3718 3917 1813
3719 3683 676
3719 3724 201
3719 3733 570
3720 3715 49
3720 3744 37
3721 3584 1330
3721 3731 148
3721 3781 290
3722 3700 356
3722 3751 264
3722 3810 786
3723 3710 733
3724 3683 315
3724 3719 201
3724 3953 2451
3725 3711 418
3725 3785 460
3726 3717 92
3726 3759 42
3727 3728 48
3727 3771 966
3728 3727 48
3728 3729 39
3728 3737 30
3729 3728 39
3729 3707 282
3729 3732 113
3730 3698 517
3730 3748 165
3730 3819 727
3731 3721 148
3732 3729 113
3732 3750 384
3733 3719 570
3734 3735 345
3734 3716 32
3735 3734 345
3735 3753 116
3735 3947 1988
3736 3684 395
3736 3679 830
3736 3831 661
3736 3851 759
3737 3738 49
3737 3728 30
3737 3740 31
3738 3737 49
3738 3774 969
3739 3710 221
3739 3870 1201
3740 3737 31
3740 3741 118
3740 3756 219
3741 3740 118
3741 3758 322
3742 3743 246
3743 3742 246
3743 3746 16
3743 3765 269
3744 3745 165
3744 3720 37
3745 3744 165
3745 3750 64
3745 3757 50
3746 3743 16
3746 3910 1494
3747 3748 260
3747 11912 50
3748 3747 260
3748 3730 165
3748 3817 569
3749 3718 179
3750 3745 64
3750 3753 58
3750 3754 56
3750 3732 384
3751 3722 264
3751 3752 317
3751 3814 517
3752 3751 317
3752 11910 145
3753 3750 58
3753 3735 116
3753 3754 6
3753 3755 91
3754 3750 56
3754 3753 6
3754 3764 126
3754 3767 38
3755 3753 91
3755 11897 455
3756 3740 219
3756 3713 236
3756 3761 41
3757 3758 9
3757 3745 50
3757 3762 16
3757 3767 98
3758 3757 9
3758 3741 322
3759 3760 102
3759 3726 42
3760 3759 102
3760 3762 179
3760 3761 19
3761 3756 41
3761 3760 19
3762 3760 179
3762 3757 16
3762 3769 92
3762 3780 37
3763 3696 443
3763 11909 1320
3763 11929 1320
3764 3754 126
3764 11915 25
3765 3638 830
3765 3766 460
3765 3773 29
3765 3743 269
3766 3765 460
3766 3794 880
3767 3757 98
3767 3754 38
3767 3769 18
3767 3788 262
3768 3699 440
3768 11911 1310
3768 11930 1310
3769 3762 92
3769 3767 18
3769 3780 113
3769 3838 508
3770 3771 624
3770 3782 56
3771 3770 624
3771 3727 966
3772 3606 1646
3772 3941 1546
3773 3765 29
3773 3782 39
3774 3775 598
3774 3738 969
3775 3774 598
3775 3776 3
3776 3775 3
3776 3783 78
3777 3778 477
3777 3795 472
3777 3799 261
3778 3777 477
3779 3609 1625
3779 3943 1539
3780 3762 37
3780 3769 113
3780 3787 103
3781 3721 290
3782 3773 39
3782 3770 56
3782 3783 25
3782 3867 788
3783 3782 25
3783 3776 78
3783 3868 766
3783 3873 769
3784 3679 575
3784 3851 518
3784 3861 575
3785 3725 460
3785 3786 108
3785 3912 1720
3785 3950 1364
3786 3785 108
3787 3780 103
3787 3791 60
3788 3767 262
3788 3803 131
3789 3790 24
3789 11920 143
3790 3789 24
3790 11919 108
3791 3787 60
3791 3860 563
3792 3676 985
3792 3642 1612
3792 3793 12
3792 3967 2374
3793 3792 12
3793 3844 334
3793 3882 661
3794 3766 880
3794 3799 88
3794 3834 713
3795 3688 839
3795 3777 472
3795 3808 125
3796 3797 24
3796 3839 123
3797 3796 24
3797 11921 122
3798 3584 2942
3798 3806 692
3798 3835 161
3799 3794 88
3799 3777 261
3799 3855 386
3800 3801 93
3800 11919 111
3801 3800 93
3801 3802 103
3801 3816 272
3802 3801 103
3802 11921 99
3803 3788 131
3803 11925 71
3804 3805 174
3804 11927 290
3805 3804 174
3805 11915 322
3805 11917 370
3806 3798 692
3807 3630 1174
3808 3795 125
3808 3809 76
3808 3824 116
3808 4003 1857
3809 3808 76
3810 3722 786
3810 3814 16
3810 3886 701
3811 3649 1309
3811 3812 33
3811 3815 24
3812 3811 33
3812 3813 234
3812 3820 25
3813 3812 234
3814 3810 16
3814 3751 517
3814 3817 15
3814 3872 594
3815 3652 1313
3815 3811 24
3815 3821 23
3816 3801 272
3816 3829 134
3817 3814 15
3817 3748 569
3817 3819 14
3817 3888 704
3818 3603 1558
3818 3837 87
3818 3894 824
3819 3817 14
3819 3730 727
3819 3896 771
3820 3812 25
3820 3825 21
3820 3871 513
3821 3815 23
3821 3827 16
3821 3846 196
3822 3823 21
3822 3824 203
3823 3822 21
3823 3826 6
3824 3822 203
3824 3808 116
3824 3828 200
3825 3820 21
3825 3827 10
3825 3871 508
3826 3823 6
3826 3833 9
3826 3884 764
3827 3821 16
3827 3825 10
3828 3824 200
3828 3832 6
3829 3830 89
3829 3816 134
3830 3829 89
3830 11942 1567
3831 3736 661
3831 3848 199
3832 3828 6
3832 3833 13
3832 3849 164
3833 3826 9
3833 3832 13
3833 3850 164
3834 3794 713
3835 3798 161
3835 3836 7
3835 3892 981
3836 3835 7
3836 3686 2434
3837 3818 87
3837 3856 251
3837 3893 568
3838 3769 508
3838 3839 133
3838 3857 297
3839 3838 133
3839 3796 123
3840 3841 331
3840 3848 148
3840 3865 340
3841 3840 331
3841 3845 375
3842 3843 145
3842 4179 3948
3842 4508 5606
3843 3842 145
3844 3793 334
3844 3878 448
3844 3880 354
3845 3841 375
3845 3859 184
3845 3865 317
3846 3847 435
3846 3821 196
3846 3926 896
3847 3846 435
3848 3840 148
3848 3831 199
3848 3881 328
3849 3832 164
3849 3850 13
3849 3862 305
3850 3849 13
3850 3833 164
3850 3879 377
3851 3736 759
3851 3784 518
3851 3895 406
3852 3853 281
3852 11922 86
3853 3852 281
3853 3854 180
3853 3903 620
3854 3853 180
3854 11925 141
3854 11924 146
3855 3799 386
3855 3876 526
3856 3608 1500
3856 3837 251
3856 3891 291
3856 4025 1416
3857 3838 297
3857 3858 342
3857 3904 541
3858 3857 342
3858 11920 111
3859 3845 184
3859 3874 202
3859 3883 359
3860 3791 563
3860 3911 467
3861 3784 575
3861 3895 488
3861 3932 712
3862 3849 305
3862 3869 108
3862 3887 205
3863 3617 1998
3863 3866 12
3863 3889 280
3864 2447 18989
3864 4360 4165
3865 3845 317
3865 3840 340
3865 3881 208
3865 3883 163
3866 3863 12
3866 3890 280
3866 3952 944
3867 3782 788
3867 3868 12
3867 3928 706
3868 3867 12
3868 3783 766
3868 3873 114
3868 3927 692
3869 3862 108
3869 3879 388
3869 3900 250
3870 3739 1201
3870 3877 406
3870 3998 3618
3871 3825 508
3871 3820 513
3871 3914 416
3872 3814 594
3872 3886 107
3872 4428 3058
3872 11974 3058
3873 3868 114
3873 3783 769
3873 3901 255
3873 3908 335
3874 3875 157
3874 3859 202
3874 3905 408
3875 3874 157
3876 3855 526
3876 3968 1310
3876 3991 1219
3877 3870 406
3878 3844 448
3878 3990 1433
3879 3850 377
3879 3869 388
3880 3844 354
3881 3865 208
3881 3848 328
3881 3918 356
3882 3793 661
3883 3859 359
3883 3865 163
3883 3905 172
3884 3885 98
3884 3826 764
3884 3902 148
3885 3884 98
3886 3810 701
3886 3872 107
3886 4400 2867
3886 11979 2867
3886 11980 2867
3886 11992 2867
3887 3862 205
3887 3907 359
3888 3817 704
3888 3896 69
3888 4111 1733
3889 3863 280
3889 3958 203
3890 3866 280
3890 3966 205
3891 3856 291
3892 3835 981
3893 3837 568
3894 3818 824
3895 3851 406
3895 3861 488
3895 3933 672
3896 3888 69
3896 3819 771
3896 4132 1741
3897 3898 238
3898 3897 238
3898 3899 424
3898 3935 400
3899 3898 424
3900 3869 250
3901 3873 255
3901 3922 488
3901 3927 477
3902 3884 148
3902 3907 381
3902 3925 329
3903 3853 620
3903 3973 181
3904 3857 541
3904 3978 186
3905 3874 408
3905 3883 172
3905 3918 258
3906 3907 0
3907 3906 0
3907 3887 359
3907 3902 381
3907 4031 1285
3908 3873 335
3908 3929 347
3909 3910 368
3910 3909 368
3910 3746 1494
3910 3931 241
3910 3937 443
3911 3860 467
3911 3938 253
3912 3785 1720
3912 3701 1695
3912 3913 19
3912 3916 18
3912 4058 1157
3913 3912 19
3913 3697 1746
3913 3916 6
3913 4048 1257
3914 3871 416
3914 3915 331
3914 3926 134
3915 3914 331
3916 3912 18
3916 3913 6
3916 3923 71
3916 3924 71
3917 3718 1813
3917 3955 303
3918 3905 258
3918 3881 356
3918 4133 1071
3919 3920 161
3920 3919 161
3920 3921 132
3920 3925 51
3920 3930 80
3921 3920 132
3922 3901 488
3922 3934 584
3922 4483 3679
3923 3916 71
3923 3924 108
3923 4051 1185
3924 3916 71
3924 3923 108
3924 4064 1094
3925 3902 329
3925 3920 51
3926 3846 896
3926 3914 134
3926 3946 244
3926 3947 173
3927 3868 692
3927 3901 477
3927 3928 18
3927 4223 1501
3928 3867 706
3928 3927 18
3928 4000 598
3929 3908 347
3929 3968 391
3930 3920 80
3930 3938 101
3930 3963 292
3931 3910 241
3932 3861 712
3933 3895 672
3933 11930 1321
3933 11961 1321
3934 3922 584
3935 3898 400
3936 3937 327
3937 3936 327
3937 3910 443
3937 3976 288
3937 3982 633
3938 3930 101
3938 3911 253
3938 3942 21
3938 3972 490
3939 3570 3979
3939 3940 21
3939 3944 17
3940 3939 21
3940 3945 16
3940 3980 1818
3941 3772 1546
3941 3943 11
3941 3953 416
3941 4007 586
3942 3938 21
3942 3948 83
3942 4265 1360
3943 3941 11
3943 3779 1539
3943 3952 233
3943 4004 551
3944 3939 17
3944 3638 3236
3944 3945 20
3944 3983 334
3945 3940 16
3945 3944 20
3945 3979 1310
3945 3986 337
3946 3926 244
3947 3735 1988
3947 3926 173
3947 4265 2580
3947 5378 5800
3948 3942 83
3948 3961 95
3948 3970 150
3949 3950 235
3950 3949 235
3950 3785 1364
3950 4022 570
3951 3343 7040
3951 11938 7040
3951 11949 7040
3951 11950 7040
3951 4036 1008
3952 3943 233
3952 3866 944
3952 4004 582
3953 3954 500
3953 3724 2451
3953 3941 416
3954 3953 500
3955 3917 303
3955 4245 1507
3956 3635 5072
3956 4021 979
3956 4068 882
3957 3345 7051
3957 11940 7051
3957 11953 7051
3957 4040 983
3958 3959 889
3958 3889 203
3959 3958 889
3959 3960 7
3959 3965 15
3960 3959 7
3960 3654 2144
3960 3964 22
3961 3962 24
3961 3948 95
3961 3970 80
3962 3961 24
3962 3963 22
3963 3930 292
3963 3962 22
3963 3971 50
3964 3960 22
3964 3550 3181
3964 4008 942
3965 3966 892
3965 3959 15
3965 4012 980
3965 4030 560
3966 3965 892
3966 3890 205
3967 3560 2882
3967 3792 2374
3967 4013 1352
3967 4054 1474
3968 3929 391
3968 3876 1310
3968 3991 524
3968 4472 2234
3969 3661 2640
3969 4144 1089
3970 3961 80
3970 3948 150
3970 3975 56
3971 3963 50
3972 3938 490
3973 3974 483
3973 3903 181
3974 3973 483
3974 3994 161
3975 3970 56
3975 4165 1148
3976 3937 288
3977 3978 480
3977 4006 248
3978 3977 480
3978 3904 186
3979 3945 1310
3979 3981 515
3979 4047 409
3980 3940 1818
3980 3981 17
3980 4174 1672
3981 3980 17
3981 3979 515
3981 4039 362
3981 4141 1508
3982 3937 633
3982 3985 51
3982 3987 48
3983 3944 334
3983 3984 7
3983 3985 25
3984 3983 7
3984 3986 10
3985 3983 25
3985 3982 51
3985 3987 35
3986 3945 337
3986 3984 10
3986 3988 52
3987 3985 35
3987 3982 48
3987 3989 45
3988 3986 52
3988 3989 50
3988 4033 874
3989 3987 45
3989 3988 50
3989 4098 516
3990 3878 1433
3990 4123 551
3990 4207 1459
3991 3968 524
3991 3876 1219
3991 4011 316
3992 3993 14
3993 3992 14
3994 3995 80
3994 3974 161
3995 3994 80
3995 4089 112
3996 3997 2078
3997 3996 2078
3997 4037 359
3997 4371 1464
3998 3999 3150
3998 3870 3618
3998 4478 2579
3999 3998 3150
4000 3928 598
4000 4027 587
4000 4215 876
4001 4002 69
4001 4014 115
4001 4019 142
4001 4020 140
4002 4001 69
4003 3808 1857
4003 4096 397
4003 4122 427
4004 3943 551
4004 3952 582
4004 4007 37
4004 4103 375
4005 4006 110
4005 4129 365
4006 4005 110
4006 3977 248
4007 3941 586
4007 4004 37
4007 4086 341
4007 4099 338
4008 3964 942
4008 11973 1489
4009 4010 162
4009 4028 70
4009 4050 265
4010 4009 162
4010 4015 111
4010 4044 104
4011 3991 316
4011 4108 525
4011 4344 1017
4012 3965 980
4012 11975 1468
4013 3967 1352
4014 4001 115
4014 4079 71
4015 4010 111
4015 4016 65
4015 4094 243
4016 4015 65
4016 4030 326
4016 4268 1735
4017 4018 654
4018 4017 654
4018 4130 461
4018 4149 659
4019 4001 142
4019 4020 63
4019 4023 570
4020 4019 63
4020 4001 140
4020 4029 359
4021 3956 979
4022 3950 570
4022 4092 77
4023 4019 570
4023 4024 146
4023 4059 788
4024 4023 146
4024 4029 844
4024 4057 516
4025 3856 1416
4026 4027 187
4027 4026 187
4027 4000 587
4027 4104 333
4027 4114 327
4028 4009 70
4028 4044 123
4028 4056 104
4029 4024 844
4029 4020 359
4029 4071 2091
4030 4016 326
4030 3965 560
4030 4278 760
4031 3907 1285
4031 4063 132
4032 4033 429
4033 4032 429
4033 3988 874
4033 4047 586
4034 4035 72
4034 4046 1280
4034 4078 151
4035 4034 72
4035 4052 727
4035 4078 153
4036 3951 1008
4036 4048 133
4036 4062 106
4037 3997 359
4037 4038 602
4037 4100 291
4037 4113 311
4038 4037 602
4038 4067 271
4038 4100 381
4039 3981 362
4039 4045 406
4039 4047 527
4039 4386 1008
4040 3957 983
4040 4069 118
4040 4097 189
4041 4042 1186
4041 4043 127
4041 4065 1849
4042 4041 1186
4042 4052 162
4042 4061 397
4043 4041 127
4044 4028 123
4044 4010 104
4044 4077 119
4045 4039 406
4046 4034 1280
4046 4091 457
4047 3979 409
4047 4033 586
4047 4039 527
4048 3913 1257
4048 4036 133
4048 4062 107
4049 4050 28
4049 4095 165
4049 4124 356
4050 4049 28
4050 4009 265
4050 4056 88
4051 3923 1185
4051 4074 118
4051 4125 242
4052 4042 162
4052 4035 727
4052 4053 25
4053 4052 25
4053 4076 591
4053 4441 1273
4054 3967 1474
4054 4055 834
4054 4080 90
4055 4054 834
4056 4050 88
4056 4028 104
4056 4070 124
4056 4075 66
4057 4024 516
4057 4060 585
4058 3912 1157
4058 4071 110
4058 4083 83
4059 4023 788
4059 4060 166
4059 4155 948
4060 4059 166
4060 4057 585
4060 4081 426
4061 4042 397
4061 4072 517
4062 4048 107
4062 4036 106
4062 4069 25
4062 4074 32
4063 4031 132
4063 4122 529
4063 4181 488
4064 3924 1094
4064 4084 71
4064 4125 2587
4065 4066 703
4065 4041 1849
4065 4088 107
4066 4065 703
4066 4091 178
4067 4038 271
4067 4142 391
4067 4182 346
4068 3956 882
4069 4062 25
4069 4040 118
4069 4082 32
4069 4097 103
4070 4056 124
4070 4077 28
4070 4075 142
4071 4029 2091
4071 4058 110
4071 4083 60
4072 4061 517
4072 4076 141
4072 4085 448
4073 3709 3281
4073 4183 3041
4073 4388 1433
4074 4051 118
4074 4062 32
4074 4082 26
4074 4117 117
4075 4056 66
4075 4070 142
4075 4105 78
4076 4072 141
4076 4053 591
4076 4168 912
4077 4070 28
4077 4044 119
4077 4094 88
4078 4035 153
4078 4079 121
4078 4034 151
4078 4134 155
4079 4078 121
4079 4014 71
4080 4054 90
4081 4060 426
4081 4404 1129
4081 11990 1129
4081 11963 148
4082 4074 26
4082 4069 32
4082 4109 68
4082 4112 85
4083 4071 60
4083 4058 83
4083 4084 17
4083 4088 20
4084 4083 17
4084 4064 71
4084 4093 19
4084 4384 1155
4085 4072 448
4085 4409 1121
4085 11991 1121
4085 11967 251
4086 4007 341
4086 4087 7
4086 4099 67
4086 4150 194
4087 4086 7
4088 4065 107
4088 4083 20
4088 4093 18
4088 4205 392
4089 4090 368
4089 3995 112
4090 4089 368
4090 4926 2678
4091 4046 457
4091 4092 126
4091 4066 178
4091 4138 145
4092 4091 126
4092 4022 77
4093 4088 18
4093 4084 19
4093 4110 50
4093 4385 1154
4094 4077 88
4094 4015 243
4094 4131 134
4095 4049 165
4095 4101 77
4095 4135 132
4095 4137 131
4096 4003 397
4096 4108 33
4096 4122 204
4097 4069 103
4097 4040 189
4097 4200 341
4098 3989 516
4098 4102 4
4098 4104 37
4099 4086 67
4099 4007 338
4099 4103 11
4099 5052 3683
4100 4037 291
4100 4038 381
4100 4142 184
4100 4190 314
4101 4095 77
4101 4105 36
4101 4137 175
4102 4098 4
4102 4118 46
4103 4099 11
4103 4004 375
4103 4268 715
4103 4907 3286
4104 4098 37
4104 4027 333
4104 4121 42
4105 4101 36
4105 4075 78
4105 4131 189
4106 4107 1083
4106 11976 384
4107 4106 1083
4107 11939 695
4108 4011 525
4108 4096 33
4108 4344 746
4109 4082 68
4109 4127 73
4109 4362 806
4110 4093 50
4110 4241 455
4110 4251 659
4111 3888 1733
4111 4132 79
4111 4855 2887
4112 4082 85
4112 4127 149
4112 4208 344
4113 4037 311
4113 4190 305
4113 4197 319
4114 4027 327
4115 4116 1087
4115 11942 668
4116 4115 1087
4116 11977 380
4117 4074 117
4117 4125 55
4117 4481 1310
4117 12020 1310
4118 4102 46
4118 4121 41
4118 4280 619
4119 4120 1173
4119 4172 362
4119 4177 396
4120 4119 1173
4121 4104 42
4121 4118 41
4121 4215 349
4122 4096 204
4122 4003 427
4122 4063 529
4122 4147 102
4123 3990 551
4124 4049 356
4124 4135 108
4124 4204 231
4125 4051 242
4125 4117 55
4125 4064 2587
4126 3657 3430
4126 4300 1912
4126 5134 6581
4127 4109 73
4127 4112 149
4127 4632 1915
4128 4129 84
4128 4930 2601
4129 4128 84
4129 4005 365
4130 4018 461
4130 4149 70
4130 4181 169
4131 4105 189
4131 4094 134
4131 4175 135
4131 4233 407
4132 4111 79
4132 3896 1741
4132 4443 1183
4132 11982 1183
4132 11986 1183
4132 11996 1183
4132 12003 1183
4133 3918 1071
4133 4151 53
4133 4152 93
4133 4156 105
4134 4078 155
4134 4143 559
4134 4602 1521
4135 4124 108
4135 4095 132
4135 4136 12
4135 4169 78
4136 4135 12
4136 4137 1
4137 4136 1
4137 4095 131
4137 4101 175
4137 4170 79
4138 4091 145
4138 4143 1281
4138 4269 454
4139 4140 903
4139 4193 181
4139 4572 4481
4140 4139 903
4141 3981 1508
4141 4180 156
4141 4201 175
4142 4100 184
4142 4067 391
4142 4226 251
4143 4134 559
4143 4138 1281
4143 4331 476
4144 3969 1089
4144 4414 973
4144 4414 976
4145 4146 12
4145 4159 17
4145 4184 240
4146 4145 12
4146 4158 17
4146 4172 463
4147 4148 18
4147 4122 102
4147 4176 70
4148 4147 18
4149 4130 70
4149 4018 659
4149 4163 22
4150 4086 194
4151 4133 53
4151 4152 73
4151 4156 79
4151 4157 6
4152 4151 73
4152 4133 93
4152 4166 1017
4153 4154 184
4154 4153 184
4155 4059 948
4156 4133 105
4156 4151 79
4156 4162 153
4157 4151 6
4157 4160 6
4158 4146 17
4158 4159 11
4158 4173 334
4158 4293 362
4159 4145 17
4159 4158 11
4159 4194 259
4159 4327 456
4160 4157 6
4160 4161 71
4160 4164 74
4160 4198 87
4161 4160 71
4161 4171 1020
4161 4198 126
4162 4156 153
4162 4167 12
4162 4182 366
4163 4149 22
4163 4216 162
4163 4217 172
4164 4160 74
4164 4167 158
4164 4198 124
4165 3975 1148
4165 4228 210
4166 4152 1017
4166 11970 393
4167 4162 12
4167 4164 158
4167 4189 364
4167 4275 276
4168 4076 912
4169 4135 78
4169 4170 12
4169 4202 77
4170 4169 12
4170 4137 79
4170 4206 77
4171 4161 1020
4171 11972 447
4172 4119 362
4172 4146 463
4172 4177 27
4173 4158 334
4173 4177 104
4173 4304 409
4174 3980 1672
4174 4178 18
4174 4180 15
4175 4131 135
4175 4195 88
4175 4210 92
4176 4147 70
4177 4173 104
4177 4172 27
4177 4119 396
4177 4325 483
4178 4174 18
4178 4188 16
4178 4767 2916
4179 3842 3948
4179 4187 168
4179 4738 6353
4180 4174 15
4180 4141 156
4180 4188 17
4180 4199 41
4181 4063 488
4181 4130 169
4181 4253 251
4182 4067 346
4182 4162 366
4182 4189 11
4182 4226 399
4183 4073 3041
4184 4145 240
4184 4246 271
4184 4247 304
4185 4186 74
4186 4185 74
4187 4179 168
4187 4191 164
4187 4262 220
4188 4178 16
4188 4180 17
4188 4240 164
4188 4769 2914
4189 4182 11
4189 4167 364
4189 4231 396
4189 4271 222
4190 4113 305
4190 4100 314
4190 4282 320
4191 4187 164
4191 4192 2261
4191 3194 11333
4192 4191 2261
4193 4139 181
4194 4159 259
4194 4250 249
4194 4260 277
4195 4175 88
4195 4196 122
4195 4214 75
4196 4195 122
4197 4113 319
4197 4282 320
4198 4164 124
4198 4160 87
4198 4161 126
4198 4279 207
4199 4180 41
4199 4201 4
4200 4097 341
4200 4203 548
4200 4211 68
4201 4199 4
4201 4141 175
4201 4237 116
4202 4169 77
4202 4206 12
4202 4209 150
4203 4200 548
4204 4124 231
4204 4209 107
4204 4219 88
4205 4088 392
4205 4227 115
4205 4445 804
4206 4202 12
4206 4170 77
4206 4213 46
4207 3990 1459
4207 4229 433
4207 4257 154
4208 4112 344
4208 4220 69
4208 4252 162
4209 4204 107
4209 4202 150
4209 4221 36
4210 4175 92
4210 4214 69
4210 4242 92
4211 4200 68
4211 4212 547
4211 4248 113
4212 4211 547
4213 4206 46
4213 4225 36
4213 4242 266
4214 4210 69
4214 4195 75
4214 4224 113
4215 4121 349
4215 4000 876
4215 4218 11
4216 4163 162
4216 4217 16
4216 4230 51
4217 4163 172
4217 4216 16
4217 4244 82
4218 4215 11
4218 4223 12
4218 4330 433
4219 4204 88
4219 4243 83
4219 4274 182
4220 4208 69
4220 4252 147
4220 4259 105
4221 4209 36
4221 4222 14
4221 4274 134
4222 4221 14
4222 4232 88
4222 4276 133
4223 4218 12
4223 3927 1501
4223 4285 185
4223 4334 432
4224 4214 113
4224 4233 61
4224 4264 98
4225 4213 36
4225 4232 11
4225 4236 65
4226 4142 251
4226 4182 399
4226 4231 6
4226 4350 582
4227 4205 115
4227 4269 167
4227 4306 239
4228 4165 210
4228 4230 126
4228 4324 338
4229 4207 433
4230 4216 51
4230 4228 126
4230 4244 71
4231 4226 6
4231 4189 396
4231 4314 226
4231 4352 578
4232 4222 88
4232 4225 11
4232 4238 65
4233 4224 61
4233 4131 407
4234 4235 199
4235 4234 199
4236 4225 65
4236 4238 11
4236 4239 48
4237 4201 116
4237 11993 204
4238 4232 65
4238 4236 11
4238 4298 137
4239 4236 48
4239 4256 155
4239 4315 193
4240 4188 164
4240 12005 577
4241 4110 455
4241 4290 573
4241 4434 638
4242 4213 266
4242 4210 92
4242 4256 36
4242 4264 174
4243 4219 83
4243 4261 76
4243 4326 252
4244 4217 82
4244 4230 71
4244 4254 25
4245 3955 1507
4245 4297 1338
4245 4397 666
4246 4184 271
4246 4354 128
4247 4184 304
4247 4249 19
4247 4260 53
4248 4249 18
4248 4211 113
4249 4248 18
4249 4247 19
4249 4258 43
4250 4194 249
4250 4363 128
4251 4110 659
4251 4283 86
4251 4295 100
4252 4208 162
4252 4220 147
4252 4632 1440
4253 4181 251
4253 4254 162
4253 4470 1127
4254 4244 25
4254 4253 162
4254 4543 1129
4254 4543 1129
4255 3287 7993
4255 4508 2676
4255 7391 11165
4256 4239 155
4256 4242 36
4256 4284 171
4256 4305 113
4257 4207 154
4258 4259 24
4258 4249 43
4258 4263 14
4259 4258 24
4259 4220 105
4260 4247 53
4260 4194 277
4260 4277 28
4261 4243 76
4261 4292 93
4261 4326 174
4262 4187 220
4262 4974 3781
4262 7405 11789
4263 4258 14
4263 4270 15
4264 4242 174
4264 4224 98
4264 4278 71
4264 4284 32
4265 3942 1360
4265 3947 2580
4265 4551 1020
4266 4267 7255
4267 4266 7255
4268 4103 715
4268 4016 1735
4268 4431 591
4268 4800 2737
4269 4138 454
4269 4227 167
4269 4306 90
4270 4263 15
4270 4288 52
4270 4353 298
4271 4189 222
4271 4275 357
4271 4314 312
4271 4377 308
4272 4273 23
4273 4272 23
4274 4219 182
4274 4221 134
4274 4276 12
4274 4294 47
4275 4271 357
4275 4167 276
4275 4279 227
4275 4392 410
4276 4274 12
4276 4222 133
4276 4296 48
4276 4298 160
4277 4260 28
4277 4287 37
4277 4299 67
4278 4264 71
4278 4030 760
4278 4289 33
4279 4275 227
4279 4198 207
4279 4411 480
4280 4281 240
4280 4118 619
4280 4339 250
4280 4369 339
4281 4280 240
4281 4286 749
4282 4197 320
4282 4190 320
4282 4333 507
4282 4350 287
4283 4251 86
4283 4395 515
4284 4256 171
4284 4264 32
4284 4289 64
4284 4320 112
4285 4223 185
4285 4372 312
4286 4281 749
4286 4427 521
4287 4277 37
4287 4288 26
4287 4307 64
4288 4270 52
4288 4287 26
4288 4364 315
4289 4284 64
4289 4278 33
4289 4498 840
4290 4241 573
4290 4291 142
4290 4295 220
4290 4356 199
4291 4290 142
4292 4261 93
4292 4294 28
4292 4343 147
4293 4158 362
4293 4304 70
4293 4321 78
4294 4292 28
4294 4274 47
4294 4296 12
4295 4290 220
4295 4251 100
4295 4359 195
4296 4294 12
4296 4276 48
4296 4303 39
4297 4245 1338
4298 4276 160
4298 4238 137
4298 4309 45
4299 4277 67
4299 4301 31
4299 4307 35
4300 4126 1912
4301 4299 31
4301 4302 106
4301 4318 131
4302 4301 106
4303 4296 39
4303 4309 123
4303 4351 146
4304 4173 409
4304 4293 70
4304 4321 76
4305 4256 113
4305 4308 77
4305 4328 87
4306 4269 90
4306 4227 239
4306 4387 411
4307 4287 64
4307 4299 35
4307 4310 23
4308 4305 77
4308 4320 103
4308 4338 80
4309 4303 123
4309 4298 45
4309 4315 42
4309 4355 145
4310 4307 23
4310 4318 12
4311 4312 144
4312 4311 144
4312 4313 439
4312 4329 194
4312 4450 503
4313 4312 439
4314 4231 226
4314 4271 312
4314 4377 342
4314 4394 472
4315 4309 42
4315 4239 193
4315 4328 117
4316 4317 163
4317 4316 163
4317 4319 166
4317 4329 38
4318 4310 12
4318 4301 131
4318 4349 124
4319 4317 166
4320 4308 103
4320 4284 112
4320 4348 83
4321 4293 78
4321 4304 76
4321 4325 15
4321 4327 22
4322 4323 7393
4323 4322 7393
4324 4228 338
4324 4340 165
4324 4340 157
4325 4321 15
4325 4177 483
4325 4457 708
4326 4243 252
4326 4261 174
4326 4332 18
4327 4159 456
4327 4321 22
4327 4456 706
4328 4315 117
4328 4305 87
4328 4338 109
4328 4365 171
4329 4312 194
4329 4317 38
4329 4341 143
4330 4218 433
4330 4334 12
4330 4415 580
4331 4143 476
4331 4335 138
4332 4326 18
4332 4343 96
4332 4378 184
4333 4282 507
4334 4330 12
4334 4223 432
4334 4372 513
4334 4444 1274
4335 4331 138
4335 4430 369
4335 4447 905
4336 4337 511
4336 4345 77
4336 4381 208
4337 4336 511
4338 4328 109
4338 4308 80
4338 4348 84
4339 4280 250
4339 4415 316
4340 4324 165
4340 4324 157
4340 4561 1016
4341 4329 143
4341 4342 160
4341 4357 132
4342 4341 160
4343 4332 96
4343 4292 147
4343 4346 37
4344 4011 1017
4344 4108 746
4344 4390 245
4345 4336 77
4346 4343 37
4346 4347 11
4346 4378 123
4347 4346 11
4347 4351 31
4347 4380 128
4348 4338 84
4348 4320 83
4348 4379 133
4349 4318 124
4350 4282 287
4350 4226 582
4350 4352 10
4350 4416 394
4351 4347 31
4351 4303 146
4351 4355 123
4352 4350 10
4352 4231 578
4352 4394 306
4352 4417 385
4353 4270 298
4353 4354 270
4353 4402 243
4354 4353 270
4354 4246 128
4355 4351 123
4355 4309 145
4355 4365 72
4356 4290 199
4356 4359 226
4356 4432 491
4357 4341 132
4357 4358 236
4357 4387 183
4358 4357 236
4359 4356 226
4359 4295 195
4359 4393 164
4360 3864 4165
4360 4361 364
4360 8062 12953
4361 4360 364
4362 4109 806
4362 4484 553
4362 4560 786
4362 12046 786
4363 4364 289
4363 4250 128
4364 4363 289
4364 4288 315
4364 4406 222
4365 4355 72
4365 4328 171
4365 4374 65
4366 4367 65
4366 4368 117
4366 4375 118
4367 4366 65
4367 4408 247
4367 4452 1032
4367 12000 1032
4368 4366 117
4368 11998 259
4368 11989 248
4369 4280 339
4370 4371 230
4370 11988 247
4370 11984 247
4371 4370 230
4371 3997 1464
4371 4373 11
4371 4416 839
4372 4285 312
4372 4334 513
4372 4713 1722
4373 4371 11
4373 4375 7
4374 4365 65
4374 4376 146
4374 4403 181
4375 4366 118
4375 4373 7
4375 4418 838
4375 4746 1424
4376 4374 146
4376 4379 145
4376 4425 206
4377 4314 342
4377 4271 308
4377 4392 307
4377 4482 406
4378 4332 184
4378 4346 123
4378 4380 12
4378 4429 228
4379 4376 145
4379 4348 133
4379 4426 233
4380 4378 12
4380 4347 128
4380 4403 176
4380 4429 223
4381 3637 5079
4381 4336 208
4381 4638 1266
4382 4383 15
4382 4386 1048
4382 4407 566
4383 4382 15
4383 4401 1312
4383 4412 567
4383 4471 386
4384 4084 1155
4384 12022 276
4384 12034 337
4385 4093 1154
4385 12011 77
4386 4382 1048
4386 4039 1008
4386 4396 276
4387 4357 183
4387 4306 411
4387 4423 170
4388 4073 1433
4388 4389 2475
4388 4743 2793
4389 4388 2475
4390 4391 321
4390 4344 245
4390 4470 438
4390 4833 1774
4391 4390 321
4392 4377 307
4392 4275 410
4392 4411 219
4393 4359 164
4393 4433 355
4393 4466 235
4394 4352 306
4394 4314 472
4394 4446 179
4395 4283 515
4395 4433 121
4395 4481 316
4396 4386 276
4396 4401 12
4396 4440 677
4397 4245 666
4397 4442 4659
4397 4667 1735
4398 4399 495
4399 4398 495
4399 4487 1524
4399 4639 1254
4400 3886 2867
4400 11979 2867
4400 11980 2867
4400 11992 2867
4400 4428 89
4400 4918 1964
4401 4383 1312
4401 4396 12
4401 4444 680
4401 4489 405
4402 4353 243
4402 4406 17
4402 4410 17
4403 4380 176
4403 4374 181
4403 4419 51
4403 4429 194
4404 4405 13
4404 4081 1129
4404 11990 1129
4404 4409 11
4404 4497 344
4405 4404 13
4406 4402 17
4406 4364 222
4406 4413 12
4406 4456 447
4407 4382 566
4407 4610 794
4408 4367 247
4408 4494 622
4408 4536 454
4409 4404 11
4409 4085 1121
4409 11991 1121
4409 4501 346
4409 4528 572
4410 4402 17
4410 4413 16
4410 4649 919
4411 4392 219
4411 4279 480
4411 4435 279
4411 4474 218
4412 4383 567
4412 4621 793
4413 4410 16
4413 4406 12
4413 4459 437
4413 4527 375
4414 4144 973
4414 4144 976
4414 4611 807
4415 4339 316
4415 4330 580
4415 4440 686
4416 4371 839
4416 4350 394
4416 4417 18
4416 4418 13
4417 4416 18
4417 4352 385
4417 4420 13
4417 4446 516
4418 4375 838
4418 4416 13
4418 4420 18
4418 4754 1262
4419 4403 51
4419 4424 133
4419 4458 129
4420 4418 18
4420 4417 13
4420 4451 520
4420 4755 1259
4421 4422 21
4421 4468 470
4421 4479 296
4422 4421 21
4423 4387 170
4423 4469 212
4423 4485 270
4424 4419 133
4424 4425 88
4424 4449 94
4425 4424 88
4425 4376 206
4425 4426 35
4426 4425 35
4426 4379 233
4426 4461 137
4427 4286 521
4427 4440 249
4428 4400 89
4428 3872 3058
4428 11974 3058
4428 4915 1864
4429 4378 228
4429 4380 223
4429 4403 194
4429 4431 164
4429 4496 243
4430 4335 369
4430 4436 146
4430 4439 26
4431 4268 591
4431 4429 164
4431 4647 867
4432 4356 491
4432 4465 300
4432 4434 774
4433 4393 355
4433 4395 121
4433 4521 497
4433 4524 343
4434 4241 638
4434 4432 774
4434 4534 319
4435 4411 279
4435 4460 355
4435 4507 242
4436 4430 146
4436 4437 159
4436 4447 220
4436 4495 367
4437 4436 159
4438 4439 324
4438 4576 505
4439 4438 324
4439 4430 26
4439 4495 203
4440 4396 677
4440 4427 249
4440 4415 686
4440 4444 12
4441 4053 1273
4441 4636 950
4441 4707 1139
4442 4397 4659
4442 4487 3931
4442 4515 2039
4443 4132 1183
4443 11982 1183
4443 11986 1183
4443 11996 1183
4443 12003 1183
4443 4452 30
4443 4475 83
4444 4401 680
4444 4440 12
4444 4334 1274
4444 4448 17
4445 4205 804
4445 4469 365
4445 4532 265
4446 4417 516
4446 4394 179
4446 4451 12
4446 4482 493
4447 4436 220
4447 4335 905
4447 4464 151
4447 4514 230
4448 4444 17
4448 4455 20
4449 4424 94
4449 4458 116
4449 4461 65
4450 4312 503
4450 4453 49
4450 4464 32
4451 4420 520
4451 4446 12
4451 4486 490
4451 4575 446
4452 4443 30
4452 4367 1032
4452 12000 1032
4452 4494 319
4453 4450 49
4453 4454 168
4453 4490 257
4454 4453 168
4455 4448 20
4455 4550 382
4455 4553 649
4456 4406 447
4456 4327 706
4456 4457 13
4456 4459 13
4457 4456 13
4457 4325 708
4457 4467 26
4458 4419 129
4458 4449 116
4458 4488 157
4458 4502 231
4459 4413 437
4459 4456 13
4459 4467 9
4459 4527 565
4460 4435 355
4460 4562 386
4461 4449 65
4461 4426 137
4461 4488 129
4462 4463 57
4462 11977 1071
4463 4462 57
4463 4473 51
4463 4473 40
4463 4476 26
4464 4447 151
4464 4450 32
4465 4466 185
4465 4432 300
4465 4466 192
4466 4465 185
4466 4393 235
4466 4465 192
4467 4459 9
4467 4457 26
4467 4569 629
4468 4421 470
4469 4423 212
4469 4445 365
4469 4503 215
4470 4390 438
4470 4253 1127
4470 4555 539
4471 4383 386
4471 4785 36
4472 3968 2234
4472 4483 108
4472 4764 1259
4473 4463 51
4473 4463 40
4473 4477 25
4473 4477 66
4474 4411 218
4474 4493 148
4474 4507 377
4475 4443 83
4475 4499 348
4475 4664 847
4476 4463 26
4476 4619 663
4477 4473 25
4477 4479 90
4477 4473 66
4477 4523 423
4478 3998 2579
4479 4421 296
4479 4480 222
4479 4477 90
4479 4517 354
4480 4479 222
4480 11976 1031
4481 4395 316
4481 4117 1310
4481 12020 1310
4481 4484 18
4481 4524 174
4481 12045 174
4482 4446 493
4482 4377 406
4482 4486 13
4482 4511 366
4483 3922 3679
4483 4472 108
4483 4723 1286
4484 4481 18
4484 4362 553
4484 4529 174
4484 12047 174
4484 4642 723
4485 4423 270
4485 4490 55
4485 4557 294
4486 4451 490
4486 4482 13
4486 4504 274
4487 4399 1524
4487 4442 3931
4487 4946 2467
4488 4458 157
4488 4461 129
4488 4498 33
4488 4584 397
4489 4401 405
4489 4500 24
4489 4500 24
4490 4453 257
4490 4485 55
4490 4526 124
4491 4492 616
4491 4823 1447
4492 4491 616
4493 4474 148
4493 4511 66
4493 4522 76
4494 4452 319
4494 4408 622
4494 4499 11
4494 4536 262
4495 4439 203
4495 4436 367
4495 4578 300
4496 4429 243
4496 4502 39
4496 4565 352
4497 4404 344
4497 4631 626
4498 4488 33
4498 4289 840
4498 4647 652
4499 4475 348
4499 4494 11
4499 4541 264
4499 4570 279
4500 4489 24
4500 4489 24
4500 4510 28
4501 4409 346
4501 4634 625
4502 4496 39
4502 4458 231
4502 4567 238
4503 4469 215
4503 4532 104
4503 4623 446
4504 4486 274
4504 4513 77
4504 4535 89
4505 4506 389
4505 4509 20
4505 4517 59
4506 4505 389
4507 4474 377
4507 4435 242
4507 4562 245
4508 3842 5606
4508 4255 2676
4508 4981 2083
4509 4505 20
4510 4500 28
4510 4582 740
4511 4482 366
4511 4493 66
4511 4512 9
4511 4522 52
4512 4511 9
4512 4513 13
4512 4516 11
4513 4504 77
4513 4512 13
4513 4516 15
4513 4535 78
4514 4447 230
4514 4568 319
4515 4442 2039
4515 4663 1269
4516 4513 15
4516 4512 11
4516 4525 40
4516 4533 51
4517 4505 59
4517 4479 354
4517 4523 17
4517 4538 188
4518 4519 87
4518 4520 832
4518 4624 480
4519 4518 87
4520 4518 832
4521 4433 497
4522 4511 52
4522 4493 76
4522 4603 539
4523 4517 17
4523 4477 423
4523 4542 198
4523 4573 406
4524 4433 343
4524 4481 174
4524 12045 174
4524 4529 14
4524 4546 76
4525 4516 40
4525 4533 75
4525 4604 543
4526 4490 124
4526 4540 115
4526 4568 233
4527 4413 375
4527 4459 565
4527 4569 178
4528 4409 572
4528 4530 8
4528 4625 794
4529 4524 14
4529 4484 174
4529 12047 174
4529 4537 59
4529 4546 68
4530 4528 8
4530 4531 7
4531 4530 7
4531 4627 800
4531 4636 622
4532 4503 104
4532 4445 265
4532 4534 14
4532 4666 567
4533 4516 51
4533 4525 75
4533 4648 726
4534 4532 14
4534 4434 319
4534 4589 336
4534 4788 954
4535 4504 89
4535 4513 78
4535 4644 700
4536 4494 262
4536 4408 454
4536 4541 12
4537 4529 59
4538 4539 381
4538 4517 188
4538 4542 16
4538 4548 83
4539 4538 381
4540 4526 115
4540 4557 130
4540 4593 260
4541 4499 264
4541 4536 12
4541 4617 303
4542 4538 16
4542 4523 198
4542 4549 10
4542 4552 85
4543 4254 1129
4543 4254 1129
4543 4555 56
4543 4561 945
4544 4545 97
4544 4580 201
4545 4544 97
4545 4607 584
4546 4524 76
4546 4529 68
4546 4579 212
4547 4548 443
4548 4547 443
4548 4538 83
4548 4552 15
4548 4553 154
4549 4542 10
4549 4552 102
4549 4566 164
4550 4455 382
4550 4553 403
4550 4554 389
4550 4556 17
4551 4265 1020
4551 4561 236
4551 4587 270
4552 4548 15
4552 4542 85
4552 4549 102
4552 4558 157
4553 4455 649
4553 4548 154
4553 4550 403
4553 4558 18
4554 4550 389
4554 12048 1085
4555 4543 56
4555 4470 539
4555 5192 2130
4556 4550 17
4556 4558 397
4556 4559 395
4556 4919 1942
4557 4540 130
4557 4485 294
4557 4600 231
4558 4553 18
4558 4552 157
4558 4556 397
4558 4577 123
4559 4556 395
4559 12049 1079
4560 4362 786
4560 12046 786
4560 12039 786
4560 12055 786
4561 4340 1016
4561 4551 236
4561 4543 945
4562 4507 245
4562 4460 386
4562 4603 276
4563 4564 295
4564 4563 295
4565 4496 352
4565 4567 27
4565 4596 140
4566 4549 164
4566 4573 247
4566 4865 2451
4567 4565 27
4567 4502 238
4567 4574 41
4568 4514 319
4568 4526 233
4568 4588 115
4569 4527 178
4569 4467 629
4569 4651 374
4570 4499 279
4570 4594 272
4570 4605 163
4571 4572 428
4572 4571 428
4572 4139 4481
4572 4823 2289
4573 4566 247
4573 4523 406
4573 4695 590
4574 4567 41
4574 4584 100
4574 4596 124
4575 4451 446
4576 4438 505
4576 4578 253
4576 4583 135
4577 4558 123
4577 4750 688
4578 4576 253
4578 4495 300
4578 4581 190
4579 4546 212
4579 4615 37
4580 4544 201
4580 4607 196
4581 4578 190
4581 4585 285
4581 4722 505
4582 4510 740
4582 4597 114
4583 4576 135
4583 4601 267
4583 4659 329
4584 4574 100
4584 4488 397
4584 4596 320
4585 4581 285
4585 4586 15
4585 4722 584
4586 4585 15
4586 4588 15
4587 4551 270
4587 4595 43
4587 4626 133
4588 4586 15
4588 4568 115
4588 4590 150
4588 4630 204
4589 4534 336
4590 4588 150
4590 4593 135
4590 4641 201
4591 3526 6084
4591 4592 2913
4591 4801 1216
4592 4591 2913
4593 4590 135
4593 4540 260
4593 4600 125
4593 4661 280
4594 4570 272
4594 4617 107
4594 4668 309
4595 4587 43
4596 4565 140
4596 4574 124
4596 4584 320
4597 4582 114
4597 4789 1340
4598 4599 192
4598 4618 83
4598 4628 93
4599 4598 192
4600 4593 125
4600 4557 231
4600 4608 155
4600 4712 412
4601 4583 267
4601 4602 9
4601 4633 124
4602 4134 1521
4602 4601 9
4602 4624 153
4603 4522 539
4603 4562 276
4603 4604 14
4603 4616 39
4604 4525 543
4604 4603 14
4604 4622 42
4604 4757 811
4605 4606 218
4605 4570 163
4605 4618 24
4606 4605 218
4607 4580 196
4607 4545 584
4607 4652 214
4608 4600 155
4608 4623 136
4608 4658 322
4609 4610 148
4609 4811 740
4610 4609 148
4610 4407 794
4611 4414 807
4611 4839 871
4611 4839 887
4612 4613 27
4612 4628 129
4612 4671 276
4613 4612 27
4614 4615 88
4615 4614 88
4615 4579 37
4616 4603 39
4616 4708 492
4616 12059 351
4617 4594 107
4617 4541 303
4617 4730 428
4618 4598 83
4618 4605 24
4618 4640 125
4619 4476 663
4619 4695 378
4619 4804 1399
4620 4621 149
4620 4815 737
4621 4620 149
4621 4412 793
4622 4604 42
4622 4718 488
4622 12060 358
4623 4608 136
4623 4503 446
4623 4629 220
4624 4518 480
4624 4602 153
4624 4646 143
4624 4652 313
4625 4528 794
4625 4627 6
4625 4709 696
4626 4587 133
4626 4881 1029
4626 4929 4929
4627 4625 6
4627 4531 800
4627 4679 244
4627 4721 698
4628 4612 129
4628 4598 93
4628 4678 244
4629 4623 220
4630 4588 204
4630 4637 112
4630 4699 297
4631 4497 626
4631 12057 197
4632 4127 1915
4632 4252 1440
4632 4642 59
4632 4643 53
4633 4601 124
4633 4635 4
4633 4653 183
4634 4501 625
4634 12058 219
4635 4633 4
4635 4645 57
4635 4646 149
4636 4531 622
4636 4441 950
4636 4673 353
4636 4727 379
4637 4630 112
4637 4641 103
4637 4657 116
4638 4381 1266
4639 4399 1254
4640 4618 125
4640 4668 281
4640 4683 186
4641 4637 103
4641 4590 201
4641 4660 96
4642 4484 723
4642 4632 59
4642 4691 203
4643 4632 53
4643 4654 93
4643 4675 158
4644 4535 700
4644 4648 33
4644 4759 648
4645 4635 57
4645 4653 112
4645 4662 98
4646 4624 143
4646 4635 149
4646 4665 90
4647 4431 867
4647 4498 652
4647 4803 613
4648 4644 33
4648 4533 726
4648 4757 609
4648 4760 636
4649 4410 919
4649 4670 67
4650 4700 186
4651 4569 374
4651 4681 65
4652 4607 214
4652 4624 313
4652 4698 250
4653 4645 112
4653 4633 183
4653 4659 162
4654 4643 93
4654 4669 77
4654 4674 65
4655 4656 1169
4656 4655 1169
4656 4728 266
4656 4797 2034
4657 4637 116
4657 4660 105
4657 4696 104
4658 4608 322
4658 4666 278
4658 4715 176
4659 4653 162
4659 4583 329
4659 4700 188
4660 4657 105
4660 4641 96
4660 4661 153
4661 4660 153
4661 4593 280
4661 4751 291
4662 4645 98
4662 4665 129
4662 4705 114
4663 4515 1269
4663 4667 100
4663 4677 44
4664 4475 847
4664 4686 67
4664 4697 88
4665 4646 90
4665 4662 129
4665 4701 175
4665 4705 150
4666 4658 278
4666 4532 567
4666 4786 395
4667 4397 1735
4667 4663 100
4667 4776 1613
4668 4640 281
4668 4594 309
4668 4717 162
4669 4654 77
4669 4670 56
4669 4674 36
4670 4669 56
4670 4649 67
4671 4672 30
4671 4612 276
4671 4678 105
4672 4671 30
4673 4636 353
4673 4676 22
4673 4693 291
4674 4654 65
4674 4669 36
4674 4675 9
4674 4680 18
4675 4643 158
4675 4674 9
4675 4682 17
4675 4691 54
4676 4673 22
4676 4704 100
4676 4727 534
4677 4663 44
4678 4671 105
4678 4628 244
4678 4683 73
4679 4627 244
4679 4688 17
4679 4809 628
4680 4674 18
4680 4681 96
4680 4682 8
4681 4680 96
4681 4651 65
4682 4675 17
4682 4680 8
4682 4689 15
4682 4694 53
4683 4678 73
4683 4640 186
4683 4706 61
4684 4685 1468
4685 4684 1468
4686 4687 1
4686 4664 67
4686 4706 290
4687 4686 1
4687 4697 59
4688 4679 17
4688 4692 457
4688 4825 552
4689 4682 15
4689 4690 1417
4689 4745 198
4689 4908 1630
4690 4689 1417
4691 4642 203
4691 4675 54
4691 4694 17
4691 4970 2300
4692 4688 457
4693 4673 291
4693 4698 351
4693 4714 143
4694 4691 17
4694 4682 53
4694 4980 2310
4695 4573 590
4695 4619 378
4695 4752 308
4696 4657 104
4696 4699 247
4696 4702 125
4696 4740 151
4697 4664 88
4697 4687 59
4697 4766 265
4698 4652 250
4698 4693 351
4698 4710 157
4699 4630 297
4699 4696 247
4699 4729 119
4700 4659 188
4700 4650 186
4700 4747 187
4701 4665 175
4702 4696 125
4702 4703 43
4702 4748 163
4703 4702 43
4704 4676 100
4704 4714 221
4704 4726 119
4705 4665 150
4705 4662 114
4705 4761 251
4706 4686 290
4706 4683 61
4706 4716 301
4706 4778 278
4707 4441 1139
4707 4783 90
4708 4616 492
4708 4709 41
4708 4718 61
4709 4708 41
4709 4625 696
4709 4721 41
4710 4698 157
4710 4711 199
4710 4719 209
4711 4710 199
4711 4719 17
4711 4724 228
4711 4724 83
4712 4600 412
4712 4715 199
4712 4774 225
4713 4372 1722
4713 4723 33
4713 4812 378
4714 4704 221
4714 4693 143
4714 4725 28
4715 4712 199
4715 4658 176
4715 4720 161
4715 4779 229
4716 4706 301
4716 4717 7
4716 4791 265
4717 4716 7
4717 4668 162
4717 4730 252
4718 4622 488
4718 4708 61
4718 4731 42
4719 4711 17
4719 4710 209
4719 4733 79
4720 4715 161
4721 4709 41
4721 4627 698
4721 4732 37
4722 4581 505
4722 4585 584
4722 4729 29
4722 4807 329
4723 4713 33
4723 4483 1286
4723 4764 230
4724 4711 228
4724 4711 83
4724 4725 12
4724 4739 44
4725 4714 28
4725 4724 12
4725 4726 20
4725 4734 23
4726 4704 119
4726 4725 20
4726 4741 46
4726 4741 36
4727 4636 379
4727 4676 534
4727 4825 855
4728 4656 266
4728 4820 369
4728 4829 594
4729 4722 29
4729 4699 119
4729 4740 240
4729 4802 282
4730 4717 252
4730 4617 428
4730 4798 249
4731 4718 42
4731 4735 14
4732 4721 37
4732 4742 54
4732 4843 474
4732 12066 474
4733 4719 79
4733 4739 1003
4733 5071 1003
4734 4725 23
4734 4744 998
4734 5061 998
4735 4731 14
4735 4742 43
4735 4770 214
4736 3658 7938
4736 4737 8
4736 4762 158
4737 4736 8
4737 4824 5270
4738 4179 6353
4739 4724 44
4739 4733 1003
4739 5071 1003
4740 4729 240
4740 4696 151
4740 4748 129
4740 4758 93
4741 4726 46
4741 4726 36
4741 4744 9
4741 4909 1190
4741 12074 1190
4742 4735 43
4742 4732 54
4742 4850 475
4743 4388 2793
4743 4824 1478
4743 4946 1126
4744 4741 9
4744 4734 998
4744 5061 998
4745 4689 198
4745 12055 975
4745 12071 975
4746 4375 1424
4746 4749 383
4746 4828 364
4747 4700 187
4747 4756 85
4747 4813 383
4748 4740 129
4748 4702 163
4748 4751 137
4749 4746 383
4749 4753 292
4749 4832 301
4750 4577 688
4750 4879 462
4751 4748 137
4751 4661 291
4751 4774 250
4751 4794 161
4752 4695 308
4752 4865 530
4752 5030 1066
4753 4749 292
4753 4754 236
4753 4838 289
4754 4753 236
4754 4418 1262
4754 4925 556
4755 4420 1259
4755 4759 489
4755 4928 561
4756 4747 85
4756 4761 401
4756 4817 248
4757 4648 609
4757 4604 811
4757 4875 634
4757 4937 667
4758 4740 93
4758 4787 182
4758 4792 156
4759 4755 489
4759 4644 648
4759 4760 26
4759 4933 557
4760 4759 26
4760 4648 636
4760 4763 131
4760 4934 556
4761 4705 251
4761 4756 401
4762 4736 158
4762 4826 440
4762 4882 2029
4763 4760 131
4763 4765 626
4763 4935 553
4764 4472 1259
4764 4723 230
4764 4816 232
4765 4763 626
4766 4697 265
4766 4778 359
4766 4853 325
4767 4178 2916
4767 4768 13
4767 4769 17
4768 4767 13
4768 4773 17
4768 4775 44
4769 4767 17
4769 4188 2914
4769 4773 12
4769 5018 747
4770 4735 214
4770 4856 475
4770 4877 471
4771 4772 1237
4772 4771 1237
4772 4833 642
4772 4923 539
4773 4768 17
4773 4769 12
4773 4780 42
4773 5027 779
4773 12082 779
4774 4751 250
4774 4712 225
4774 4779 196
4775 4768 44
4775 5139 2316
4776 4777 83
4776 4667 1613
4776 5104 3167
4777 4776 83
4778 4766 359
4778 4706 278
4778 4791 294
4778 4876 360
4779 4774 196
4779 4715 229
4779 4786 317
4780 4773 42
4780 4971 1344
4781 4782 176
4781 4785 1194
4781 4967 781
4782 4781 176
4783 4784 730
4783 4707 90
4784 4783 730
4784 4842 369
4785 4781 1194
4785 4471 36
4786 4779 317
4786 4666 395
4786 4788 11
4786 4837 183
4787 4758 182
4787 4794 73
4787 4818 239
4788 4786 11
4788 4534 954
4788 4790 1048
4788 4970 600
4789 4597 1340
4789 4793 31
4789 4793 31
4790 4788 1048
4791 4778 294
4791 4716 265
4791 4798 294
4791 4886 362
4792 4758 156
4792 4802 182
4792 4818 150
4793 4789 31
4793 4789 31
4793 4841 241
4794 4787 73
4794 4751 161
4794 4799 36
4795 4796 257
4795 4806 269
4795 4847 263
4796 4795 257
4797 4656 2034
4797 4829 1194
4797 5089 1611
4798 4791 294
4798 4730 249
4798 4898 355
4799 4794 36
4799 4819 158
4799 4844 189
4800 4268 2737
4800 4803 1377
4800 5118 829
4800 5572 1771
4801 3433 8316
4801 4591 1216
4801 5159 3615
4802 4729 282
4802 4792 182
4802 4862 231
4803 4800 1377
4803 4647 613
4803 5005 606
4804 4805 19
4804 4619 1399
4804 4808 33
4805 4804 19
4806 4795 269
4806 4830 170
4806 4835 98
4807 4722 329
4807 4813 92
4807 4867 222
4808 4804 33
4808 4861 259
4809 4679 628
4809 4840 163
4809 4843 147
4810 4811 252
4810 5418 1272
4811 4810 252
4811 4609 740
4812 4713 378
4812 4816 308
4812 4861 569
4813 4747 383
4813 4807 92
4813 4845 132
4814 4815 252
4815 4814 252
4815 4620 737
4816 4812 308
4816 4764 232
4816 4834 69
4816 4834 69
4816 4883 1060
4817 4756 248
4817 4842 82
4817 4845 359
4818 4792 150
4818 4787 239
4818 4844 136
4818 4851 118
4819 4799 158
4819 4836 388
4819 4857 239
4820 4728 369
4820 4821 32
4820 4821 32
4820 4849 225
4821 4820 32
4821 4820 32
4821 4822 27
4821 4822 28
4822 4821 27
4822 4821 28
4822 4827 15
4822 4827 15
4823 4491 1447
4823 4572 2289
4823 4893 283
4824 4743 1478
4824 4737 5270
4824 4940 766
4825 4688 552
4825 4727 855
4825 5108 1324
4826 4762 440
4826 5816 3521
4826 6263 5312
4827 4822 15
4827 4822 15
4827 4848 63
4827 4848 63
4828 4746 364
4828 4832 193
4828 4916 277
4829 4797 1194
4829 4728 594
4829 4849 139
4830 4806 170
4830 4831 130
4830 4859 365
4831 4830 130
4832 4828 193
4832 4749 301
4832 4838 314
4832 4920 280
4833 4390 1774
4833 4772 642
4833 5244 1004
4834 4816 69
4834 4816 69
4834 5127 862
4835 4806 98
4836 4837 320
4836 4819 388
4836 4873 173
4837 4836 320
4837 4786 183
4837 4871 135
4838 4832 314
4838 4753 289
4838 4924 276
4839 4611 871
4839 4611 887
4839 5280 908
4840 4809 163
4841 4793 241
4841 4987 493
4842 4784 369
4842 4817 82
4842 4854 65
4843 4732 474
4843 12066 474
4843 4809 147
4843 4850 33
4843 4866 111
4844 4818 136
4844 4799 189
4844 4857 79
4844 4860 112
4845 4817 359
4845 4813 132
4845 4852 35
4846 4847 753
4847 4846 753
4847 4795 263
4847 4904 400
4848 4827 63
4848 4827 63
4848 4897 306
4849 4829 139
4849 4820 225
4849 4858 63
4850 4742 475
4850 4843 33
4850 4864 133
4850 4870 112
4851 4818 118
4851 4860 93
4851 4878 142
4852 4845 35
4852 4867 176
4852 4891 162
4853 4766 325
4853 4876 349
4853 4880 84
4853 4984 417
4854 4842 65
4854 4859 32
4854 4891 215
4855 4111 2887
4855 4880 74
4855 4917 184
4856 4770 475
4856 4864 87
4856 4932 564
4857 4844 79
4857 4819 239
4857 4874 83
4858 4849 63
4858 4869 163
4858 5152 1161
4859 4830 365
4859 4854 32
4859 4921 195
4860 4851 93
4860 4844 112
4860 4890 177
4861 4808 259
4861 4812 569
4861 4868 23
4862 4802 231
4862 4863 135
4862 4902 109
4863 4862 135
4863 4878 71
4864 4856 87
4864 4850 133
4864 4983 640
4865 4752 530
4865 4566 2451
4865 5176 686
4866 4843 111
4866 12067 940
4866 12097 940
4867 4852 176
4867 4807 222
4867 4952 247
4868 4861 23
4868 4883 132
4868 4895 85
4869 4858 163
4870 4850 112
4870 12068 944
4870 12098 944
4871 4837 135
4871 4873 290
4871 4972 284
4872 4873 388
4872 4874 133
4872 4887 100
4873 4872 388
4873 4836 173
4873 4871 290
4873 4912 115
4874 4857 83
4874 4872 133
4874 4884 94
4874 4892 76
4875 4757 634
4875 4877 6
4876 4853 349
4876 4778 360
4876 4886 299
4876 4999 369
4877 4875 6
4877 4770 471
4877 4932 180
4877 5226 889
4878 4863 71
4878 4851 142
4878 4890 53
4879 4750 462
4879 5332 861
4879 5514 2130
4880 4855 74
4880 4853 84
4880 4975 293
4881 4626 1029
4881 4903 61
4881 5505 1289
4882 4762 2029
4882 4974 2835
4882 5145 701
4883 4868 132
4883 4885 14
4883 4816 1060
4884 4874 94
4884 4887 18
4884 4922 117
4885 4883 14
4885 4894 59
4885 4949 241
4886 4876 299
4886 4791 362
4886 4898 337
4887 4884 18
4887 4872 100
4887 4973 675
4888 4889 49
4888 4896 22
4889 4888 49
4889 4900 24
4890 4878 53
4890 4860 177
4890 4931 97
4891 4854 215
4891 4852 162
4891 4950 176
4892 4874 76
4892 4906 100
4892 4922 99
4893 4823 283
4893 4905 191
4893 4956 178
4894 4885 59
4894 4895 44
4894 4949 299
4895 4868 85
4895 4894 44
4896 4888 22
4896 4900 53
4896 4910 31
4897 4848 306
4897 4899 262
4897 4901 77
4898 4886 337
4898 4798 355
4898 4916 429
4898 5048 361
4899 4897 262
4899 4901 1
4899 4901 7
4899 4967 333
4900 4889 24
4900 4896 53
4900 4902 71
4900 4911 31
4901 4897 77
4901 4899 1
4901 4899 7
4901 5024 357
4902 4862 109
4902 4900 71
4902 4913 31
4903 4881 61
4904 4847 400
4904 4914 63
4905 4893 191
4906 4892 100
4906 4931 195
4906 4959 163
4907 4103 3286
4907 5055 392
4907 5088 440
4908 4689 1630
4909 4741 1190
4909 12074 1190
4909 5058 820
4909 12075 820
4910 4896 31
4910 4911 58
4910 4942 73
4911 4900 31
4911 4910 58
4911 4913 73
4912 4873 115
4913 4902 31
4913 4911 73
4913 4953 116
4914 4904 63
4914 4921 185
4914 4943 127
4915 4428 1864
4915 12086 330
4916 4898 429
4916 4828 277
4916 4920 193
4916 5047 326
4917 4855 184
4917 12081 227
4918 4400 1964
4918 4969 147
4918 12087 527
4919 4556 1942
4919 5004 420
4920 4916 193
4920 4832 280
4920 4924 289
4921 4914 185
4921 4859 195
4921 4943 102
4921 4950 173
4922 4892 99
4922 4884 117
4922 4964 121
4923 4772 539
4923 4968 154
4923 5192 1079
4924 4920 289
4924 4838 276
4924 4925 240
4925 4924 240
4925 4754 556
4925 5045 295
4926 4927 496
4926 4090 2678
4927 4926 496
4927 4929 24
4927 4951 147
4927 5389 810
4928 4755 561
4928 4933 482
4928 5044 291
4929 4930 473
4929 4927 24
4929 4626 4929
4929 5390 812
4930 4929 473
4930 4128 2601
4931 4890 97
4931 4906 195
4931 4942 81
4932 4877 180
4932 4856 564
4932 4983 148
4933 4928 482
4933 4759 557
4933 4934 23
4933 5092 322
4934 4933 23
4934 4760 556
4934 4935 142
4934 5011 199
4935 4934 142
4935 4763 553
4935 4936 155
4936 4935 155
4936 4937 311
4936 5015 213
4937 4936 311
4937 4757 667
4937 4986 168
4937 5000 375
4938 4939 366
4938 4961 137
4938 4988 318
4939 4938 366
4939 4941 7
4939 4941 7
4940 4824 766
4941 4939 7
4941 4939 7
4941 4944 43
4941 4995 208
4941 5043 281
4942 4910 73
4942 4931 81
4942 4953 157
4943 4914 127
4943 4921 102
4943 5020 380
4944 4945 2
4944 4945 2
4944 4941 43
4945 4944 2
4945 4944 2
4945 4947 189
4945 5003 163
4945 5266 1465
4946 4743 1126
4946 4487 2467
4946 5381 850
4947 4948 183
4947 4945 189
4947 4976 93
4948 4947 183
4948 4966 305
4948 5026 238
4949 4894 299
4949 4885 241
4949 4998 156
4950 4921 173
4950 4891 176
4950 4958 116
4951 4927 147
4951 5140 1084
4952 4867 247
4952 4958 225
4952 5036 194
4953 4913 116
4953 4942 157
4953 5038 195
4954 4955 330
4954 5010 994
4955 4954 330
4955 4957 38
4956 4893 178
4956 4960 161
4956 5363 694
4957 4955 38
4957 4965 16
4957 5005 557
4958 4950 116
4958 4952 225
4958 5020 148
4959 4906 163
4959 4964 119
4959 5023 143
4960 4956 161
4961 4938 137
4961 4995 230
4961 5039 183
4962 4963 334
4962 4965 33
4963 4962 334
4963 5007 991
4964 4959 119
4964 4922 121
4964 5022 261
4965 4962 33
4965 4957 16
4965 5012 558
4965 5034 172
4966 4948 305
4966 4985 77
4966 5049 252
4967 4899 333
4967 4781 781
4967 5093 426
4968 4923 154
4969 4918 147
4969 4975 187
4969 5091 227
4969 5106 272
4970 4788 600
4970 4691 2300
4970 4972 10
4970 4980 17
4971 4780 1344
4971 5144 980
4971 5210 431
4972 4871 284
4972 4970 10
4972 4982 17
4972 5022 824
4973 4887 675
4974 4262 3781
4974 4882 2835
4974 5365 1225
4975 4969 187
4975 4880 293
4975 5021 140
4976 4947 93
4976 5003 141
4976 5033 136
4977 4978 262
4978 4977 262
4978 4979 121
4978 5142 436
4979 4978 121
4980 4970 17
4980 4694 2310
4980 4982 10
4980 4993 26
4981 4508 2083
4981 5493 2027
4981 6005 3194
4982 4972 17
4982 4980 10
4982 4992 24
4982 5057 1382
4983 4932 148
4983 4864 640
4983 5108 243
4984 4853 417
4984 4999 36
4984 5021 87
4985 4966 77
4985 5026 150
4985 5098 261
4986 4937 168
4986 5016 208
4986 5101 244
4986 5128 387
4987 4841 493
4987 4989 9
4988 4938 318
4988 5115 277
4988 5131 281
4989 4987 9
4989 5093 282
4990 4991 3
4990 4994 3
4991 4990 3
4991 5006 178
4991 5013 74
4992 4982 24
4992 12099 402
4993 4980 26
4993 12100 401
4994 4990 3
4994 5028 100
4995 4941 208
4995 4961 230
4995 5039 192
4995 5100 229
4996 4997 145
4996 5151 319
4997 4996 145
4997 12074 107
4998 4949 156
4998 5127 947
4998 5156 564
4999 4984 36
4999 4876 369
4999 5046 418
5000 4937 375
5000 5128 296
5001 5002 145
5001 12075 108
5002 5001 145
5002 5169 318
5003 4976 141
5003 4945 163
5003 5031 93
5004 4919 420
5004 5035 143
5004 5198 624
5005 4957 557
5005 4803 606
5005 5012 12
5005 5069 1804
5006 4991 178
5006 5028 105
5006 5089 154
5007 5008 13
5007 4963 991
5008 5007 13
5008 5014 38
5008 5103 216
5009 5010 48
5009 5014 10
5009 5019 359
5009 5019 64
5010 5009 48
5010 4954 994
5011 4934 199
5011 5015 223
5011 5090 118
5012 4965 558
5012 5005 12
5012 5086 1806
5012 5630 1134
5012 5632 1139
5013 4991 74
5013 5113 261
5014 5009 10
5014 5008 38
5014 5042 214
5014 5103 183
5015 5011 223
5015 4936 213
5015 5016 113
5015 5173 316
5016 5015 113
5016 4986 208
5016 5017 14
5016 5101 176
5017 5016 14
5018 4769 747
5018 5032 69
5018 5083 100
5019 5009 359
5019 5009 64
5019 5029 160
5020 4943 380
5020 4958 148
5020 5036 247
5021 4975 140
5021 4984 87
5021 5025 3
5021 5136 198
5022 4964 261
5022 4972 824
5022 5023 91
5023 4959 143
5023 5022 91
5023 5038 464
5024 4901 357
5024 5142 505
5024 5148 261
5025 5021 3
5025 5050 37
5026 4985 150
5026 4948 238
5026 5041 82
5026 5119 303
5027 4773 779
5027 12082 779
5027 5032 23
5027 5037 56
5028 4994 100
5028 5006 105
5028 5073 56
5029 5019 160
5029 5088 314
5030 4752 1066
5030 5156 1209
5030 5514 821
5031 5003 93
5031 5043 37
5031 5053 33
5031 5061 28
5032 5027 23
5032 5018 69
5032 5037 46
5032 5056 48
5032 5083 46
5032 5107 109
5033 4976 136
5033 5041 181
5033 5053 99
5033 5110 126
5034 4965 172
5034 5117 199
5034 5449 740
5035 5004 143
5035 5238 478
5035 5350 682
5036 4952 194
5036 5020 247
5036 5038 17
5036 5058 17
5037 5027 56
5037 5032 46
5037 5040 4
5038 5036 17
5038 4953 195
5038 5023 464
5038 5057 15
5039 4995 192
5039 4961 183
5039 5115 212
5039 5179 264
5040 5037 4
5040 5056 15
5040 5078 74
5041 5026 82
5041 5033 181
5041 5178 210
5042 5014 214
5042 5094 286
5043 5031 37
5043 4941 281
5043 5071 26
5043 5081 30
5044 4928 291
5044 5045 10
5044 5059 10
5044 5102 453
5045 4925 295
5045 5044 10
5045 5047 783
5045 5060 9
5046 4999 418
5046 5051 82
5046 5048 372
5047 4916 326
5047 5045 783
5047 5048 404
5047 5063 10
5048 4898 361
5048 5047 404
5048 5046 372
5048 5068 12
5049 4966 252
5049 5098 106
5049 5161 233
5050 5051 290
5050 5025 37
5051 5050 290
5051 5046 82
5051 5054 147
5052 4099 3683
5052 5055 12
5052 5064 9
5052 5369 592
5053 5033 99
5053 5031 33
5053 5061 18
5053 5080 20
5054 5051 147
5054 12084 431
5055 5052 12
5055 4907 392
5055 5066 9
5055 5088 189
5056 5040 15
5056 5032 48
5056 5079 41
5057 5038 15
5057 4982 1382
5057 5058 17
5057 5301 348
5058 4909 820
5058 12075 820
5058 5036 17
5058 5057 17
5058 5305 354
5059 5044 10
5059 5060 4
5059 5067 5
5059 5105 440
5060 5045 9
5060 5059 4
5060 5062 459
5060 5067 5
5061 5053 18
5061 5031 28
5061 5071 16
5061 5084 21
5061 4734 998
5061 4744 998
5062 5060 459
5062 5065 332
5062 5492 773
5063 5047 10
5063 5065 2
5064 5052 9
5064 5066 12
5064 5121 130
5064 5121 349
5065 5063 2
5065 5062 332
5065 5070 401
5065 5311 369
5066 5064 12
5066 5055 9
5066 5094 229
5066 5168 211
5067 5060 5
5067 5059 5
5067 5224 287
5068 5048 12
5068 5070 2
5069 5005 1804
5069 12087 899
5070 5068 2
5070 5065 401
5070 5074 177
5070 5288 331
5071 5061 16
5071 5043 26
5071 5081 18
5071 5087 23
5071 4733 1003
5071 4739 1003
5072 5073 31
5072 5095 111
5072 5097 75
5072 5384 540
5073 5072 31
5073 5028 56
5073 5109 130
5074 5070 177
5074 5075 40
5074 5282 323
5075 5074 40
5075 5076 227
5075 5082 123
5076 5077 157
5076 5075 227
5076 5099 314
5077 5076 157
5077 12088 433
5078 5040 74
5078 5210 815
5078 12093 815
5079 5056 41
5079 5085 36
5079 5107 134
5080 5053 20
5080 5084 16
5081 5071 18
5081 5043 30
5081 5087 44
5081 5100 137
5082 5075 123
5082 5136 469
5082 5278 306
5083 5032 46
5083 5018 100
5083 5456 610
5084 5080 16
5084 5061 21
5084 5087 15
5084 5137 145
5085 5079 36
5085 5114 291
5086 5012 1806
5086 12091 899
5087 5084 15
5087 5071 23
5087 5081 44
5087 5125 112
5088 5055 189
5088 4907 440
5088 5029 314
5089 5006 154
5089 5095 12
5089 4797 1611
5090 5011 118
5090 5112 66
5090 5135 123
5091 4969 227
5091 5106 51
5091 5489 620
5092 4933 322
5092 5102 67
5092 5111 55
5093 4967 426
5093 4989 282
5093 5096 19
5094 5066 229
5094 5042 286
5094 5168 384
5095 5089 12
5095 5072 111
5095 5415 535
5096 5093 19
5096 5138 333
5096 5198 322
5097 5072 75
5097 5123 82
5097 5230 266
5098 5049 106
5098 4985 261
5098 5119 65
5098 5158 128
5099 5076 314
5099 5201 66
5100 5081 137
5100 4995 229
5100 5157 134
5100 5179 174
5101 5016 176
5101 4986 244
5101 5116 36
5102 5044 453
5102 5092 67
5102 5111 55
5103 5014 183
5103 5008 216
5103 5536 1315
5104 4776 3167
5105 5059 440
5105 5120 81
5105 5143 87
5106 5091 51
5106 4969 272
5106 5202 302
5107 5079 134
5107 5032 109
5107 5455 534
5108 4983 243
5108 4825 1324
5108 5200 315
5109 5073 130
5109 5113 15
5109 5123 58
5110 5033 126
5110 5137 103
5110 5217 175
5111 5102 55
5111 5092 55
5111 5112 20
5111 5120 21
5112 5111 20
5112 5090 66
5112 5120 20
5112 5135 71
5113 5109 15
5113 5013 261
5113 5181 126
5114 5085 291
5114 5221 523
5114 5227 159
5115 5039 212
5115 4988 277
5115 5141 227
5116 5101 36
5116 5173 93
5116 5185 382
5117 5034 199
5117 5124 31
5117 5494 701
5118 4800 829
5118 5122 8
5118 5124 345
5119 5098 65
5119 5026 303
5119 5158 131
5119 5196 151
5120 5105 81
5120 5111 21
5120 5112 20
5120 5143 65
5120 5155 109
5121 5064 130
5121 5064 349
5121 5369 385
5122 5118 8
5122 5126 332
5122 5501 569
5123 5097 82
5123 5109 58
5123 5181 96
5124 5118 345
5124 5117 31
5124 5126 13
5125 5087 112
5125 5157 140
5125 5245 182
5126 5122 332
5126 5124 13
5126 5522 715
5127 4998 947
5127 4834 862
5127 5146 75
5128 4986 387
5128 5000 296
5128 5185 86
5129 5130 10
5129 5131 16
5129 5133 9
5129 5256 2509
5129 12101 2509
5130 5129 10
5131 4988 281
5131 5129 16
5131 5132 9
5131 5141 25
5132 5131 9
5133 5129 9
5133 5150 133
5133 5194 100
5134 4126 6581
5134 5216 697
5135 5112 71
5135 5090 123
5135 5263 268
5136 5021 198
5136 5082 469
5136 5382 481
5137 5110 103
5137 5084 145
5137 5239 147
5138 5096 333
5138 5149 43
5138 5149 43
5138 5273 359
5139 4775 2316
5139 5144 11
5139 5318 1264
5140 4951 1084
5141 5115 227
5141 5131 25
5141 5203 96
5141 5235 137
5142 4978 436
5142 5024 505
5142 5164 25
5143 5105 87
5143 5120 65
5143 5155 141
5143 5212 96
5144 5139 11
5144 4971 980
5144 5204 246
5144 5421 393
5145 4882 701
5146 5127 75
5146 5251 152
5146 5272 335
5147 5148 38
5148 5147 38
5148 5024 261
5148 5334 448
5149 5138 43
5149 5138 43
5149 5162 14
5149 5215 90
5150 5151 6
5150 5133 133
5150 5188 44
5151 5150 6
5151 4996 319
5152 4858 1161
5152 5164 301
5152 5211 96
5153 5154 51
5153 5160 26
5153 12096 5
5154 5153 51
5155 5143 141
5155 5120 109
5155 5277 229
5156 5030 1209
5156 4998 564
5156 5163 9
5157 5125 140
5157 5100 134
5157 5269 172
5158 5098 128
5158 5119 131
5158 5349 235
5159 4801 3615
5160 5153 26
5161 5049 233
5161 5261 273
5161 5349 369
5162 5149 14
5162 5174 184
5162 5215 72
5163 5156 9
5163 5272 459
5163 5359 282
5164 5152 301
5164 5142 25
5164 5167 3
5164 5172 2
5165 5166 1347
5165 5200 56
5165 5296 455
5166 5165 1347
5167 5164 3
5167 5172 4
5167 5175 6
5168 5066 211
5168 5094 384
5168 5529 648
5169 5170 24
5169 5002 318
5170 5169 24
5170 5171 90
5170 5191 25
5171 5170 90
5171 5180 299
5171 5195 31
5172 5164 2
5172 5167 4
5172 5175 3
5173 5015 316
5173 5116 93
5173 5185 441
5173 5263 148
5174 5162 184
5174 5254 373
5175 5172 3
5175 5167 6
5175 5240 163
5175 5385 372
5176 4865 686
5177 5178 15
5178 5177 15
5178 5041 210
5178 5184 7
5178 5187 22
5179 5100 174
5179 5039 264
5179 5269 165
5179 5347 307
5180 5171 299
5180 5186 18
5180 5247 89
5181 5123 96
5181 5113 126
5181 5182 59
5181 5230 153
5181 5228 532
5182 5181 59
5183 5184 86
5183 5197 62
5184 5183 86
5184 5178 7
5184 5187 13
5185 5116 382
5185 5128 86
5185 5173 441
5186 5180 18
5186 5295 146
5186 5305 589
5187 5184 13
5187 5178 22
5187 5199 17
5187 5217 79
5188 5150 44
5188 5191 5
5188 5194 35
5188 5205 24
5189 5190 156
5190 5189 156
5191 5188 5
5191 5170 25
5191 5193 5
5191 5207 25
5192 4555 2130
5192 4923 1079
5192 5931 2198
5193 5191 5
5194 5133 100
5194 5188 35
5194 5203 13
5194 5205 22
5195 5171 31
5195 5206 73
5195 5241 66
5196 5119 151
5196 5197 12
5196 5340 196
5196 5340 477
5197 5196 12
5197 5183 62
5198 5004 624
5198 5096 322
5198 5273 161
5199 5187 17
5200 5165 56
5200 5108 315
5200 5360 472
5201 5202 168
5201 5099 66
5202 5201 168
5202 5106 302
5202 5388 343
5203 5141 96
5203 5194 13
5203 5208 10
5203 5219 24
5204 5144 246
5204 5286 113
5204 5327 1020
5205 5194 22
5205 5188 24
5205 5207 5
5205 5209 5
5205 5219 13
5206 5195 73
5206 5213 25
5206 5252 82
5207 5205 5
5207 5191 25
5207 5209 0
5208 5203 10
5209 5205 5
5209 5207 0
5209 5220 12
5209 5241 92
5210 4971 431
5210 5078 815
5210 12093 815
5210 5218 5
5210 5343 526
5211 5152 96
5211 5228 27
5212 5143 96
5212 5224 599
5212 5688 1079
5213 5206 25
5213 5214 41
5213 5231 113
5214 5213 41
5215 5149 90
5215 5162 72
5215 5333 218
5216 5134 697
5216 5225 485
5216 5233 61
5217 5187 79
5217 5110 175
5217 5222 15
5218 5210 5
5218 5221 5
5219 5203 24
5219 5205 13
5219 5220 5
5219 5298 127
5220 5219 5
5220 5209 12
5220 5257 150
5220 5302 126
5221 5218 5
5221 5114 523
5221 5346 521
5221 5443 351
5222 5217 15
5222 5223 11
5222 5229 18
5222 5242 77
5223 5222 11
5224 5067 287
5224 5212 599
5224 5672 1026
5225 5216 485
5226 4877 889
5226 5296 113
5226 5427 390
5227 5114 159
5227 5425 352
5227 5451 491
5228 5211 27
5228 5181 532
5228 5240 178
5228 5424 329
5229 5222 18
5230 5097 266
5230 5181 153
5230 5437 567
5231 5213 113
5231 5232 63
5231 5247 83
5231 5271 56
5232 5231 63
5233 5216 61
5233 5234 62
5233 5321 305
5234 5233 62
5235 5141 137
5235 5298 130
5235 5312 109
5236 5237 44
5236 5435 1836
5237 5236 44
5237 5330 222
5238 5035 478
5239 5137 147
5239 5242 24
5239 5245 9
5239 5246 9
5240 5228 178
5240 5175 163
5240 5276 72
5240 5348 148
5241 5209 92
5241 5195 66
5241 5252 61
5242 5222 77
5242 5239 24
5242 5246 12
5242 5258 34
5243 5244 41
5244 5243 41
5244 4833 1004
5244 5249 351
5244 5259 43
5245 5239 9
5245 5125 182
5245 5248 9
5245 5253 35
5246 5242 12
5246 5239 9
5246 5248 9
5246 5260 31
5247 5231 83
5247 5180 89
5247 5291 58
5248 5246 9
5248 5245 9
5248 5253 26
5248 5262 28
5249 5250 127
5249 5244 351
5249 5259 369
5250 5249 127
5250 5324 193
5251 5146 152
5251 5324 79
5251 5422 530
5252 5241 61
5252 5206 82
5252 5283 118
5253 5248 26
5253 5245 35
5253 5262 41
5253 5414 342
5254 5174 373
5254 5353 207
5255 5256 9
5256 5255 9
5256 5129 2509
5256 12101 2509
5256 5266 10
5256 5287 61
5257 5220 150
5257 5268 10
5257 5292 121
5258 5242 34
5258 5260 15
5259 5244 43
5259 5249 369
5260 5258 15
5260 5246 31
5260 5262 8
5260 5575 565
5261 5161 273
5261 5281 30
5261 5285 31
5262 5260 8
5262 5248 28
5262 5253 41
5262 5495 358
5263 5135 268
5263 5173 148
5263 5277 13
5263 5371 203
5264 5265 9
5264 5276 8
5265 5264 9
5266 5256 10
5266 4945 1465
5266 5281 9
5266 5300 63
5267 5268 18
5268 5267 18
5268 5257 10
5268 5274 10
5268 5352 108
5269 5157 172
5269 5179 165
5269 5441 413
5270 5271 20
5271 5270 20
5271 5231 56
5271 5275 10
5271 5290 21
5272 5163 459
5272 5146 335
5272 5393 342
5273 5138 359
5273 5198 161
5273 5358 115
5274 5268 10
5275 5271 10
5276 5240 72
5276 5264 8
5276 5410 216
5277 5155 229
5277 5263 13
5277 5374 206
5277 5761 1196
5278 5279 360
5278 5082 306
5278 5282 126
5278 5503 395
5279 5278 360
5279 5299 125
5279 5481 335
5280 4839 908
5280 5500 355
5280 5500 356
5281 5266 9
5281 5261 30
5281 5285 7
5281 5307 65
5282 5278 126
5282 5074 323
5282 5288 178
5282 5478 313
5283 5252 118
5283 5284 16
5283 5290 39
5283 5292 11
5284 5283 16
5285 5281 7
5285 5261 31
5285 5289 6
5285 5316 38
5286 5204 113
5286 5355 301
5286 5458 291
5287 5256 61
5287 5293 14
5287 5300 12
5288 5282 178
5288 5070 331
5288 5311 345
5288 5537 537
5289 5285 6
5290 5283 39
5290 5271 21
5290 5303 70
5291 5247 58
5291 5295 12
5291 5303 32
5291 5306 15
5292 5257 121
5292 5283 11
5292 5297 23
5292 5315 31
5293 5294 7
5293 5287 14
5293 5304 11
5293 5745 1751
5293 12110 1751
5294 5293 7
5295 5291 12
5295 5186 146
5295 5310 15
5295 5313 26
5296 5226 113
5296 5165 455
5296 5360 88
5297 5292 23
5297 5315 21
5297 5319 88
5298 5235 130
5298 5219 127
5298 5302 7
5298 5362 106
5299 5279 125
5299 5466 359
5299 5474 289
5300 5287 12
5300 5266 63
5300 5304 12
5300 5307 8
5301 5057 348
5301 5308 9
5301 5320 997
5302 5298 7
5302 5220 126
5302 5357 126
5302 5368 109
5303 5290 70
5303 5291 32
5303 5306 17
5303 5319 14
5304 5293 11
5304 5300 12
5304 5314 8
5304 5747 1742
5305 5186 589
5305 5058 354
5305 5308 11
5305 5399 154
5306 5303 17
5306 5291 15
5306 5309 5
5306 5325 15
5307 5300 8
5307 5281 65
5307 5314 11
5307 5331 18
5308 5305 11
5308 5301 9
5308 5328 999
5308 5401 157
5309 5306 5
5309 5310 6
5310 5309 6
5310 5295 15
5310 5313 10
5310 5326 12
5311 5288 345
5311 5065 369
5311 5573 772
5312 5235 109
5312 5361 102
5312 5362 129
5313 5310 10
5313 5295 26
5313 5329 12
5313 5399 606
5314 5304 8
5314 5307 11
5314 5335 15
5314 5754 1743
5315 5292 31
5315 5297 21
5315 5323 7
5315 5394 170
5316 5285 38
5316 5317 9
5316 5331 42
5316 5342 21
5317 5316 9
5318 5139 1264
5318 5320 10
5318 5327 7
5319 5297 88
5319 5303 14
5319 5325 15
5319 5337 13
5320 5318 10
5320 5328 7
5320 5301 997
5321 5322 90
5321 5330 15
5321 5233 305
5322 5321 90
5323 5315 7
5324 5251 79
5324 5250 193
5324 5468 412
5325 5319 15
5325 5306 15
5325 5326 13
5325 5339 13
5326 5325 13
5326 5310 12
5326 5329 11
5326 5341 15
5327 5318 7
5327 5204 1020
5327 5328 9
5327 5516 352
5328 5320 7
5328 5327 9
5328 5308 999
5328 5515 348
5329 5326 11
5329 5313 12
5329 5341 26
5329 5364 256
5330 5321 15
5330 5237 222
5330 5413 246
5331 5307 18
5331 5316 42
5331 5335 9
5331 5345 17
5332 4879 861
5333 5215 218
5333 5338 12
5333 5338 12
5333 5376 173
5334 5148 448
5334 5338 19
5334 5385 188
5335 5314 15
5335 5331 9
5335 5336 5
5336 5335 5
5337 5319 13
5337 5339 15
5338 5334 19
5338 5333 12
5338 5333 12
5339 5337 15
5339 5325 13
5339 5341 13
5339 5452 222
5340 5196 196
5340 5349 147
5340 5196 477
5340 5498 331
5341 5339 13
5341 5326 15
5341 5329 26
5341 5453 221
5342 5316 21
5342 5345 37
5342 5539 383
5343 5344 230
5343 5210 526
5343 5375 231
5344 5343 230
5345 5331 17
5345 5342 37
5345 5532 363
5346 5221 521
5346 5373 163
5346 5571 456
5347 5179 307
5348 5240 148
5348 5396 232
5348 5409 347
5349 5158 235
5349 5340 147
5349 5161 369
5350 5035 682
5350 5504 388
5351 5352 21
5352 5351 21
5352 5268 108
5352 5354 5
5352 5370 29
5353 5254 207
5353 5412 162
5354 5352 5
5355 5356 105
5355 5286 301
5355 5506 296
5356 5355 105
5357 5302 126
5357 5366 34
5357 5398 105
5358 5273 115
5358 5480 252
5359 5163 282
5359 5393 73
5359 5698 868
5360 5296 88
5360 5200 472
5360 5387 118
5361 5312 102
5361 5386 74
5361 5403 146
5362 5312 129
5362 5298 106
5362 5368 8
5362 5403 104
5363 4956 694
5363 5563 436
5363 5650 1038
5364 5329 256
5364 5380 137
5364 5464 349
5365 4974 1225
5366 5357 34
5366 5367 19
5366 5370 8
5366 5372 10
5367 5366 19
5368 5362 8
5368 5302 109
5368 5398 127
5368 5406 103
5369 5052 592
5369 5121 385
5369 5526 341
5370 5366 8
5370 5352 29
5370 5394 96
5371 5263 203
5371 5870 1495
5372 5366 10
5373 5346 163
5373 5379 75
5373 5499 239
5374 5277 206
5374 5878 1498
5375 5343 231
5375 5379 11
5375 5421 296
5376 5333 173
5376 5377 3
5376 5407 412
5377 5376 3
5377 5395 112
5377 5402 147
5378 3947 5800
5378 6112 1657
5378 6306 4567
5379 5375 11
5379 5373 75
5379 5426 296
5379 5521 278
5380 5364 137
5380 5383 45
5380 5445 133
5381 4946 850
5381 5450 134
5381 5547 2893
5382 5136 481
5382 5400 42
5382 5459 143
5383 5380 45
5383 5397 104
5383 5446 115
5384 5072 540
5384 5416 101
5384 5437 834
5385 5175 372
5385 5334 188
5385 5402 192
5386 5361 74
5386 5441 127
5386 5476 175
5387 5360 118
5387 5427 237
5387 6190 2098
5388 5202 343
5388 5400 545
5388 6021 545
5388 12094 545
5389 4927 810
5389 5553 150
5390 4929 812
5390 5557 150
5391 5392 2451
5392 5391 2451
5393 5359 73
5393 5272 342
5393 5422 155
5394 5370 96
5394 5315 170
5394 5428 110
5394 5439 102
5395 5377 112
5396 5348 232
5396 5424 65
5396 5507 287
5397 5383 104
5397 5404 68
5397 5460 110
5398 5368 127
5398 5357 105
5398 5439 131
5398 5447 111
5399 5313 606
5399 5305 154
5399 5401 12
5399 5404 15
5400 5382 42
5400 5388 545
5400 6021 545
5400 12094 545
5401 5399 12
5401 5308 157
5401 5408 13
5401 5515 1042
5402 5385 192
5402 5377 147
5403 5361 146
5403 5362 104
5403 5406 8
5403 5476 141
5404 5397 68
5404 5399 15
5404 5405 5
5404 5483 120
5405 5404 5
5405 5408 7
5406 5403 8
5406 5368 103
5406 5447 123
5406 5461 115
5407 5376 412
5407 5411 242
5408 5405 7
5408 5401 13
5408 5470 444
5408 5582 359
5409 5410 1
5409 5348 347
5409 5507 289
5410 5409 1
5410 5276 216
5410 5411 599
5411 5407 242
5411 5410 599
5411 5907 1470
5412 5353 162
5412 5480 178
5413 5330 246
5413 5502 664
5414 5253 342
5414 5486 119
5414 5510 333
5415 5095 535
5415 5416 1
5415 5417 2
5416 5415 1
5416 5384 101
5416 5417 2
5416 5538 934
5417 5415 2
5417 5416 2
5417 5432 184
5418 4810 1272
5418 5423 27
5418 5432 42
5419 5420 2252
5420 5419 2252
5420 5497 212
5421 5144 393
5421 5375 296
5421 5426 15
5421 5458 233
5422 5251 530
5422 5393 155
5422 5591 618
5423 5418 27
5423 5433 22
5424 5228 329
5424 5396 65
5424 5431 49
5425 5227 352
5425 5436 267
5425 5451 274
5425 5528 192
5426 5421 15
5426 5379 296
5426 5448 122
5427 5226 390
5427 5387 237
5427 5898 1261
5428 5394 110
5428 5465 93
5428 5488 97
5429 5430 86
5429 5440 13
5429 5450 529
5430 5429 86
5431 5424 49
5431 5437 55
5431 5538 224
5432 5418 42
5432 5417 184
5432 5442 22
5433 5423 22
5433 5438 5
5433 5574 1116
5434 5435 2143
5434 5444 19
5435 5434 2143
5435 5236 1836
5435 5563 1164
5436 5425 267
5436 5443 204
5436 5548 234
5437 5230 567
5437 5431 55
5437 5384 834
5438 5433 5
5438 5442 45
5438 5738 762
5439 5398 131
5439 5394 102
5439 5485 85
5439 5488 114
5440 5429 13
5440 5544 237
5440 5622 1010
5441 5269 413
5441 5386 127
5441 5510 159
5442 5432 22
5442 5438 45
5442 5706 692
5443 5221 351
5443 5436 204
5443 5613 404
5444 5434 19
5444 5502 293
5444 5620 989
5445 5380 133
5445 5446 28
5445 5564 244
5446 5445 28
5446 5383 115
5446 5457 120
5447 5406 123
5447 5398 111
5447 5485 134
5447 5461 219
5448 5426 122
5448 5469 110
5448 5521 590
5449 5034 740
5449 5494 153
5449 5610 416
5450 5381 134
5450 5429 529
5450 5463 28
5450 5463 28
5451 5425 274
5451 5227 491
5451 5454 38
5452 5339 222
5452 5453 12
5452 5465 40
5452 5471 33
5453 5452 12
5453 5341 221
5453 5464 33
5453 5472 32
5454 5451 38
5454 5455 47
5454 5462 41
5455 5454 47
5455 5107 534
5455 5456 11
5455 5462 18
5456 5455 11
5456 5083 610
5456 5467 18
5456 5542 328
5457 5446 120
5457 5460 8
5457 5517 115
5458 5286 291
5458 5421 233
5458 5469 15
5458 5506 291
5459 5382 143
5459 5466 112
5459 5777 717
5460 5457 8
5460 5397 110
5460 5483 64
5461 5406 115
5461 5487 32
5461 5447 219
5462 5454 41
5462 5455 18
5462 5467 10
5462 5496 47
5463 5450 28
5463 5450 28
5463 6571 3105
5464 5453 33
5464 5364 349
5464 5475 13
5465 5428 93
5465 5452 40
5465 5471 14
5465 5477 15
5466 5459 112
5466 5299 359
5466 5473 151
5466 5479 15
5467 5462 10
5467 5456 18
5467 5496 47
5467 5555 325
5468 5324 412
5468 5628 692
5469 5458 15
5469 5448 110
5469 5513 298
5469 5631 414
5470 5408 444
5470 5520 599
5470 5531 169
5471 5465 14
5471 5452 33
5471 5482 10
5472 5453 32
5472 5475 13
5472 5484 10
5473 5466 151
5473 5474 8
5473 5590 279
5474 5473 8
5474 5299 289
5474 5481 112
5475 5472 13
5475 5464 13
5475 5484 23
5475 5564 422
5476 5386 175
5476 5403 141
5476 5487 10
5476 5560 209
5477 5465 15
5477 5482 13
5478 5282 313
5479 5466 15
5479 5587 269
5480 5358 252
5480 5412 178
5480 5504 579
5481 5474 112
5481 5279 335
5481 5490 119
5481 5592 278
5482 5477 13
5482 5471 10
5482 5484 11
5482 5512 76
5483 5460 64
5483 5404 120
5483 5519 86
5484 5482 11
5484 5472 10
5484 5475 23
5484 5921 936
5485 5447 134
5485 5439 85
5485 5509 118
5485 5577 255
5486 5414 119
5486 5518 159
5486 5607 323
5487 5476 10
5487 5461 32
5487 5567 204
5487 5577 254
5488 5439 114
5488 5428 97
5488 5509 84
5488 5511 116
5489 5091 620
5489 6017 1072
5489 12091 725
5489 12090 641
5490 5481 119
5490 5491 297
5490 5503 197
5490 5596 284
5491 5490 297
5492 5062 773
5493 4981 2027
5493 5656 894
5494 5117 701
5494 5449 153
5494 5522 670
5494 5534 96
5495 5262 358
5495 5576 207
5495 5602 339
5496 5462 47
5496 5467 47
5496 5593 391
5497 5420 212
5497 5505 38
5498 5340 331
5498 5508 101
5498 5569 162
5499 5373 239
5500 5280 355
5500 5280 356
5500 6489 1841
5501 5122 569
5501 5522 189
5501 5644 391
5502 5413 664
5502 5444 293
5502 5549 456
5503 5490 197
5503 5278 395
5503 5537 100
5504 5350 388
5504 5480 579
5505 4881 1289
5505 5497 38
5505 5770 760
5506 5355 296
5506 5458 291
5506 5552 328
5507 5396 287
5507 5409 289
5507 5538 249
5508 5498 101
5509 5485 118
5509 5488 84
5509 5511 237
5510 5414 333
5510 5441 159
5510 5560 173
5511 5488 116
5511 5512 37
5511 5509 237
5512 5511 37
5512 5482 76
5512 5662 393
5513 5469 298
5513 5545 229
5513 5578 154
5514 4879 2130
5514 5030 821
5514 5523 26
5514 5523 26
5515 5401 1042
5515 5328 348
5515 5516 10
5515 5520 16
5516 5515 10
5516 5327 352
5516 5524 16
5516 5558 403
5517 5457 115
5517 5519 64
5517 5581 174
5518 5486 159
5519 5517 64
5519 5483 86
5519 5597 206
5520 5470 599
5520 5515 16
5520 5524 11
5520 5674 404
5521 5379 278
5521 5448 590
5521 5598 206
5522 5501 189
5522 5126 715
5522 5494 670
5522 5527 6
5522 5540 116
5523 5514 26
5523 5514 26
5523 6347 1831
5524 5520 11
5524 5516 16
5524 5568 406
5524 5709 476
5525 5526 52
5525 5535 35
5525 6115 2234
5526 5525 52
5526 5369 341
5526 5529 11
5526 5917 841
5527 5522 6
5527 5541 40
5528 5425 192
5528 5548 197
5528 5593 185
5529 5526 11
5529 5168 648
5529 5536 15
5529 5915 834
5530 5531 120
5531 5530 120
5531 5470 169
5531 5668 402
5532 5345 363
5532 5533 162
5532 5652 324
5533 5532 162
5533 12098 369
5534 5494 96
5535 5525 35
5535 5625 359
5535 5635 360
5536 5529 15
5536 5103 1315
5536 5583 410
5537 5503 100
5537 5288 537
5537 5573 115
5537 5608 290
5538 5431 224
5538 5507 249
5538 5416 934
5539 5342 383
5539 5546 352
5539 5562 47
5540 5522 116
5540 5566 43
5540 5624 442
5541 5527 40
5541 5566 117
5541 5589 132
5541 5619 403
5542 5456 328
5542 5543 15
5542 5555 26
5543 5542 15
5543 5574 193
5544 5440 237
5545 5513 229
5545 5565 107
5545 5580 140
5546 5539 352
5546 5569 360
5546 5666 325
5547 5381 2893
5548 5436 234
5548 5528 197
5548 5616 199
5549 5502 456
5550 5551 128
5551 5550 128
5551 5609 254
5551 5660 838
5552 5506 328
5552 5558 111
5553 5554 163
5553 5389 150
5554 5553 163
5554 6388 1608
5555 5467 325
5555 5542 26
5555 5579 71
5556 5557 165
5556 6378 1594
5557 5556 165
5557 5390 150
5558 5516 403
5558 5559 133
5558 5552 111
5559 5558 133
5559 12102 434
5560 5510 173
5560 5476 209
5560 5567 16
5560 5699 416
5561 5562 222
5561 12097 374
5562 5561 222
5562 5539 47
5562 5654 265
5563 5435 1164
5563 5363 436
5563 6366 1638
5564 5475 422
5564 5445 244
5564 5581 137
5565 5545 107
5565 5568 97
5566 5541 117
5566 5540 43
5566 5594 106
5567 5560 16
5567 5487 204
5567 5617 246
5567 5912 800
5568 5524 406
5568 5565 97
5568 5586 138
5569 5546 360
5569 5498 162
5569 5570 27
5570 5569 27
5570 5575 80
5571 5346 456
5572 4800 1771
5572 5583 871
5572 5644 624
5572 5711 384
5573 5537 115
5573 5311 772
5573 5641 290
5574 5543 193
5574 5433 1116
5574 5584 60
5575 5570 80
5575 5260 565
5575 5576 7
5575 5851 690
5576 5575 7
5576 5495 207
5576 5611 154
5577 5487 254
5577 5485 255
5577 5617 174
5577 5662 469
5578 5513 154
5578 5626 373
5578 5712 497
5579 5555 71
5579 5595 88
5579 5746 953
5580 5545 140
5580 5629 142
5581 5564 137
5581 5517 174
5581 5597 136
5582 5408 359
5582 5585 197
5582 5741 382
5583 5536 410
5583 5572 871
5583 5713 338
5584 5574 60
5584 5599 65
5584 5752 585
5585 5582 197
5585 5605 166
5585 5668 419
5586 5568 138
5586 5729 332
5587 5479 269
5587 5588 99
5587 5684 238
5588 5587 99
5588 5590 55
5588 5686 236
5589 5541 132
5589 5603 27
5589 5640 145
5590 5588 55
5590 5473 279
5590 5592 94
5591 5422 618
5591 5643 162
5591 5728 414
5592 5590 94
5592 5481 278
5592 5596 120
5592 5689 261
5593 5528 185
5593 5496 391
5593 5616 240
5594 5566 106
5594 5603 117
5594 5624 305
5595 5579 88
5595 5599 53
5595 5751 974
5596 5592 120
5596 5490 284
5596 5608 105
5597 5581 136
5597 5519 206
5597 5740 329
5598 5521 206
5598 5631 523
5598 5657 158
5599 5584 65
5599 5595 53
5599 5755 595
5600 5601 21
5600 5604 27
5600 5606 36
5601 5600 21
5602 5495 339
5603 5589 27
5603 5594 117
5603 5692 398
5604 5600 27
5604 5691 305
5605 5585 166
5606 5600 36
5606 5612 121
5606 5621 56
5607 5486 323
5607 5637 198
5607 5664 148
5608 5596 105
5608 5537 290
5608 5641 116
5608 5689 392
5609 5551 254
5610 5449 416
5610 5618 31
5610 5630 127
5611 5576 154
5611 5646 311
5611 5852 536
5612 5606 121
5612 5633 52
5613 5443 404
5613 5616 208
5613 5723 245
5614 5615 13
5614 5746 803
5615 5614 13
5615 12129 174
5615 12126 302
5616 5613 208
5616 5548 199
5616 5593 240
5617 5567 246
5617 5577 174
5617 5928 600
5618 5610 31
5618 5639 135
5618 5683 261
5619 5541 403
5619 5634 116
5619 5681 171
5620 5444 989
5621 5606 56
5621 5633 147
5621 5648 57
5622 5440 1010
5622 5623 500
5622 5695 173
5623 5622 500
5624 5540 442
5624 5594 305
5624 5683 152
5625 5535 359
5625 5635 36
5625 5636 149
5626 5578 373
5626 5627 186
5626 5629 20
5627 5626 186
5628 5468 692
5628 5682 168
5629 5580 142
5629 5626 20
5629 5733 224
5630 5610 127
5630 5012 1134
5630 5632 18
5630 5639 28
5631 5469 414
5631 5598 523
5631 5693 500
5632 5630 18
5632 5012 1139
5632 5642 28
5633 5621 147
5633 5612 52
5633 5648 231
5634 5619 116
5634 5640 44
5634 5659 69
5635 5625 36
5635 5535 360
5635 5724 192
5636 5625 149
5636 5649 112
5636 5696 228
5637 5638 173
5637 5607 198
5637 5646 90
5637 5661 62
5638 5637 173
5639 5618 135
5639 5630 28
5639 5642 17
5639 5969 606
5640 5634 44
5640 5589 145
5640 5659 117
5641 5608 116
5641 5573 290
5641 5890 613
5642 5639 17
5642 5632 28
5642 5970 603
5643 5591 162
5644 5572 624
5644 5501 391
5644 5645 0
5644 5861 596
5645 5644 0
5645 5911 596
5646 5611 311
5646 5647 83
5646 5637 90
5647 5646 83
5648 5621 57
5648 5633 231
5648 5671 62
5649 5636 112
5649 5651 8
5649 5655 140
5650 5363 1038
5650 6115 1105
5650 8116 7953
5651 5649 8
5651 5658 127
5651 5696 101
5652 5653 200
5652 5532 324
5652 5665 37
5653 5652 200
5654 5562 265
5654 5663 33
5654 5673 270
5655 5649 140
5655 5658 26
5655 5679 135
5656 5493 894
5657 5598 158
5658 5655 26
5658 5651 127
5658 5704 102
5659 5634 69
5659 5640 117
5659 5681 43
5660 5551 838
5661 5637 62
5661 5664 180
5661 5697 273
5662 5577 469
5662 5512 393
5662 5916 465
5663 5654 33
5663 5722 111
5663 5727 125
5664 5661 180
5664 5607 148
5664 5697 63
5665 5652 37
5665 5719 104
5665 5721 108
5666 5667 163
5666 5546 325
5666 5676 25
5667 5666 163
5668 5531 402
5668 5669 346
5668 5585 419
5669 5668 346
5669 5670 90
5669 5674 169
5670 5669 90
5671 5648 62
5671 5690 226
5671 5717 103
5672 5224 1026
5672 5675 363
5673 5654 270
5673 5676 112
5673 5707 82
5674 5669 169
5674 5520 404
5674 5708 74
5675 5672 363
5675 5688 211
5675 5929 457
5676 5666 25
5676 5673 112
5676 5710 68
5677 5678 407
5678 5677 407
5678 5687 38
5678 5736 163
5678 5739 160
5678 5769 174
5679 5655 135
5679 5704 238
5679 5961 608
5680 3622 14961
5681 5619 171
5681 5659 43
5681 5813 365
5682 5628 168
5682 5701 93
5682 5815 348
5683 5624 152
5683 5618 261
5683 5692 149
5683 5702 44
5684 5685 93
5684 5587 238
5684 5686 102
5684 5779 185
5685 5684 93
5686 5684 102
5686 5588 236
5686 5689 50
5687 5678 38
5687 5694 62
5687 5720 71
5688 5675 211
5688 5212 1079
5688 5761 250
5689 5686 50
5689 5592 261
5689 5608 392
5689 5778 180
5690 5691 7
5690 5671 226
5691 5690 7
5691 5604 305
5691 5737 157
5692 5603 398
5692 5683 149
5692 5718 51
5693 5631 500
5694 5687 62
5694 5714 236
5694 5787 202
5695 5622 173
5695 5726 113
5695 5942 1267
5696 5651 101
5696 5636 228
5696 5704 73
5697 5664 63
5697 5700 9
5697 5661 273
5698 5359 868
5698 5728 116
5698 6568 2571
5699 5560 416
5699 5700 189
5699 5901 375
5700 5697 9
5700 5699 189
5700 5886 346
5701 5682 93
5702 5683 44
5702 5703 16
5702 5705 22
5703 5702 16
5703 5753 124
5703 5869 503
5704 5658 102
5704 5696 73
5704 5679 238
5704 5757 117
5705 5702 22
5705 5718 162
5705 5759 121
5706 5442 692
5706 5734 55
5706 5743 85
5707 5673 82
5707 5710 123
5707 5727 256
5708 5674 74
5708 5803 155
5709 5524 476
5709 5798 154
5710 5707 123
5710 5676 68
5710 5844 244
5711 5572 384
5711 5911 469
5711 6035 765
5712 5578 497
5713 5583 338
5713 5776 215
5713 5941 465
5714 5694 236
5714 5715 110
5714 5719 287
5715 5714 110
5716 5717 300
5716 5731 84
5717 5716 300
5717 5671 103
5717 5725 21
5718 5692 51
5718 5705 162
5718 5785 152
5719 5714 287
5719 5665 104
5719 5801 170
5720 5687 71
5721 5665 108
5721 6048 464
5722 5663 111
5722 6052 466
5723 5613 245
5723 5748 104
5723 5756 69
5723 5764 94
5724 5635 192
5724 5868 439
5724 5926 361
5725 5717 21
5725 5749 59
5725 5758 114
5726 5695 113
5727 5663 125
5727 5707 256
5727 5797 149
5728 5698 116
5728 5591 414
5728 5855 291
5729 5586 332
5729 5730 52
5729 5792 101
5730 5729 52
5730 12130 280
5731 5716 84
5731 5734 131
5731 5908 2518
5732 5733 52
5732 12100 918
5733 5732 52
5733 5629 224
5733 5794 100
5734 5706 55
5734 5731 131
5734 5766 76
5735 5736 218
5736 5735 218
5736 5678 163
5736 5739 15
5737 5691 157
5738 5438 762
5738 5752 108
5738 5775 86
5739 5736 15
5739 5678 160
5739 5769 99
5740 5597 329
5740 5741 10
5740 5742 7
5741 5740 10
5741 5582 382
5741 5744 8
5741 5796 286
5742 5740 7
5742 5744 10
5742 6041 498
5743 5706 85
5743 5766 41
5743 5782 85
5744 5742 10
5744 5741 8
5744 5808 286
5744 6042 496
5745 5293 1751
5745 12110 1751
5745 5747 7
5745 5760 32
5746 5579 953
5746 5614 803
5746 5748 37
5747 5745 7
5747 5304 1742
5747 5754 16
5747 5763 32
5748 5723 104
5748 5746 37
5748 5756 69
5749 5725 59
5749 5784 111
5749 5784 221
5750 5751 860
5750 12131 96
5750 12132 333
5751 5750 860
5751 5595 974
5751 5767 111
5752 5584 585
5752 5738 108
5752 5775 60
5753 5703 124
5753 5759 47
5753 5765 16
5754 5747 16
5754 5314 1743
5754 5773 30
5754 5835 285
5755 5599 595
5755 5780 66
5755 5795 92
5756 5723 69
5756 5748 69
5756 5764 55
5756 5767 15
5757 5704 117
5757 5768 144
5757 5774 36
5757 5788 75
5758 5725 114
5758 5781 45
5759 5705 121
5759 5753 47
5759 5762 5
5759 5829 137
5760 5745 32
5760 5763 7
5760 5953 479
5761 5688 250
5761 5277 1196
5761 5898 347
5761 5929 539
5762 5759 5
5762 5765 32
5763 5760 7
5763 5747 32
5763 5773 16
5763 5935 426
5764 5723 94
5764 5756 55
5764 5830 1073
5765 5753 16
5765 5762 32
5765 5838 138
5766 5743 41
5766 5734 76
5766 5819 106
5767 5756 15
5767 5751 111
5767 5832 920
5767 5897 245
5768 5757 144
5768 5827 127
5769 5739 99
5769 5678 174
5769 5787 96
5769 5954 316
5770 5505 760
5770 5931 343
5771 5772 116
5771 5789 48
5771 5863 372
5772 5771 116
5773 5763 16
5773 5754 30
5773 5806 140
5773 5946 444
5774 5757 36
5774 5788 74
5774 5862 178
5775 5752 60
5775 5738 86
5775 5780 10
5775 5782 12
5776 5713 215
5776 5932 295
5776 5932 924
5777 5459 717
5777 5779 125
5777 6028 419
5778 5689 180
5778 5779 125
5778 5786 25
5779 5777 125
5779 5684 185
5779 5778 125
5779 5919 239
5780 5755 66
5780 5775 10
5780 5783 13
5780 5795 61
5781 5758 45
5781 5784 17
5781 5833 229
5782 5775 12
5782 5743 85
5782 5783 10
5782 5819 77
5783 5780 13
5783 5782 10
5783 5811 63
5783 5820 74
5784 5749 111
5784 5781 17
5784 5749 221
5785 5718 152
5785 5807 107
5785 5813 108
5785 5828 73
5786 5778 25
5787 5769 96
5787 5694 202
5787 5879 235
5788 5774 74
5788 5757 75
5788 5827 104
5788 5845 96
5789 5790 57
5789 5771 48
5789 5856 105
5790 5789 57
5791 5792 29
5791 5793 10
5791 5812 611
5791 5892 151
5792 5791 29
5792 5729 101
5793 5791 10
5793 5794 30
5793 5821 779
5793 5891 150
5794 5793 30
5794 5733 100
5795 5755 92
5795 5780 61
5795 6146 871
5796 5741 286
5796 5831 84
5797 5727 149
5797 5840 85
5797 5842 60
5798 5799 32
5798 5709 154
5799 5798 32
5799 5800 44
5799 5802 8
5799 5812 12
5800 5799 44
5801 5719 170
5801 5839 97
5801 5843 59
5802 5803 34
5802 5799 8
5802 5814 11
5802 5831 590
5803 5802 34
5803 5708 155
5804 5805 2270
5805 5804 2270
5806 5773 140
5806 5875 219
5806 5999 329
5807 5785 107
5807 5829 126
5807 5853 81
5808 5744 286
5808 5841 86
5809 5810 2273
5809 6529 1818
5810 5809 2273
5811 5783 63
5811 5820 69
5811 6146 867
5812 5799 12
5812 5791 611
5812 5814 8
5812 5904 158
5813 5681 365
5813 5785 108
5813 5828 76
5814 5802 11
5814 5812 8
5814 5841 588
5814 5903 157
5815 5682 348
5815 5866 684
5816 4826 3521
5817 5818 208
5818 5817 208
5819 5782 77
5819 5766 106
5819 5889 100
5820 5811 69
5820 5783 74
5820 5965 225
5821 5822 72
5821 5793 779
5821 6094 937
5822 5821 72
5822 5830 40
5823 5824 79
5823 5825 10
5823 5882 80
5824 5823 79
5824 5826 45
5824 5882 122
5825 5823 10
5825 5832 74
5825 5880 72
5826 5824 45
5826 6014 44
5827 5788 104
5827 5768 127
5827 5845 59
5827 5868 95
5828 5813 76
5828 5785 73
5828 5873 69
5829 5807 126
5829 5759 137
5829 5838 31
5829 5884 81
5830 5764 1073
5830 5822 40
5831 5802 590
5831 5796 84
5832 5825 74
5832 5767 920
5832 5880 99
5833 5834 54
5833 5781 229
5833 5837 90
5834 5833 54
5835 5754 285
5835 5836 260
5835 5858 65
5836 5835 260
5837 5833 90
5838 5829 31
5838 5765 138
5838 5869 136
5838 5888 78
5839 5801 97
5839 5843 60
5839 5879 298
5840 5797 85
5840 5842 57
5840 5844 307
5841 5814 588
5841 6055 379
5841 5808 86
5842 5797 60
5842 5840 57
5842 5843 22
5842 5846 11
5843 5839 60
5843 5801 59
5843 5842 22
5843 5848 12
5844 5840 307
5844 5710 244
5844 5851 190
5845 5788 96
5845 5827 59
5845 5862 68
5845 5899 95
5846 5842 11
5846 5847 87
5846 5848 22
5846 5885 52
5847 5846 87
5847 5850 107
5847 5885 118
5848 5849 50
5848 5843 12
5848 5846 22
5848 5887 57
5849 5848 50
5849 5881 301
5849 5887 85
5849 5985 202
5850 5847 107
5850 5854 288
5850 5956 170
5851 5844 190
5851 5575 690
5851 5852 9
5851 5857 11
5852 5851 9
5852 5611 536
5852 5856 403
5852 5860 10
5853 5807 81
5853 5884 127
5853 5945 182
5854 5850 288
5854 5857 69
5854 6044 334
5855 5728 291
5856 5852 403
5856 5789 105
5856 5863 230
5857 5854 69
5857 5851 11
5857 5860 10
5857 6049 335
5858 5835 65
5858 5859 336
5858 5871 17
5859 5858 336
5860 5857 10
5860 5852 10
5860 5872 18
5860 5876 635
5861 5644 596
5861 5873 27
5861 5936 164
5862 5774 178
5862 5845 68
5862 5895 68
5863 5856 230
5863 5771 372
5863 5864 76
5863 5876 13
5864 5863 76
5864 5865 142
5864 5886 227
5865 5864 142
5866 5867 266
5866 5815 684
5866 6882 3232
5867 5866 266
5868 5827 95
5868 5724 439
5868 5900 123
5869 5838 136
5869 5703 503
5869 5906 82
5870 5871 85
5870 5371 1495
5871 5870 85
5871 5858 17
5871 5995 314
5872 5860 18
5872 5874 116
5872 5939 114
5873 5861 27
5873 5828 69
5873 5883 18
5874 5872 116
5874 5940 113
5874 5940 230
5875 5806 219
5875 5877 11
5875 5998 207
5876 5860 635
5876 5863 13
5876 5922 451
5876 5951 131
5877 5875 11
5877 5878 87
5877 6001 314
5878 5877 87
5878 5374 1498
5879 5787 235
5879 5839 298
5879 5881 9
5879 5954 345
5880 5825 72
5880 5832 99
5880 5977 150
5881 5879 9
5881 5849 301
5881 5910 166
5882 5824 122
5882 5823 80
5882 5975 142
5883 5873 18
5883 5958 164
5883 6058 419
5884 5853 127
5884 5829 81
5884 5934 117
5885 5846 52
5885 5847 118
5885 6013 213
5886 5864 227
5886 5700 346
5886 5909 149
5887 5849 85
5887 5848 57
5887 6020 221
5888 5838 78
5888 5906 137
5888 5934 85
5889 5819 100
5889 5902 53
5889 5918 58
5890 5641 613
5890 6028 401
5890 6188 698
5891 5793 150
5891 5924 58
5891 6094 335
5892 5791 151
5892 5920 53
5892 5923 57
5893 5894 265
5894 5893 265
5895 5896 129
5895 5862 68
5895 5900 122
5895 5961 117
5896 5895 129
5897 5767 245
5897 5980 327
5897 6039 250
5898 5761 347
5898 5427 1261
5898 6121 665
5899 5845 95
5900 5868 123
5900 5895 122
5900 5994 139
5901 5699 375
5901 5909 16
5902 5889 53
5902 5918 47
5902 6205 1231
5903 5814 157
5903 5904 6
5903 6066 272
5904 5903 6
5904 5812 158
5904 5905 333
5904 6067 272
5905 5904 333
5905 5920 283
5905 6084 280
5906 5888 137
5906 5869 82
5906 5978 81
5907 5411 1470
5907 5908 390
5907 5981 230
5908 5907 390
5908 6010 569
5908 5731 2518
5909 5886 149
5909 5901 16
5909 5912 9
5909 5922 13
5910 5881 166
5910 6007 143
5910 6009 343
5911 5711 469
5911 5645 596
5911 6051 273
5911 6117 469
5912 5909 9
5912 5567 800
5912 5925 14
5912 5928 217
5913 5914 223
5913 5927 157
5913 6025 460
5914 5913 223
5914 5936 42
5914 5966 90
5915 5529 834
5915 6709 255
5916 5662 465
5916 5944 79
5916 5947 48
5917 5526 841
5917 6707 280
5918 5889 58
5918 5902 47
5918 5984 77
5919 5779 239
5920 5905 283
5920 5892 53
5920 6073 252
5921 5484 936
5921 5949 46
5921 5959 70
5922 5876 451
5922 5909 13
5922 5925 8
5922 6172 393
5923 5892 57
5923 6261 434
5924 5891 58
5924 6264 436
5925 5922 8
5925 5912 14
5925 5937 218
5925 6247 588
5926 5724 361
5926 5933 15
5926 5948 139
5927 5913 157
5927 5966 125
5927 6082 253
5928 5912 217
5928 5617 600
5928 5937 9
5928 5944 438
5929 5930 265
5929 5675 457
5929 5761 539
5929 6127 367
5930 5929 265
5931 5192 2198
5931 5770 343
5931 6135 709
5932 5776 295
5932 5941 25
5932 5776 924
5933 5926 15
5933 5968 37
5933 5983 97
5934 5884 117
5934 5888 85
5934 5938 8
5935 5763 426
5935 5946 21
5935 5964 54
5936 5914 42
5936 5861 164
5936 5958 45
5937 5925 218
5937 5928 9
5937 5950 434
5937 6274 605
5938 5934 8
5938 5955 28
5938 5978 129
5939 5872 114
5939 5940 148
5939 6050 206
5940 5939 148
5940 5874 113
5940 5874 230
5941 5932 25
5941 5713 465
5941 6035 256
5942 5695 1267
5942 5943 280
5942 6151 691
5943 5942 280
5943 6100 490
5943 6109 1806
5944 5928 438
5944 5916 79
5944 5947 52
5945 5853 182
5945 5955 77
5945 5988 274
5946 5935 21
5946 5773 444
5946 5990 56
5947 5944 52
5947 5916 48
5947 5949 11
5947 5957 8
5948 5926 139
5948 5972 16
5948 6000 218
5949 5947 11
5949 5921 46
5949 5959 51
5949 5960 8
5950 5937 434
5950 5957 55
5950 5991 79
5951 5952 106
5951 5876 131
5951 6161 314
5952 5951 106
5953 5760 479
5953 5964 7
5953 5967 10
5954 5769 316
5954 5879 345
5954 5996 146
5955 5945 77
5955 5938 28
5955 5988 130
5956 5850 170
5956 5979 230
5956 6036 137
5957 5950 55
5957 5947 8
5957 5960 12
5957 5991 48
5958 5936 45
5958 5883 164
5958 5992 66
5959 5949 51
5959 5921 70
5959 6041 637
5960 5957 12
5960 5949 8
5960 5971 54
5960 5989 40
5961 5679 608
5961 5895 117
5961 6023 191
5961 6064 227
5962 5963 1620
5962 6019 317
5963 5962 1620
5964 5953 7
5964 5935 54
5964 5973 11
5964 5990 63
5965 5820 225
5965 5984 91
5965 6169 332
5966 5927 125
5966 5914 90
5966 6029 154
5967 5953 10
5967 5973 7
5967 6468 1304
5968 5933 37
5968 5972 109
5968 6002 140
5969 5639 606
5969 6058 195
5969 6098 259
5970 5642 603
5970 6096 234
5970 6108 286
5971 5960 54
5971 5989 73
5971 6045 634
5972 5968 109
5972 5948 16
5972 6000 53
5973 5967 7
5973 5964 11
5973 5986 41
5973 5997 73
5974 5975 90
5974 6031 378
5974 6122 266
5975 5974 90
5975 5882 142
5975 5976 15
5975 6564 1076
5976 5975 15
5976 5977 3
5977 5976 3
5977 5880 150
5977 5993 369
5977 6130 277
5978 5938 129
5978 5906 81
5978 5988 27
5979 5956 230
5980 5897 327
5980 5993 363
5980 6091 223
5981 5982 3
5981 5907 230
5981 6010 77
5982 5981 3
5983 5933 97
5983 5994 97
5983 6002 46
5984 5965 91
5984 5918 77
5984 6167 298
5985 5849 202
5985 6004 55
5985 6007 467
5986 5973 41
5986 5987 39
5986 6459 1247
5987 5986 39
5987 5997 51
5987 6311 926
5988 5955 130
5988 5978 27
5988 5945 274
5989 5960 40
5989 5971 73
5989 6293 562
5990 5964 63
5990 5946 56
5990 6072 237
5991 5950 79
5991 5957 48
5991 6292 555
5992 5958 66
5992 6029 89
5992 6082 658
5993 5977 369
5993 5980 363
5993 6134 241
5994 5900 139
5994 5983 97
5994 6023 81
5994 6034 79
5995 5871 314
5995 5996 34
5995 6003 22
5996 5954 146
5996 5995 34
5996 6003 21
5997 5987 51
5997 5973 73
5997 6076 225
5998 5875 207
5998 5999 330
5998 6018 44
5999 5806 329
5999 5998 330
5999 6072 189
6000 5972 53
6000 5948 218
6000 6062 198
6001 5877 314
6001 6008 17
6001 6016 27
6002 5983 46
6002 5968 140
6002 6033 66
6003 5995 22
6003 5996 21
6003 6008 8
6003 6009 13
6004 5985 55
6004 6020 62
6004 6037 149
6005 4981 3194
6005 6006 210
6005 6083 1172
6006 6005 210
6007 5910 143
6007 5985 467
6007 6063 109
6008 6001 17
6008 6003 8
6008 6012 13
6008 6016 18
6009 6003 13
6009 5910 343
6009 6011 5
6010 5908 569
6010 5981 77
6010 6027 40
6011 6009 5
6011 6012 4
6011 6089 197
6012 6008 13
6012 6011 4
6012 6065 118
6013 5885 213
6013 6030 71
6013 6053 84
6014 6015 496
6014 5826 44
6015 6014 496
6015 6024 96
6015 6105 445
6016 6001 27
6016 6008 18
6016 6163 241
6017 5489 1072
6017 8003 4478
6017 12146 4478
6017 12196 4478
6018 5998 44
6019 5962 317
6019 6109 859
6020 6004 62
6020 5887 221
6020 6038 44
6021 6022 1080
6021 5388 545
6021 5400 545
6021 12094 545
6022 6021 1080
6022 6246 426
6023 5961 191
6023 5994 81
6023 6057 74
6024 6015 96
6024 6031 108
6024 6054 53
6025 5913 460
6025 6032 18
6025 6051 86
6026 6056 206
6027 6010 40
6027 6126 186
6027 6124 544
6028 5890 401
6028 5777 419
6029 5966 154
6029 5992 89
6029 6043 49
6030 6013 71
6030 6036 145
6030 6233 437
6031 6024 108
6031 5974 378
6031 6061 78
6032 6025 18
6032 6059 82
6032 6082 188
6033 6002 66
6033 6034 78
6033 6062 56
6034 5994 79
6034 6033 78
6034 6068 62
6035 5941 256
6035 5711 765
6035 6095 144
6036 6030 145
6036 5956 137
6036 6044 207
6036 6249 435
6037 6004 149
6038 6020 44
6038 6047 15
6039 5897 250
6039 6040 378
6039 6091 339
6039 6183 263
6040 6039 378
6040 6071 197
6041 5959 637
6041 5742 498
6041 6042 10
6041 6045 10
6042 6041 10
6042 5744 496
6042 6046 10
6042 6055 345
6043 6029 49
6044 6036 207
6044 5854 334
6044 6049 58
6044 6286 475
6045 5971 634
6045 6041 10
6045 6046 10
6045 6283 432
6046 6045 10
6046 6042 10
6046 6060 344
6046 6285 431
6047 6038 15
6047 6048 111
6047 6110 109
6048 6047 111
6048 5721 464
6049 6044 58
6049 5857 335
6049 6296 484
6050 5939 206
6050 6085 163
6050 6296 484
6051 5911 273
6051 6025 86
6051 6059 15
6052 6053 113
6052 5722 466
6053 6052 113
6053 6013 84
6053 6113 106
6054 6024 53
6054 6077 136
6054 6088 205
6055 6042 345
6055 5841 379
6055 6060 13
6055 6066 529
6056 6026 206
6056 6154 150
6057 6023 74
6057 6068 125
6057 6080 46
6058 5883 419
6058 5969 195
6058 6114 140
6058 6133 135
6059 6051 15
6059 6032 82
6059 6259 406
6060 6046 344
6060 6055 13
6060 6078 528
6060 6228 310
6061 6031 78
6061 6074 24
6061 6081 42
6062 6033 56
6062 6000 198
6062 6068 105
6063 6007 109
6063 6168 156
6063 6189 291
6064 5961 227
6064 6102 158
6064 6132 109
6065 6012 118
6065 6103 142
6065 6218 308
6066 6055 529
6066 5903 272
6066 6067 8
6066 6078 14
6067 6066 8
6067 5904 272
6067 6079 14
6067 6084 383
6068 6057 125
6068 6034 62
6068 6062 105
6069 6070 191
6070 6069 191
6070 6174 200
6070 6182 283
6071 6040 197
6071 6155 138
6071 6183 444
6072 5990 237
6072 5999 189
6072 6076 11
6072 6184 290
6073 5920 252
6073 6090 87
6073 6093 31
6074 6061 24
6074 6075 121
6074 6111 55
6075 6074 121
6076 5997 225
6076 6072 11
6076 6107 70
6076 6174 229
6077 6054 136
6077 6081 5
6077 6087 16
6078 6060 528
6078 6066 14
6078 6079 8
6078 6281 382
6079 6078 8
6079 6067 14
6079 6092 383
6079 6282 383
6080 6057 46
6080 6102 99
6080 6153 135
6081 6077 5
6081 6061 42
6081 6088 17
6082 6032 188
6082 5927 253
6082 5992 658
6083 6005 1172
6083 7391 11370
6083 7573 9784
6084 6067 383
6084 5905 280
6084 6090 199
6084 6092 15
6085 6050 163
6085 6086 100
6085 6136 303
6086 6085 100
6087 6077 16
6087 6088 1
6088 6087 1
6088 6081 17
6088 6054 205
6089 6011 197
6089 6116 55
6089 6162 114
6090 6084 199
6090 6073 87
6090 6093 77
6091 5980 223
6091 6039 339
6091 6134 390
6091 6237 287
6092 6079 383
6092 6084 15
6092 6097 206
6092 6370 564
6093 6090 77
6093 6073 31
6093 6094 27
6093 6099 11
6094 6093 27
6094 5891 335
6094 5821 937
6094 6101 11
6095 6035 144
6095 6238 342
6096 5970 234
6096 6098 13
6096 6104 8
6096 6108 158
6097 6092 206
6097 6099 72
6097 6128 84
6098 5969 259
6098 6096 13
6098 6106 9
6098 6114 93
6099 6097 72
6099 6093 11
6099 6101 27
6099 6128 30
6100 5943 490
6100 6160 286
6100 6984 2599
6101 6099 27
6101 6094 11
6101 6105 68
6101 6142 45
6102 6064 158
6102 6080 99
6102 6152 62
6103 6065 142
6103 6116 38
6103 6140 45
6104 6096 8
6104 6106 13
6104 6210 857
6105 6101 68
6105 6015 445
6105 6142 90
6106 6098 9
6106 6104 13
6106 6196 369
6107 6076 70
6107 6186 209
6107 6222 244
6108 6096 158
6108 5970 286
6108 6202 706
6109 6019 859
6109 5943 1806
6109 6206 557
6110 6047 109
6110 6173 95
6110 6214 241
6111 6074 55
6111 6144 42
6111 6179 165
6112 5378 1657
6112 6463 861
6112 6516 713
6113 6053 106
6113 6131 24
6113 6175 98
6114 6098 93
6114 6058 140
6114 6133 56
6115 5650 1105
6115 5525 2234
6115 6364 668
6116 6103 38
6116 6089 55
6116 6162 121
6117 5911 469
6117 6147 59
6117 6156 60
6118 6119 15
6119 6118 15
6119 6120 43
6119 6141 24
6120 6119 43
6120 6123 91
6120 6143 24
6121 5898 665
6121 6127 7
6121 6587 1088
6122 5974 266
6122 6123 12
6122 6159 42
6123 6120 91
6123 6122 12
6123 6145 26
6124 6125 173
6124 6126 76
6124 6027 544
6125 6124 173
6126 6124 76
6126 6027 186
6126 6181 138
6127 5929 367
6127 6121 7
6127 6560 966
6128 6097 84
6128 6099 30
6128 6260 274
6129 6130 4
6130 6129 4
6130 5977 277
6130 6134 311
6130 6326 427
6131 6113 24
6131 6217 217
6132 6064 109
6132 6171 96
6132 6177 84
6133 6058 135
6133 6114 56
6133 6192 226
6134 6130 311
6134 5993 241
6134 6091 390
6134 6299 346
6135 5931 709
6135 6154 152
6136 6085 303
6136 6137 4
6136 6253 271
6137 6136 4
6137 6138 327
6137 6139 77
6138 6137 327
6139 6137 77
6139 6161 251
6139 6195 135
6140 6103 45
6140 6170 103
6140 6168 248
6141 6119 24
6141 6143 42
6141 6148 10
6142 6101 45
6142 6105 90
6142 6265 258
6143 6141 42
6143 6120 24
6143 6145 91
6143 6149 10
6144 6111 42
6144 6225 244
6145 6143 91
6145 6123 26
6145 6150 9
6146 5795 871
6146 5811 867
6146 6155 26
6147 6117 59
6147 6176 58
6147 6242 413
6148 6141 10
6148 6149 42
6149 6148 42
6149 6143 10
6149 6150 91
6150 6149 91
6150 6145 9
6150 6158 7
6151 5942 691
6152 6102 62
6152 6153 168
6152 6171 150
6152 6191 92
6153 6152 168
6153 6080 135
6153 6191 220
6154 6056 150
6154 6135 152
6154 6258 382
6155 6071 138
6155 6146 26
6155 6300 501
6155 6653 946
6156 6117 60
6156 6157 159
6156 6176 58
6156 6178 224
6157 6156 159
6157 6178 191
6157 6269 770
6158 6150 7
6158 6159 13
6159 6158 13
6159 6122 42
6159 6231 183
6160 6100 286
6161 6139 251
6161 5951 314
6161 6165 189
6162 6116 121
6162 6089 114
6162 6168 44
6163 6164 273
6163 6016 241
6163 6230 199
6164 6163 273
6165 6161 189
6165 6166 214
6165 6172 137
6166 6165 214
6167 5984 298
6167 6169 99
6167 6405 471
6168 6162 44
6168 6063 156
6168 6140 248
6168 6189 165
6169 5965 332
6169 6167 99
6169 7365 2242
6170 6140 103
6171 6132 96
6171 6152 150
6171 6191 146
6172 6165 137
6172 5922 393
6172 6243 196
6173 6110 95
6173 6597 745
6174 6070 200
6174 6076 229
6174 6187 85
6175 6113 98
6175 6599 745
6176 6147 58
6176 6156 58
6176 6256 220
6177 6132 84
6177 6191 322
6177 6396 537
6178 6157 191
6178 6156 224
6178 6256 573
6179 6180 123
6179 6111 165
6179 6199 66
6180 6179 123
6181 6126 138
6181 6252 233
6181 6252 451
6182 6070 283
6182 6203 79
6182 6204 168
6183 6039 263
6183 6071 444
6183 6237 379
6183 6300 252
6184 6072 290
6184 6185 113
6184 6234 234
6185 6184 113
6186 6107 209
6186 6227 124
6186 6239 269
6187 6174 85
6187 6222 229
6187 6224 161
6188 5890 698
6188 6272 744
6188 6560 1107
6189 6168 165
6189 6063 291
6189 6208 154
6190 5387 2098
6191 6152 92
6191 6153 220
6191 6171 146
6191 6177 322
6192 6133 226
6192 6196 12
6192 6198 34
6193 6194 58
6193 6199 102
6193 6215 56
6194 6193 58
6195 6139 135
6195 6197 78
6195 6211 100
6196 6192 12
6196 6106 369
6196 6198 36
6196 6592 824
6197 6195 78
6197 6216 115
6197 6229 72
6198 6192 34
6198 6196 36
6198 6342 474
6199 6193 102
6199 6179 66
6199 6215 142
6200 6201 1019
6200 6347 372
6201 6200 1019
6202 6108 706
6202 6212 21
6202 6320 806
6203 6182 79
6203 6224 72
6203 6323 496
6204 6182 168
6205 5902 1231
6205 6207 145
6206 6109 557
6206 6355 579
6207 6205 145
6207 6578 2102
6208 6189 154
6208 6209 17
6208 6213 4
6208 6214 13
6209 6208 17
6210 6104 857
6210 6212 9
6211 6195 100
6211 6226 45
6211 6313 183
6212 6210 9
6212 6202 21
6212 6312 180
6212 6320 800
6213 6208 4
6214 6208 13
6214 6110 241
6214 6217 22
6214 6382 351
6215 6193 56
6215 6199 142
6216 6197 115
6217 6214 22
6217 6131 217
6217 6219 9
6217 6322 215
6218 6065 308
6218 6223 8
6218 6284 397
6219 6217 9
6219 6220 20
6219 6221 4
6219 6233 79
6220 6219 20
6221 6219 4
6222 6187 229
6222 6107 244
6222 6227 210
6222 6245 54
6223 6218 8
6223 6255 68
6223 6270 92
6224 6203 72
6224 6187 161
6224 6332 361
6225 6144 244
6225 6232 207
6225 6248 47
6226 6211 45
6226 6229 103
6226 6251 122
6227 6186 124
6227 6222 210
6227 6279 95
6227 6295 344
6228 6060 310
6228 6281 487
6228 6339 201
6229 6226 103
6229 6197 72
6229 6251 43
6230 6163 199
6230 6234 96
6230 6254 46
6231 6159 183
6232 6225 207
6233 6219 79
6233 6030 437
6233 6286 362
6233 6361 256
6234 6184 234
6234 6230 96
6234 6254 78
6235 6236 106
6235 6248 106
6235 6352 304
6236 6235 106
6237 6091 287
6237 6183 379
6237 6299 386
6237 6417 323
6238 6095 342
6238 6242 9
6238 6266 63
6239 6186 269
6239 6257 61
6239 6291 94
6240 6241 885
6240 7242 2407
6241 6240 885
6242 6238 9
6242 6147 413
6242 6250 6
6243 6244 23
6243 6172 196
6243 6247 8
6243 6278 54
6244 6243 23
6245 6222 54
6245 6279 212
6245 6349 191
6246 6022 426
6246 6542 464
6246 8001 4039
6246 12197 4039
6247 6243 8
6247 5925 588
6247 6267 25
6247 6268 36
6248 6225 47
6248 6235 106
6248 6352 190
6249 6036 435
6250 6242 6
6250 6271 62
6250 6440 378
6251 6226 122
6251 6229 43
6251 6318 119
6251 6321 211
6252 6181 233
6252 6181 451
6252 6314 303
6253 6136 271
6253 6310 483
6253 6346 181
6254 6234 78
6254 6230 46
6254 6255 7
6254 6257 9
6255 6254 7
6255 6223 68
6255 6262 10
6255 6270 52
6256 6176 220
6256 6178 573
6256 6289 54
6257 6239 61
6257 6254 9
6257 6262 7
6257 6291 64
6258 6154 382
6258 6305 91
6259 6059 406
6259 6269 29
6259 6342 154
6260 6128 274
6260 6261 156
6260 6365 194
6261 6260 156
6261 5923 434
6262 6257 7
6262 6255 10
6262 6290 125
6262 6294 62
6263 4826 5312
6263 6698 2393
6263 7238 2950
6264 6265 155
6264 5924 436
6265 6264 155
6265 6142 258
6265 6397 243
6266 6238 63
6266 6271 13
6266 6276 84
6267 6247 25
6267 6268 17
6267 6280 29
6268 6267 17
6268 6247 36
6268 6273 115
6268 6280 55
6269 6157 770
6269 6259 29
6269 6360 517
6270 6255 52
6270 6223 92
6270 6390 494
6271 6266 13
6271 6250 62
6271 6303 87
6272 6188 744
6273 6268 115
6273 6274 130
6273 6324 103
6274 6273 130
6274 5937 605
6274 6297 522
6274 6325 100
6275 6276 173
6275 6509 1280
6276 6275 173
6276 6266 84
6276 6303 52
6277 6278 26
6278 6277 26
6278 6243 54
6278 6280 8
6278 6338 114
6279 6245 212
6279 6227 95
6279 6333 312
6279 6362 185
6280 6278 8
6280 6267 29
6280 6268 55
6280 6340 114
6281 6228 487
6281 6078 382
6281 6282 6
6281 6353 145
6282 6281 6
6282 6079 383
6282 6354 145
6283 6045 432
6283 6285 8
6283 6287 5
6283 6304 539
6284 6218 397
6285 6283 8
6285 6046 431
6285 6288 5
6286 6233 362
6286 6044 475
6286 6296 65
6286 6476 298
6287 6283 5
6287 6288 8
6287 6309 538
6287 6470 279
6288 6287 8
6288 6285 5
6288 6471 279
6289 6256 54
6289 6360 268
6289 6360 409
6290 6262 125
6290 6294 160
6290 6334 212
6291 6239 94
6291 6257 64
6291 6295 4
6292 5991 555
6292 6293 10
6292 6297 5
6293 6292 10
6293 5989 562
6293 6298 5
6293 6304 185
6294 6262 62
6294 6290 160
6294 6335 90
6295 6227 344
6295 6291 4
6295 6333 85
6296 6286 65
6296 6049 484
6296 6050 484
6296 6301 126
6296 6336 85
6296 6452 256
6297 6274 522
6297 6292 5
6297 6298 10
6297 6481 274
6298 6297 10
6298 6293 5
6298 6309 186
6298 6505 297
6299 6134 346
6299 6237 386
6299 6326 251
6299 6528 350
6300 6183 252
6300 6155 501
6300 6417 414
6300 6645 576
6301 6296 126
6301 6302 376
6301 6310 84
6302 6301 376
6303 6276 52
6303 6271 87
6303 6497 368
6304 6293 185
6304 6283 539
6304 6309 6
6305 6258 91
6305 6306 225
6305 6391 702
6306 6305 225
6306 6316 59
6306 5378 4567
6307 6308 7
6307 6355 427
6308 6307 7
6308 6374 332
6308 6374 288
6309 6298 186
6309 6304 6
6309 6287 538
6309 6460 470
6310 6301 84
6310 6253 483
6310 6346 270
6311 5987 926
6311 6380 171
6311 6506 388
6312 6212 180
6312 6592 838
6312 6607 473
6313 6211 183
6313 6318 156
6313 6346 224
6314 6252 303
6314 6315 1486
6314 6368 121
6315 6314 1486
6316 6306 59
6316 6490 908
6316 6972 1425
6317 6331 25
6318 6313 156
6318 6251 119
6318 6319 20
6319 6318 20
6319 6321 92
6319 6369 205
6320 6212 800
6320 6202 806
6320 12145 1596
6321 6319 92
6321 6251 211
6321 6331 196
6322 6217 215
6322 6361 108
6322 6416 170
6323 6203 496
6324 6273 103
6324 6325 118
6324 6486 238
6325 6324 118
6325 6274 100
6325 6327 80
6325 6371 85
6326 6130 427
6326 6299 251
6326 6328 6
6326 6561 368
6327 6325 80
6328 6326 6
6329 6330 79
6329 6331 23
6329 6343 96
6329 6425 153
6330 6329 79
6331 6321 196
6331 6317 25
6331 6329 23
6331 6420 150
6332 6224 361
6332 6380 154
6332 6413 188
6333 6279 312
6333 6295 85
6333 6335 11
6333 6611 469
6334 6290 212
6334 6387 185
6334 6412 148
6335 6333 11
6335 6294 90
6335 6359 98
6335 6435 163
6336 6296 85
6336 6484 206
6336 12136 220
6337 6338 23
6338 6337 23
6338 6278 114
6338 6340 8
6338 6343 12
6339 6228 201
6339 6344 154
6339 6503 209
6340 6338 8
6340 6280 114
6340 6341 5
6340 6423 138
6341 6340 5
6342 6259 154
6342 6198 474
6342 6536 484
6342 6810 867
6343 6329 96
6343 6338 12
6343 6419 125
6344 6339 154
6344 6345 0
6344 6363 320
6344 6414 107
6345 6344 0
6346 6310 270
6346 6253 181
6346 6313 224
6346 6367 49
6347 6200 372
6347 5523 1831
6347 6348 87
6347 6372 106
6347 6850 2700
6348 6347 87
6348 6547 392
6349 6245 191
6349 6362 163
6349 6411 103
6350 6351 168
6350 6381 239
6350 6495 595
6351 6350 168
6352 6248 190
6352 6235 304
6353 6281 145
6353 6354 6
6353 6363 11
6354 6353 6
6354 6282 145
6354 6363 13
6354 6373 278
6355 6307 427
6355 6356 218
6355 6206 579
6356 6355 218
6357 6358 228
6357 6411 262
6357 6449 129
6358 6357 228
6359 6335 98
6359 6475 205
6359 6511 268
6360 6289 268
6360 6269 517
6360 6289 409
6361 6322 108
6361 6233 256
6361 6376 90
6362 6349 163
6362 6279 185
6362 6513 202
6363 6344 320
6363 6353 11
6363 6354 13
6363 6518 201
6364 6115 668
6364 6381 37
6364 6396 95
6365 6260 194
6365 6398 51
6365 6410 66
6366 5563 1638
6367 6346 49
6367 6383 43
6367 6395 45
6368 6314 121
6368 6634 427
6368 7179 2581
6369 6319 205
6370 6092 564
6370 6373 5
6370 6410 462
6371 6325 85
6371 6401 39
6371 6450 388
6372 6347 106
6373 6354 278
6373 6370 5
6373 6375 6
6374 6308 332
6374 6308 288
6374 6386 42
6375 6373 6
6375 6422 465
6375 6603 339
6376 6361 90
6376 6377 57
6376 6406 44
6377 6376 57
6378 6379 285
6378 5556 1594
6378 6388 21
6378 6662 466
6379 6378 285
6380 6311 171
6380 6332 154
6380 6543 261
6381 6350 239
6381 6364 37
6381 6495 214
6382 6214 351
6382 6399 46
6382 6415 45
6383 6367 43
6383 6389 13
6383 6395 28
6384 6385 60
6384 6406 68
6384 6427 54
6385 6384 60
6386 6374 42
6386 6494 126
6386 6609 821
6387 6334 185
6387 6409 53
6387 6526 180
6388 6378 21
6388 5554 1608
6388 6463 787
6388 6660 449
6389 6383 13
6389 6408 33
6389 6418 486
6390 6270 494
6390 6399 95
6390 6424 93
6391 6305 702
6392 6393 248
6392 6394 46
6392 6609 438
6393 6392 248
6394 6392 46
6395 6367 45
6395 6383 28
6395 6408 19
6396 6364 95
6396 6177 537
6396 6458 123
6397 6265 243
6397 12151 365
6397 12156 384
6398 6365 51
6398 12150 363
6399 6400 8
6399 6382 46
6399 6390 95
6399 6407 6
6400 6399 8
6401 6371 39
6401 6447 236
6401 6447 51
6402 6403 1325
6402 12134 4
6403 6402 1325
6403 6404 3122
6403 7173 1488
6404 6403 3122
6404 6510 1459
6404 6800 947
6405 6167 471
6405 6480 132
6405 7071 1178
6406 6376 44
6406 6384 68
6406 6426 31
6407 6399 6
6407 6415 18
6407 6424 23
6408 6395 19
6408 6389 33
6408 6454 56
6409 6387 53
6409 6433 63
6409 6453 67
6410 6370 462
6410 6365 66
6410 6422 14
6411 6357 262
6411 6349 103
6411 6513 234
6412 6334 148
6412 6526 251
6412 6530 169
6413 6332 188
6413 6421 19
6413 6449 124
6414 6344 107
6415 6407 18
6415 6382 45
6415 6428 28
6415 6432 20
6416 6322 170
6416 6428 16
6416 6429 15
6417 6237 323
6417 6300 414
6417 6528 395
6418 6389 486
6418 6420 65
6418 6474 59
6419 6343 125
6419 6423 7
6419 6434 47
6419 6437 18
6420 6418 65
6420 6331 150
6420 6425 39
6421 6413 19
6421 6466 86
6421 6501 114
6422 6375 465
6422 6410 14
6422 12155 382
6423 6419 7
6423 6340 138
6423 6439 17
6423 6443 32
6424 6390 93
6424 6407 23
6424 6432 17
6424 6433 9
6425 6420 39
6425 6329 153
6425 6434 40
6426 6406 31
6426 6427 32
6426 6473 54
6427 6426 32
6427 6384 54
6427 6473 53
6428 6415 28
6428 6416 16
6428 6431 5
6428 6441 16
6429 6416 15
6429 6430 7
6429 6431 6
6429 6457 46
6430 6429 7
6431 6428 5
6431 6429 6
6431 6442 15
6432 6424 17
6432 6415 20
6432 6438 10
6432 6441 28
6433 6409 63
6433 6424 9
6433 6438 17
6433 6451 22
6434 6425 40
6434 6419 47
6434 6436 4
6434 6437 27
6435 6335 163
6435 6511 216
6435 6667 424
6436 6434 4
6436 6444 27
6437 6434 27
6437 6419 18
6437 6439 7
6437 6444 7
6438 6433 17
6438 6432 10
6438 6446 28
6438 6456 21
6439 6437 7
6439 6423 17
6439 6443 15
6439 6445 8
6440 6250 378
6440 6500 94
6440 6633 381
6441 6432 28
6441 6428 16
6441 6442 9
6441 6446 7
6442 6441 9
6442 6431 15
6442 6448 7
6442 6457 43
6443 6439 15
6443 6423 32
6443 6445 22
6443 6464 80
6444 6436 27
6444 6437 7
6444 6445 7
6444 6637 344
6445 6444 7
6445 6439 8
6445 6443 22
6445 6595 249
6446 6438 28
6446 6441 7
6446 6448 10
6446 6461 21
6447 6401 236
6447 6401 51
6447 6520 91
6448 6446 10
6448 6442 7
6448 6467 22
6448 6469 89
6449 6413 124
6449 6357 129
6449 6491 84
6449 6608 261
6450 6371 388
6450 6481 205
6450 6544 126
6451 6433 22
6451 6453 5
6451 6456 18
6452 6296 256
6452 6485 33
6452 6488 48
6453 6409 67
6453 6451 5
6453 6455 9
6453 6502 45
6454 6408 56
6454 6462 160
6454 6523 154
6455 6453 9
6456 6451 18
6456 6438 21
6456 6461 27
6456 6502 43
6457 6442 43
6457 6429 46
6457 6473 258
6458 6396 123
6458 6495 44
6458 6706 1337
6459 5986 1247
6459 6506 45
6459 6680 396
6460 6309 470
6460 6470 205
6460 6553 164
6461 6456 27
6461 6446 21
6461 6467 8
6461 6499 33
6462 6454 160
6462 6474 326
6462 6512 66
6463 6388 787
6463 6112 861
6463 6533 186
6463 6550 134
6464 6443 80
6464 6465 169
6464 6486 69
6465 6464 169
6466 6421 86
6466 6515 65
6466 6515 135
6467 6461 8
6467 6448 22
6467 6472 9
6468 5967 1304
6468 6583 208
6468 6679 389
6469 6448 89
6469 6472 94
6469 6482 142
6470 6460 205
6470 6287 279
6470 6471 7
6470 6656 327
6471 6470 7
6471 6288 279
6471 6503 334
6471 6677 374
6472 6467 9
6472 6469 94
6472 6477 5
6472 6499 32
6473 6426 54
6473 6427 53
6473 6457 258
6473 6476 242
6473 12136 303
6474 6462 326
6474 6418 59
6474 6625 262
6475 6359 205
6476 6473 242
6476 6286 298
6476 6484 56
6477 6472 5
6478 6479 1643
6478 6493 18
6478 6504 22
6479 6478 1643
6480 6405 132
6480 6532 187
6481 6450 205
6481 6297 274
6481 6555 126
6482 6469 142
6482 6483 71
6482 6549 116
6483 6482 71
6483 6487 136
6483 12139 312
6484 6476 56
6484 6336 206
6484 6485 6
6484 6507 22
6485 6484 6
6485 6452 33
6485 6508 22
6486 6464 69
6486 6324 238
6486 6520 173
6487 6483 136
6487 6507 159
6487 6705 383
6488 6452 48
6488 12137 18
6489 5500 1841
6489 6492 104
6489 7449 1963
6490 6316 908
6490 6496 17
6491 6449 84
6491 6524 201
6491 6558 122
6492 6489 104
6493 6478 18
6493 6504 25
6493 6514 62
6494 6386 126
6495 6381 214
6495 6458 44
6495 6350 595
6496 6490 17
6496 6522 62
6496 6861 1962
6497 6303 368
6497 6498 4
6497 6509 15
6498 6497 4
6498 6500 5
6499 6461 33
6499 6472 32
6499 6525 56
6500 6498 5
6500 6440 94
6500 6509 24
6501 6421 114
6501 6515 67
6501 6540 83
6502 6453 45
6502 6456 43
6502 6521 47
6503 6471 334
6503 6339 209
6503 6518 440
6503 6581 160
6504 6478 22
6504 6493 25
6504 6534 68
6505 6298 297
6505 6553 459
6505 6610 206
6506 6459 45
6506 6311 388
6506 6580 150
6507 6487 159
6507 6484 22
6507 6508 6
6507 6711 378
6507 12149 378
6508 6507 6
6508 6485 22
6508 6649 288
6508 12148 288
6509 6497 15
6509 6500 24
6509 6275 1280
6510 6404 1459
6510 6615 367
6510 6856 4068
6510 6906 767
6511 6435 216
6511 6359 268
6511 6530 107
6512 6462 66
6512 6523 28
6512 6527 104
6513 6411 234
6513 6362 202
6513 6539 47
6514 6493 62
6514 6517 9
6514 6535 55
6515 6501 67
6515 6466 65
6515 6466 135
6516 6112 713
6516 6700 356
6516 6870 593
6517 6514 9
6517 6519 8
6518 6503 440
6518 6363 201
6518 6557 78
6519 6517 8
6519 6531 48
6519 6537 36
6520 6486 173
6520 6447 91
6520 6544 309
6520 12144 309
6520 6551 57
6521 6502 47
6521 6546 137
6521 6596 149
6522 6496 62
6522 7076 1937
6523 6454 154
6523 6512 28
6523 6563 74
6524 6491 201
6524 6539 130
6524 6572 92
6525 6499 56
6525 6549 320
6525 6600 149
6526 6412 251
6526 6387 180
6526 6546 34
6527 6512 104
6527 6567 75
6527 6569 130
6528 6299 350
6528 6417 395
6528 6561 210
6529 5809 1818
6529 6538 17
6530 6511 107
6530 6412 169
6530 6570 155
6530 6584 111
6531 6519 48
6531 6534 18
6531 6537 23
6532 6480 187
6532 6621 791
6533 6463 186
6533 6550 125
6533 6641 465
6534 6531 18
6534 6504 68
6534 6556 44
6535 6514 55
6535 6541 17
6535 6545 18
6536 6342 484
6536 6633 340
6536 6974 841
6537 6519 36
6537 6531 23
6537 6548 24
6538 6529 17
6538 6541 8
6539 6524 130
6539 6513 47
6539 6552 101
6539 6588 111
6540 6501 83
6541 6538 8
6541 6535 17
6541 6545 25
6542 6246 464
6542 6627 567
6542 12147 567
6543 6380 261
6543 6580 350
6543 6608 451
6544 6520 309
6544 12144 309
6544 6450 126
6544 6555 182
6545 6535 18
6545 6541 25
6545 6548 47
6546 6526 34
6546 6521 137
6546 6582 76
6547 6348 392
6547 6586 136
6547 6788 474
6548 6545 47
6548 6537 24
6548 6554 35
6549 6525 320
6549 6482 116
6549 6676 258
6550 6533 125
6550 6463 134
6550 6602 339
6550 6631 229
6551 6520 57
6551 6566 267
6551 6630 148
6551 6635 250
6552 6539 101
6552 6611 220
6552 6665 436
6553 6505 459
6553 6460 164
6553 6814 438
6554 6548 35
6554 6556 7
6555 6544 182
6555 6481 126
6555 6575 36
6556 6554 7
6556 6534 44
6556 6583 52
6557 6518 78
6557 6601 81
6557 6603 336
6558 6559 48
6558 6491 122
6558 6606 97
6559 6558 48
6560 6188 1107
6560 6127 966
6560 6565 10
6561 6326 368
6561 6528 210
6561 6562 3
6562 6561 3
6562 6564 10
6562 6773 347
6563 6523 74
6563 6579 85
6563 6618 116
6564 5975 1076
6564 6562 10
6564 6652 1177
6565 6560 10
6565 6576 19
6565 6587 133
6566 6551 267
6566 6575 208
6566 6614 91
6566 12144 50
6567 6527 75
6567 6579 47
6567 6589 92
6568 5698 2571
6568 6586 425
6568 6586 235
6569 6527 130
6569 6598 63
6569 6619 136
6570 6530 155
6570 6582 110
6570 6584 99
6570 6671 206
6571 5463 3105
6571 6698 1959
6572 6524 92
6572 6588 129
6572 6636 133
6573 6574 60
6573 6583 158
6573 6613 146
6574 6573 60
6574 6591 185
6574 6604 176
6575 6566 208
6575 6555 36
6575 6629 106
6576 6565 19
6576 6577 1
6576 6697 227
6576 6701 234
6577 6576 1
6577 6690 232
6577 6702 234
6578 6207 2102
6578 6647 159
6579 6563 85
6579 6567 47
6579 6585 31
6580 6506 150
6580 6543 350
6580 6685 200
6581 6503 160
6581 6590 286
6581 6822 354
6582 6570 110
6582 6546 76
6582 6686 199
6583 6573 158
6583 6556 52
6583 6468 208
6584 6530 111
6584 6570 99
6584 6671 198
6585 6579 31
6585 6589 54
6585 6616 62
6586 6547 136
6586 6568 425
6586 6568 235
6587 6565 133
6587 6121 1088
6587 6930 574
6588 6572 129
6588 6539 111
6588 6665 146
6589 6585 54
6589 6567 92
6589 6598 64
6590 6581 286
6590 6601 148
6591 6574 185
6591 6604 17
6591 6659 188
6592 6196 824
6592 6312 838
6592 6810 494
6592 6998 848
6593 6594 111
6593 6612 67
6593 6613 30
6594 6593 111
6595 6445 249
6595 6635 217
6595 6674 165
6596 6521 149
6596 6597 84
6596 6703 187
6597 6596 84
6597 6173 745
6598 6589 64
6598 6569 63
6598 6619 93
6599 6600 81
6599 6175 745
6600 6599 81
6600 6525 149
6600 6704 185
6601 6590 148
6601 6557 81
6601 6642 92
6602 6550 339
6602 6700 363
6602 6899 492
6603 6557 336
6603 6375 339
6603 6722 210
6604 6591 17
6604 6574 176
6604 6612 16
6604 6659 179
6605 6606 65
6606 6605 65
6606 6558 97
6606 6626 53
6606 6636 182
6607 6312 473
6607 6998 745
6607 7472 1933
6608 6543 451
6608 6449 261
6608 6626 75
6609 6392 438
6609 6386 821
6609 6650 550
6610 6505 206
6610 6622 103
6610 6802 282
6611 6552 220
6611 6333 469
6611 6924 539
6612 6604 16
6612 6593 67
6612 6644 145
6613 6593 30
6613 6573 146
6613 6620 34
6614 6566 91
6614 6629 187
6614 6632 44
6615 6510 367
6615 6800 1147
6615 6941 990
6616 6585 62
6616 6639 61
6616 6664 126
6617 6618 444
6617 12140 31
6618 6617 444
6618 6563 116
6618 6623 9
6618 6639 122
6619 6598 93
6619 6569 136
6619 6625 34
6620 6613 34
6620 6668 214
6620 6693 139
6621 6532 791
6621 6813 1085
6621 6969 1738
6622 6610 103
6623 6624 574
6623 6618 9
6623 6682 239
6624 6623 574
6624 12143 40
6625 6619 34
6625 6474 262
6625 6637 118
6625 6663 96
6626 6608 75
6626 6606 53
6626 6860 384
6627 6628 107
6627 6681 374
6627 6542 567
6627 12147 567
6627 12167 105
6628 6627 107
6628 12147 84
6629 6614 187
6629 6575 106
6629 6646 53
6630 6551 148
6630 6632 268
6630 6731 164
6631 6550 229
6632 6630 268
6632 6614 44
6632 6646 195
6632 6717 138
6633 6440 381
6633 6536 340
6633 6805 403
6634 6368 427
6634 6640 29
6634 6648 285
6635 6595 217
6635 6551 250
6635 6638 22
6635 6687 117
6636 6606 182
6636 6572 133
6636 6720 138
6637 6625 118
6637 6444 344
6637 6716 126
6638 6635 22
6638 6657 30
6638 6713 193
6639 6618 122
6639 6616 61
6639 6664 59
6640 6634 29
6640 6755 543
6640 6970 1074
6641 6533 465
6641 6660 53
6641 6922 466
6642 6601 92
6642 6643 138
6642 6833 240
6643 6642 138
6643 6768 200
6644 6612 145
6645 6300 576
6645 6653 509
6645 6773 838
6645 7000 617
6646 6632 195
6646 6629 53
6646 6801 191
6647 6578 159
6647 6648 25
6647 6666 25
6648 6647 25
6648 6634 285
6649 6508 288
6649 12148 288
6649 6744 212
6649 6749 140
6650 6609 550
6650 7141 1143
6651 6652 105
6651 12160 207
6652 6651 105
6652 6564 1177
6652 6661 180
6652 12164 180
6653 6645 509
6653 6155 946
6653 7015 665
6654 6655 108
6654 7096 1496
6655 6654 108
6656 6470 327
6656 6678 48
6656 6818 362
6657 6638 30
6657 6658 17
6657 6713 85
6658 6657 17
6659 6591 188
6659 6604 179
6659 6668 20
6660 6388 449
6660 6641 53
6660 6662 14
6660 6922 431
6661 6652 180
6661 12164 180
6661 12166 140
6662 6378 466
6662 6660 14
6662 6923 429
6662 6949 653
6663 6625 96
6663 6710 93
6663 6716 156
6664 6639 59
6664 6616 126
6664 6710 128
6665 6588 146
6665 6552 436
6665 6752 124
6666 6647 25
6666 6675 184
6666 6755 156
6667 6435 424
6667 6787 475
6667 6834 226
6668 6659 20
6668 6620 214
6668 6669 18
6669 6668 18
6669 6715 74
6669 6934 521
6670 6671 131
6671 6670 131
6671 6584 198
6671 6570 206
6671 6686 97
6671 6799 145
6672 6673 29
6672 6683 44
6673 6672 29
6674 6595 165
6674 6687 202
6674 6712 42
6675 6666 184
6675 6691 92
6675 6755 168
6676 6549 258
6676 6705 173
6676 6737 68
6677 6471 374
6677 6792 130
6677 12170 131
6678 6656 48
6678 6789 129
6678 12169 130
6679 6468 389
6679 6680 14
6679 6688 135
6679 6694 11
6680 6679 14
6680 6459 396
6680 6685 17
6680 6695 11
6681 6627 374
6681 6771 1007
6681 6855 508
6682 6623 239
6682 6748 136
6682 6824 160
6683 6684 30
6683 6672 44
6684 6683 30
6685 6680 17
6685 6580 200
6685 6699 11
6685 6860 948
6686 6671 97
6686 6582 199
6686 6703 102
6686 6806 132
6687 6635 117
6687 6674 202
6687 6761 90
6688 6689 212
6688 6679 135
6688 6693 164
6689 6688 212
6690 6577 232
6690 6726 43
6690 6738 63
6691 6692 11
6691 6675 92
6691 6780 163
6692 6691 11
6693 6620 139
6693 6688 164
6693 6715 177
6694 6679 11
6694 6696 4
6694 6867 725
6695 6680 11
6695 6696 10
6695 6699 17
6696 6694 4
6696 6695 10
6696 6893 335
6697 6576 227
6697 6724 39
6697 6725 57
6698 6263 2393
6698 6571 1959
6698 7153 1660
6699 6695 17
6699 6685 11
6699 6862 947
6700 6602 363
6700 6516 356
6700 6870 352
6701 6576 234
6701 6920 85
6702 6577 234
6702 6919 88
6703 6686 102
6703 6596 187
6703 6704 13
6703 6815 132
6704 6703 13
6704 6600 185
6704 6737 392
6704 6940 377
6705 6676 173
6705 6487 383
6705 6711 122
6705 6745 59
6706 6458 1337
6706 6707 1070
6706 6708 7
6706 8116 4697
6706 12243 4697
6707 6706 1070
6707 5917 280
6708 6706 7
6708 6709 1098
6708 6909 705
6708 8119 4705
6709 6708 1098
6709 5915 255
6710 6664 128
6710 6663 93
6710 6759 149
6711 6705 122
6711 6507 378
6711 12149 378
6711 6753 53
6712 6674 42
6712 6743 47
6712 6747 49
6713 6714 30
6713 6657 85
6713 6638 193
6714 6713 30
6715 6669 74
6715 6693 177
6715 6863 261
6716 6663 156
6716 6637 126
6716 6721 4
6717 6632 138
6717 6718 118
6717 6796 81
6718 6717 118
6719 6720 105
6720 6719 105
6720 6636 138
6720 6752 131
6720 6754 44
6721 6716 4
6721 6741 39
6721 6742 33
6722 6603 210
6722 6723 269
6722 6727 8
6722 6768 199
6723 6722 269
6723 12155 114
6724 6697 39
6724 6725 30
6724 6726 17
6724 6729 5
6725 6724 30
6725 6697 57
6725 6739 75
6726 6690 43
6726 6724 17
6726 6730 4
6727 6722 8
6727 6728 270
6727 6732 4
6727 6781 199
6728 6727 270
6728 12158 115
6729 6724 5
6729 6734 3
6730 6726 4
6730 6736 5
6730 6738 37
6731 6630 164
6731 6778 161
6731 6782 56
6732 6727 4
6732 6733 270
6732 6869 186
6733 6732 270
6733 12165 114
6734 6729 3
6734 6735 41
6734 6736 18
6734 6767 40
6735 6734 41
6735 6740 62
6735 6767 57
6736 6730 5
6736 6734 18
6736 6772 45
6737 6704 392
6737 6676 68
6737 6745 164
6738 6690 63
6738 6730 37
6738 6772 66
6738 6886 597
6739 6725 75
6739 6871 407
6740 6735 62
6740 6875 404
6741 6721 39
6741 6742 14
6741 6750 12
6741 6750 8
6742 6741 14
6742 6721 33
6742 6743 18
6742 6756 16
6743 6742 18
6743 6712 47
6743 6746 11
6743 6758 15
6744 6649 212
6744 6749 100
6744 6808 209
6744 6891 282
6745 6737 164
6745 6705 59
6745 6753 126
6745 6935 304
6746 6743 11
6746 6747 12
6746 6760 14
6747 6746 12
6747 6712 49
6747 6751 13
6747 6766 41
6748 6682 136
6748 6765 42
6748 6824 238
6749 6649 140
6749 6744 100
6749 6753 8
6749 6902 226
6750 6741 12
6750 6741 8
6750 6757 11
6750 6759 30
6751 6747 13
6752 6720 131
6752 6665 124
6752 6881 183
6753 6711 53
6753 6749 8
6753 6745 126
6753 6932 281
6754 6720 44
6755 6675 168
6755 6666 156
6755 6640 543
6755 6780 240
6756 6742 16
6756 6757 15
6756 6758 18
6756 6775 18
6757 6750 11
6757 6756 15
6757 6759 27
6757 6774 15
6758 6756 18
6758 6743 15
6758 6760 13
6758 6776 17
6759 6710 149
6759 6750 30
6759 6757 27
6760 6758 13
6760 6746 14
6760 6766 51
6760 6777 16
6761 6687 90
6761 6762 35
6761 6763 4
6761 6770 10
6762 6761 35
6763 6761 4
6763 6764 43
6763 6769 10
6764 6763 43
6765 6748 42
6765 6774 73
6765 6845 109
6766 6760 51
6766 6747 41
6766 6769 149
6767 6734 40
6767 6735 57
6767 6930 281
6768 6643 200
6768 6722 199
6768 6781 9
6768 6833 215
6769 6766 149
6769 6763 10
6769 6770 3
6769 6785 11
6770 6769 3
6770 6761 10
6770 6778 138
6771 6681 1007
6772 6738 66
6772 6736 45
6772 6930 266
6773 6562 347
6773 6645 838
6773 6989 409
6774 6765 73
6774 6757 15
6774 6775 11
6774 6783 8
6775 6774 11
6775 6756 18
6775 6776 18
6775 6786 9
6776 6775 18
6776 6758 17
6776 6777 15
6776 6791 13
6777 6776 15
6777 6760 16
6777 6779 55
6777 6791 32
6778 6770 138
6778 6731 161
6778 6782 103
6779 6777 55
6779 6784 141
6779 6827 103
6780 6691 163
6780 6755 240
6780 6836 399
6781 6768 9
6781 6727 199
6781 6839 211
6782 6778 103
6782 6731 56
6782 6796 274
6783 6774 8
6783 6786 9
6784 6779 141
6784 6785 6
6784 6795 8
6785 6784 6
6785 6769 11
6785 6793 8
6785 6798 260
6786 6783 9
6786 6775 9
6786 6791 16
6786 6845 69
6787 6667 475
6787 6799 119
6787 6913 212
6788 6547 474
6788 6803 25
6788 7457 1994
6789 6678 129
6789 6790 28
6789 6817 43
6790 6789 28
6790 6792 6
6791 6786 16
6791 6776 13
6791 6777 32
6791 6827 41
6792 6790 6
6792 6677 130
6792 6811 22
6793 6785 8
6793 6794 47
6793 6795 7
6794 6793 47
6795 6784 8
6795 6793 7
6795 6797 36
6795 6823 31
6796 6782 274
6796 6717 81
6796 6801 133
6797 6795 36
6798 6785 260
6798 6804 235
6798 6804 302
6799 6787 119
6799 6671 145
6799 6806 96
6799 6842 157
6800 6615 1147
6800 6404 947
6800 7004 570
6801 6796 133
6801 6646 191
6801 6802 19
6801 6807 7
6802 6801 19
6802 6610 282
6802 6809 7
6802 6814 388
6803 6788 25
6804 6798 235
6804 6807 155
6804 6798 302
6805 6633 403
6805 6879 212
6805 6905 214
6806 6799 96
6806 6686 132
6806 6815 93
6806 6933 235
6807 6804 155
6807 6801 7
6807 6809 18
6807 6992 406
6808 6744 209
6808 6828 147
6808 6891 156
6809 6807 18
6809 6802 7
6809 6816 251
6809 6854 71
6810 6342 867
6810 6592 494
6810 6908 522
6810 6976 369
6811 6792 22
6811 6830 174
6811 12176 174
6811 6844 46
6812 6813 5
6812 6813 5
6812 6819 11
6812 6819 11
6813 6812 5
6813 6812 5
6813 6621 1085
6813 6836 132
6814 6802 388
6814 6553 438
6814 6820 136
6815 6806 93
6815 6703 132
6815 6937 242
6816 6809 251
6816 6831 387
6816 6892 140
6817 6789 43
6817 6818 113
6817 6843 36
6818 6656 362
6818 6817 113
6818 6825 22
6819 6812 11
6819 6812 11
6819 6838 25
6820 6814 136
6820 6821 101
6820 6825 112
6821 6820 101
6822 6581 354
6822 6829 9
6822 6833 453
6822 12176 118
6823 6795 31
6823 6841 293
6823 6910 170
6824 6682 160
6824 6748 238
6824 6857 60
6825 6820 112
6825 6818 22
6825 6826 13
6825 6831 7
6826 6825 13
6826 12179 130
6827 6791 41
6827 6779 103
6827 6887 118
6828 6808 147
6828 6848 166
6828 6873 86
6828 6884 109
6829 6822 9
6829 6840 448
6829 7417 1388
6829 12181 41
6830 6811 174
6830 12176 174
6830 6844 166
6830 12181 76
6830 12185 164
6831 6816 387
6831 6825 7
6831 6832 13
6831 6835 20
6832 6831 13
6832 12184 127
6833 6642 240
6833 6768 215
6833 6839 8
6833 6840 9
6833 6822 453
6834 6667 226
6834 6868 215
6834 6925 197
6835 6831 20
6835 6843 117
6835 6877 75
6836 6813 132
6836 6837 11
6836 6780 399
6837 6836 11
6837 6969 439
6838 6819 25
6839 6833 8
6839 6781 211
6839 6840 10
6839 6973 302
6840 6833 9
6840 6839 10
6840 6829 448
6840 6971 301
6841 6823 293
6842 6799 157
6843 6835 117
6843 6817 36
6843 6852 22
6844 6811 46
6844 6830 166
6844 6853 31
6845 6765 109
6845 6786 69
6845 6912 148
6846 6847 92
6846 6889 496
6846 6889 431
6847 6846 92
6848 6828 166
6848 6849 42
6848 6858 116
6848 6888 84
6849 6848 42
6850 6851 1112
6850 6953 235
6850 6347 2700
6851 6850 1112
6852 6843 22
6852 6853 47
6852 6916 138
6853 6844 31
6853 6852 47
6853 6921 137
6854 6809 71
6854 6892 250
6854 6995 338
6855 6681 508
6855 6886 123
6856 6510 4068
6857 6824 60
6857 6859 35
6857 6872 30
6858 6848 116
6858 6872 98
6858 6897 83
6859 6857 35
6859 6880 62
6859 6880 62
6860 6685 948
6860 6626 384
6860 6862 5
6860 6881 91
6861 6496 1962
6862 6699 947
6862 6860 5
6862 6885 89
6862 6950 194
6863 6715 261
6863 6871 77
6863 6876 22
6864 6865 67
6864 12162 228
6865 6864 67
6865 6866 67
6865 6978 261
6866 6865 67
6866 12166 220
6867 6694 725
6867 6876 25
6867 7072 510
6868 6834 215
6869 6732 186
6869 6894 360
6869 6948 157
6870 6700 352
6870 6516 593
6870 7080 543
6871 6863 77
6871 6739 407
6872 6858 98
6872 6857 30
6872 6911 88
6873 6828 86
6873 6884 81
6873 6915 99
6874 6875 30
6874 6876 37
6874 6890 42
6875 6874 30
6875 6740 404
6876 6863 22
6876 6867 25
6876 6874 37
6876 6890 36
6877 6835 75
6877 6878 102
6877 6892 436
6878 6877 102
6879 6805 212
6879 6909 94
6879 6917 256
6880 6859 62
6880 6859 62
6880 6912 208
6881 6860 91
6881 6752 183
6881 6885 5
6881 6924 241
6882 5866 3232
6882 6883 178
6883 6882 178
6883 6972 649
6884 6873 81
6884 6828 109
6884 6888 96
6885 6862 89
6885 6881 5
6885 6926 240
6886 6738 597
6886 6855 123
6887 6827 118
6887 6901 158
6887 6942 121
6888 6884 96
6888 6848 84
6888 6897 118
6888 6931 90
6889 6846 496
6889 6846 431
6889 6980 292
6890 6874 42
6890 6876 36
6890 7067 453
6891 6744 282
6891 6808 156
6891 6907 64
6892 6854 250
6892 6816 140
6892 6877 436
6892 7013 314
6893 6696 335
6893 6936 498
6893 7008 452
6894 6869 360
6894 6895 133
6894 6896 132
6894 6898 5
6894 6898 5
6895 6894 133
6895 12165 215
6896 6894 132
6896 12163 227
6897 6888 118
6897 6858 83
6897 6904 10
6898 6894 5
6898 6894 5
6898 6954 119
6899 6602 492
6899 6900 106
6899 6903 100
6900 6899 106
6901 6887 158
6901 6910 89
6901 6957 134
6902 6749 226
6902 6944 302
6902 7182 732
6903 6899 100
6904 6897 10
6904 6911 90
6904 6947 89
6905 6805 214
6905 6917 59
6905 6943 93
6906 6510 767
6906 6941 118
6906 6996 279
6907 6891 64
6907 6928 86
6907 6944 79
6908 6810 522
6908 6974 255
6908 7019 338
6909 6708 705
6909 6879 94
6909 7147 863
6910 6901 89
6910 6823 170
6910 6963 127
6911 6904 90
6911 6872 88
6911 6938 246
6912 6880 208
6912 6845 148
6912 6938 62
6913 6914 199
6913 6787 212
6913 6933 210
6914 6913 199
6915 6873 99
6915 6928 21
6915 6929 110
6916 6852 138
6916 7031 298
6916 12195 119
6917 6879 256
6917 6905 59
6917 6943 115
6918 6919 246
6918 6920 250
6918 6930 26
6919 6918 246
6919 6702 88
6920 6918 250
6920 6701 85
6921 6853 137
6921 7032 297
6921 12193 133
6922 6660 431
6922 6641 466
6922 6923 14
6922 7377 1310
6923 6662 429
6923 6922 14
6923 6949 680
6923 7389 1327
6924 6881 241
6924 6611 539
6924 6925 11
6924 6926 6
6925 6924 11
6925 6834 197
6925 6927 5
6925 7043 759
6926 6885 240
6926 6924 6
6926 6927 11
6926 6977 145
6927 6926 11
6927 6925 5
6927 7047 760
6928 6907 86
6928 6915 21
6928 6955 69
6929 6915 110
6929 6931 81
6929 6939 221
6930 6772 266
6930 6918 26
6930 6767 281
6930 6587 574
6930 7163 661
6931 6929 81
6931 6888 90
6931 6939 76
6932 6753 281
6932 6935 122
6932 6993 170
6933 6913 210
6933 6806 235
6933 6937 86
6933 6959 77
6934 6669 521
6935 6745 304
6935 6932 122
6935 7089 400
6936 6893 498
6936 6950 230
6936 6950 1065
6937 6933 86
6937 6815 242
6937 6952 34
6938 6911 246
6938 6912 62
6938 6942 7
6938 7016 227
6939 6931 76
6939 6947 38
6939 6929 221
6940 6704 377
6940 6951 30
6940 6956 224
6941 6615 990
6941 6906 118
6941 7077 369
6942 6938 7
6942 6887 121
6942 6957 180
6942 7026 248
6943 6917 115
6943 6905 93
6943 7020 532
6944 6902 302
6944 6907 79
6944 6955 89
6945 6946 138
6946 6945 138
6947 6939 38
6947 6904 89
6947 6975 90
6948 6869 157
6948 6954 362
6948 7066 315
6949 6662 653
6949 6968 63
6949 6923 680
6950 6936 230
6950 6862 194
6950 6967 196
6950 6936 1065
6951 6940 30
6951 6988 94
6951 7024 207
6952 6937 34
6952 6986 88
6952 7021 201
6953 6850 235
6953 7179 1103
6953 8138 3333
6954 6948 362
6954 6898 119
6954 6979 74
6955 6944 89
6955 6928 69
6955 6990 303
6955 7037 233
6956 6940 224
6956 7069 287
6957 6942 180
6957 6901 134
6957 6963 143
6958 6959 190
6959 6958 190
6959 6933 77
6959 7043 220
6960 6961 135
6960 6962 8
6960 6966 16
6961 6960 135
6962 6960 8
6963 6910 127
6963 6957 143
6963 7022 290
6964 6965 151
6964 6971 351
6964 7052 221
6965 6964 151
6966 6960 16
6967 6950 196
6967 6977 135
6967 7041 189
6968 6949 63
6969 6837 439
6969 6970 10
6969 6621 1738
6970 6969 10
6970 6640 1074
6970 6987 28
6971 6964 351
6971 6840 301
6971 6973 12
6971 7058 210
6972 6883 649
6972 6316 1425
6972 7719 2256
6973 6971 12
6973 6839 302
6973 7059 210
6974 6536 841
6974 6908 255
6974 7020 244
6975 6947 90
6975 6990 39
6975 7016 338
6976 6810 369
6976 7007 97
6976 7023 343
6977 6967 135
6977 6926 145
6977 6991 181
6978 6865 261
6978 7294 398
6979 6954 74
6979 7290 398
6980 6889 292
6980 7109 326
6980 7127 558
6981 6982 24
6982 6981 24
6982 6983 69
6982 7009 85
6983 6982 69
6984 6100 2599
6984 6985 134
6984 7050 249
6985 6984 134
6986 6952 88
6986 7380 741
6987 6970 28
6987 7111 528
6987 7164 720
6988 6951 94
6988 7385 738
6989 6773 409
6989 7000 694
6989 7119 333
6990 6955 303
6990 6975 39
6990 7029 323
6990 7046 133
6991 6977 181
6991 7085 341
6991 7104 277
6992 6807 406
6992 6995 9
6992 6997 10
6993 6994 64
6993 6932 170
6993 7108 294
6994 6993 64
6995 6992 9
6995 6854 338
6995 6999 9
6995 7001 105
6996 6906 279
6996 7077 321
6996 7183 1324
6997 6992 10
6997 6999 9
6997 7128 332
6998 6592 848
6998 6607 745
6998 7107 267
6999 6997 9
6999 6995 9
6999 7003 91
6999 7129 333
7000 6989 694
7000 6645 617
7000 7015 434
7000 7131 312
7001 6995 105
7001 7002 130
7001 7013 257
7002 7001 130
7003 6999 91
7003 7014 273
7003 7138 332
7004 6800 570
7004 7049 187
7004 7313 994
7005 7006 252
7006 7005 252
7007 6976 97
7007 7030 178
7007 7078 160
7008 6893 452
7008 7210 776
7008 7331 1360
7009 6982 85
7010 7011 27
7011 7010 27
7011 7012 143
7011 7056 138
7012 7011 143
7013 7001 257
7013 6892 314
7013 7014 10
7013 7031 521
7014 7003 273
7014 7013 10
7014 7039 521
7014 7178 423
7015 7000 434
7015 6653 665
7015 7140 292
7016 6975 338
7016 6938 227
7016 7025 21
7017 7018 52
7018 7017 52
7019 6908 338
7019 7030 68
7019 7160 534
7020 6943 532
7020 6974 244
7020 7068 145
7021 6952 201
7021 7048 113
7021 7060 85
7022 6963 290
7022 7090 157
7023 6976 343
7023 7100 239
7023 7107 603
7024 6951 207
7024 7065 87
7024 7086 157
7025 7016 21
7025 7026 6
7025 7029 26
7025 7033 12
7026 7025 6
7026 6942 248
7026 7034 12
7026 7038 23
7027 7028 281
7028 7027 281
7029 6990 323
7029 7025 26
7029 7033 16
7029 7036 10
7030 7019 68
7030 7007 178
7030 7078 194
7031 7013 521
7031 6916 298
7031 7032 8
7031 7039 8
7032 7031 8
7032 6921 297
7032 7035 32
7032 7040 8
7033 7029 16
7033 7025 12
7033 7034 6
7033 7042 9
7034 7033 6
7034 7026 12
7034 7038 12
7034 7044 9
7035 7032 32
7035 7051 136
7036 7029 10
7036 7042 16
7037 6955 233
7037 7056 182
7037 7132 244
7038 7034 12
7038 7026 23
7038 7044 20
7038 7057 165
7039 7014 521
7039 7031 8
7039 7040 9
7039 7099 155
7040 7039 9
7040 7032 8
7040 7045 32
7040 7196 429
7041 6967 189
7042 7036 16
7042 7033 9
7042 7044 6
7042 7074 82
7043 6925 759
7043 6959 220
7043 7048 41
7044 7042 6
7044 7034 9
7044 7038 20
7044 7092 129
7045 7040 32
7045 7055 136
7046 6990 133
7046 7074 327
7046 7083 96
7047 6927 760
7047 7053 46
7047 7143 271
7048 7043 41
7048 7021 113
7048 7060 80
7049 7004 187
7049 7061 230
7049 7116 1067
7050 6984 249
7050 7139 456
7051 7052 244
7051 7035 136
7052 7051 244
7052 6964 221
7052 7054 11
7052 7058 339
7053 7047 46
7053 7064 77
7053 7113 166
7054 7055 245
7054 7052 11
7054 7062 339
7055 7054 245
7055 7045 136
7056 7037 182
7056 7011 138
7056 7083 157
7056 7101 119
7057 7038 165
7057 7090 396
7057 7106 126
7058 7052 339
7058 6971 210
7058 7059 13
7058 7062 9
7059 7058 13
7059 6973 210
7059 7063 10
7059 7066 439
7060 7048 80
7060 7021 85
7060 7064 9
7060 7065 26
7061 7049 230
7062 7054 339
7062 7058 9
7062 7063 12
7062 7207 344
7063 7062 12
7063 7059 10
7063 7073 438
7063 7208 344
7064 7053 77
7064 7060 9
7064 7070 25
7064 7113 116
7065 7060 26
7065 7024 87
7065 7070 9
7065 7086 97
7066 7059 439
7066 6948 315
7066 7073 12
7066 7075 368
7067 6890 453
7067 7072 16
7067 7150 247
7068 7020 145
7068 7160 403
7068 7232 593
7069 6956 287
7069 7097 104
7069 7103 86
7070 7064 25
7070 7065 9
7070 7088 96
7070 7098 77
7071 6405 1178
7071 7133 1279
7071 7473 821
7072 7067 16
7072 6867 510
7072 7154 252
7072 7288 717
7073 7063 438
7073 7066 12
7073 7079 369
7073 7226 361
7074 7046 327
7074 7042 82
7074 7122 130
7075 7066 368
7075 7081 300
7076 6522 1937
7077 6941 369
7077 6996 321
7077 7116 625
7078 7030 194
7078 7007 160
7078 7100 229
7078 7160 1149
7079 7073 369
7079 7087 300
7080 6870 543
7080 7214 505
7080 7401 685
7081 7075 300
7081 7082 368
7081 7087 11
7081 7093 393
7082 7081 368
7083 7056 157
7083 7046 96
7083 7084 0
7084 7083 0
7084 7122 323
7084 7142 155
7085 6991 341
7085 7112 226
7085 7145 279
7086 7065 97
7086 7024 157
7086 7097 83
7087 7079 300
7087 7081 11
7087 7091 199
7088 7070 96
7088 7098 126
7088 7123 230
7089 6935 400
7089 7108 137
7089 7159 273
7090 7057 396
7090 7022 157
7090 7120 233
7090 7136 122
7091 7087 199
7091 7095 195
7091 7177 233
7092 7044 129
7092 7106 184
7092 7158 171
7093 7081 393
7093 7094 676
7093 7095 10
7093 7119 1099
7094 7093 676
7095 7091 195
7095 7093 10
7095 7121 1100
7096 6654 1496
7096 7105 57
7096 7148 379
7097 7086 83
7097 7069 104
7097 7103 37
7098 7070 77
7098 7088 126
7098 7201 243
7099 7039 155
7099 7191 271
7100 7078 229
7100 7023 239
7100 7199 765
7101 7102 85
7101 7056 119
7101 7130 71
7102 7101 85
7103 7097 37
7103 7069 86
7103 7125 154
7104 6991 277
7105 7096 57
7106 7092 184
7106 7057 126
7106 7117 124
7106 7198 229
7107 7023 603
7107 6998 267
7107 7199 234
7108 7089 137
7108 6993 294
7108 7180 207
7109 7110 133
7109 6980 326
7109 7127 235
7110 7109 133
7111 6987 528
7111 7124 612
7111 7195 371
7112 7085 226
7112 7143 98
7112 7267 717
7113 7053 166
7113 7064 116
7113 7194 208
7114 7115 150
7114 7134 297
7114 7189 356
7115 7114 150
7116 7049 1067
7116 7077 625
7116 7181 208
7117 7106 124
7117 7118 123
7117 7211 216
7118 7117 123
7119 7093 1099
7119 6989 333
7119 7121 8
7119 7131 607
7120 7090 233
7120 7128 80
7120 7157 105
7121 7095 1100
7121 7119 8
7121 7137 604
7121 7318 388
7122 7084 323
7122 7074 130
7122 7152 77
7123 7088 230
7123 7175 136
7123 7185 390
7124 7111 612
7125 7103 154
7125 7126 379
7125 7159 176
7126 7125 379
7127 7109 235
7127 6980 558
7127 7161 377
7127 7161 836
7128 7120 80
7128 6997 332
7128 7129 11
7128 7355 440
7129 7128 11
7129 6999 333
7129 7138 76
7129 7220 202
7130 7101 71
7130 7135 238
7130 7142 145
7130 7151 54
7131 7119 607
7131 7000 312
7131 7137 12
7131 7140 402
7132 7037 244
7132 7151 224
7132 7219 205
7133 7071 1279
7133 7251 1139
7134 7114 297
7135 7130 238
7136 7090 122
7136 7157 231
7136 7329 388
7137 7121 604
7137 7131 12
7137 7144 402
7138 7129 76
7138 7003 332
7138 7162 139
7139 7050 456
7139 7176 873
7139 7371 485
7140 7131 402
7140 7015 292
7140 7144 8
7140 7146 209
7141 6650 1143
7142 7130 145
7142 7084 155
7142 7152 327
7142 7169 75
7143 7112 98
7143 7047 271
7143 7172 100
7144 7137 402
7144 7140 8
7144 7149 211
7144 7347 388
7145 7085 279
7146 7140 209
7147 6909 863
7147 7232 1067
7147 8144 4008
7148 7096 379
7148 7322 1917
7149 7144 211
7150 7067 247
7150 7154 12
7150 7344 445
7151 7132 224
7151 7130 54
7151 7155 36
7152 7142 327
7152 7122 77
7152 7204 114
7153 6698 1660
7153 7176 1943
7153 7192 114
7154 7150 12
7154 7072 252
7154 7229 195
7154 7345 436
7155 7151 36
7155 7156 5
7155 7250 200
7156 7155 5
7156 7252 200
7157 7136 231
7157 7120 105
7157 7346 354
7158 7092 171
7158 7187 84
7158 7190 175
7159 7125 176
7159 7089 273
7159 7170 97
7160 7068 403
7160 7019 534
7160 7078 1149
7161 7127 377
7161 7163 744
7161 7127 836
7162 7138 139
7162 7165 17
7162 7178 384
7163 6930 661
7163 7161 744
7163 7442 576
7164 6987 720
7164 7166 4
7165 7162 17
7165 7174 214
7165 7235 152
7166 7164 4
7166 7193 81
7166 7215 155
7167 7168 340
7167 7186 345
7167 7189 66
7168 7167 340
7169 7142 75
7169 7204 323
7169 7218 93
7170 7159 97
7170 7171 124
7170 7180 76
7171 7170 124
7172 7143 100
7172 7194 153
7172 7374 497
7173 6403 1488
7173 7313 2449
7173 7333 1271
7173 7383 423
7174 7165 214
7175 7123 136
7176 7153 1943
7176 7139 873
7176 7371 1254
7177 7091 233
7178 7162 384
7178 7014 423
7178 7191 211
7178 7403 385
7179 6368 2581
7179 6953 1103
7179 7281 290
7180 7170 76
7180 7108 207
7180 7182 11
7180 7185 10
7181 7116 208
7181 7505 1295
7182 7180 11
7182 6902 732
7182 7188 9
7182 7219 297
7183 6996 1324
7183 7184 734
7183 7282 298
7184 7183 734
7185 7123 390
7185 7180 10
7185 7188 11
7185 7315 223
7186 7167 345
7187 7158 84
7187 7205 133
7187 7296 166
7188 7185 11
7188 7182 9
7188 7200 82
7188 7243 99
7189 7167 66
7189 7114 356
7189 7430 630
7190 7158 175
7190 7198 60
7190 7205 13
7191 7178 211
7191 7099 271
7191 7196 11
7191 7411 394
7192 7153 114
7192 7312 228
7193 7166 81
7193 7195 198
7193 7197 13
7194 7172 153
7194 7113 208
7194 7201 26
7194 7379 313
7195 7111 371
7195 7193 198
7195 7251 254
7196 7191 11
7196 7040 429
7196 7412 392
7197 7193 13
7197 7215 141
7198 7190 60
7198 7106 229
7198 7211 120
7199 7107 234
7199 7100 765
7199 7472 680
7200 7188 82
7200 7221 216
7200 7258 104
7201 7194 26
7201 7098 243
7201 7222 151
7201 7330 219
7202 7203 87
7202 7212 106
7202 7223 84
7203 7202 87
7204 7169 323
7204 7152 114
7204 7295 147
7205 7187 133
7205 7190 13
7205 7302 164
7206 7207 6
7207 7206 6
7207 7062 344
7207 7208 13
7207 7216 13
7208 7207 13
7208 7063 344
7208 7209 15
7208 7217 14
7209 7208 15
7210 7008 776
7211 7198 120
7211 7117 216
7211 7309 176
7212 7202 106
7213 7214 37
7214 7213 37
7214 7080 505
7214 7360 373
7214 7492 637
7215 7197 141
7215 7166 155
7215 7363 379
7216 7207 13
7216 7217 13
7216 7236 47
7217 7216 13
7217 7208 14
7217 7226 429
7217 7237 47
7218 7169 93
7218 7239 207
7218 7257 72
7219 7182 297
7219 7132 205
7219 7221 7
7219 7227 114
7220 7129 202
7220 7235 196
7220 7358 238
7221 7200 216
7221 7219 7
7221 7240 191
7221 7259 71
7222 7201 151
7222 7230 60
7222 7336 212
7223 7202 84
7223 7224 46
7223 7225 100
7223 7247 45
7224 7223 46
7225 7223 100
7226 7217 429
7226 7073 361
7226 7256 50
7226 7289 386
7227 7219 114
7227 7228 81
7227 7250 168
7228 7227 81
7229 7154 195
7229 7343 596
7229 7366 254
7229 7400 487
7230 7222 60
7230 7231 120
7230 7264 195
7231 7230 120
7232 7068 593
7232 7147 1067
7232 7472 4015
7233 7234 433
7233 7409 1906
7233 7629 2451
7234 7233 433
7235 7220 196
7235 7165 152
7235 7283 70
7236 7216 47
7236 7237 14
7236 7245 12
7237 7236 14
7237 7217 47
7237 7246 12
7237 7256 419
7238 6263 2950
7238 7242 61
7238 7280 1212
7239 7218 207
7240 7221 191
7240 7241 6
7240 7260 174
7241 7240 6
7241 7255 71
7241 7271 44
7242 6240 2407
7242 7238 61
7242 7253 439
7243 7188 99
7243 7258 87
7243 7317 124
7244 7245 8
7245 7244 8
7245 7236 12
7245 7246 13
7245 7555 614
7246 7245 13
7246 7237 12
7246 7249 20
7246 7556 615
7247 7223 45
7247 7248 104
7247 7277 162
7248 7247 104
7249 7246 20
7250 7227 168
7250 7155 200
7250 7252 7
7251 7133 1139
7251 7195 254
7252 7250 7
7252 7156 200
7252 7261 100
7253 7254 2057
7253 7242 439
7253 7500 1481
7254 7253 2057
7255 7241 71
7255 7268 124
7255 7278 41
7256 7237 419
7256 7226 50
7257 7218 72
7257 7261 25
7257 7262 12
7257 7263 22
7258 7243 87
7258 7200 104
7258 7303 206
7258 7338 146
7259 7221 71
7259 7260 53
7259 7303 66
7260 7259 53
7260 7240 174
7260 7319 101
7261 7252 100
7261 7257 25
7261 7262 14
7261 7268 9
7262 7261 14
7262 7257 12
7262 7263 11
7262 7272 9
7263 7262 11
7263 7257 22
7263 7273 9
7263 7295 295
7264 7230 195
7264 7265 83
7264 7297 115
7265 7264 83
7266 7267 195
7267 7266 195
7267 7112 717
7267 7374 436
7268 7255 124
7268 7261 9
7268 7272 13
7268 7274 11
7269 7270 21
7269 7292 28
7270 7269 21
7271 7241 44
7272 7268 13
7272 7262 9
7272 7273 11
7272 7275 10
7273 7272 11
7273 7263 9
7273 7275 22
7273 7279 131
7274 7268 11
7274 7275 12
7275 7274 12
7275 7272 10
7275 7273 22
7275 7301 35
7276 7277 38
7277 7276 38
7277 7247 162
7277 7343 243
7278 7255 41
7278 7301 140
7278 7314 66
7279 7273 131
7279 7299 162
7279 7328 86
7280 7238 1212
7280 7308 375
7281 7179 290
7281 7350 394
7281 7504 879
7282 7183 298
7282 7395 250
7282 7553 2688
7283 7235 70
7284 7285 343
7284 12209 343
7284 12210 343
7284 7491 402
7285 7284 343
7285 12209 343
7285 12210 343
7286 7287 400
7286 7323 398
7286 7405 4791
7287 7286 400
7288 7072 717
7288 7353 155
7288 7387 255
7289 7226 386
7289 7290 284
7289 7293 8
7289 7388 175
7290 7289 284
7290 6979 398
7291 7292 21
7292 7291 21
7292 7269 28
7293 7289 8
7293 7294 286
7293 7392 176
7294 7293 286
7294 6978 398
7295 7263 295
7295 7204 147
7295 7296 5
7295 7299 6
7296 7295 5
7296 7187 166
7296 7300 6
7296 7302 155
7297 7264 115
7297 7298 124
7297 7304 76
7298 7297 124
7299 7279 162
7299 7295 6
7299 7300 5
7299 7351 101
7300 7299 5
7300 7296 6
7300 7307 196
7300 7352 101
7301 7278 140
7301 7275 35
7301 7326 55
7301 7328 154
7302 7296 155
7302 7205 164
7302 7309 158
7303 7258 206
7303 7259 66
7303 7310 19
7304 7297 76
7304 7315 63
7304 7421 218
7305 7306 76
7305 12201 76
7306 7305 76
7306 12201 76
7307 7300 196
7307 7316 165
7307 7382 132
7308 7280 375
7308 7359 78
7309 7302 158
7309 7211 176
7309 7329 273
7310 7303 19
7310 7319 60
7310 7404 184
7311 3340 13555
7311 7919 1437
7311 8420 3896
7312 7192 228
7312 7370 235
7312 7407 195
7313 7173 2449
7313 7004 994
7313 7636 985
7313 7788 1294
7314 7278 66
7314 7335 145
7314 7356 69
7315 7304 63
7315 7185 223
7315 7317 7
7315 7516 485
7316 7307 165
7316 7334 226
7316 7433 235
7317 7315 7
7317 7243 124
7317 7338 68
7317 7513 474
7318 7121 388
7318 7347 957
7318 7444 260
7319 7310 60
7319 7260 101
7319 7426 201
7320 7321 41
7320 12204 41
7321 7320 41
7321 12204 41
7322 7148 1917
7322 7696 1350
7323 7324 30
7323 7325 138
7323 7286 398
7324 7323 30
7324 7413 740
7324 7551 862
7325 7323 138
7326 7327 7
7326 7301 55
7326 7335 12
7326 7337 22
7327 7326 7
7328 7301 154
7328 7279 86
7328 7351 148
7329 7309 273
7329 7136 388
7329 7334 5
7329 7346 199
7330 7201 219
7330 7336 58
7330 7386 93
7331 7008 1360
7331 7368 865
7331 7387 376
7332 7333 40
7332 7467 979
7332 7639 655
7333 7332 40
7333 7173 1271
7333 7459 1023
7334 7316 226
7334 7329 5
7334 7339 83
7334 7434 217
7335 7314 145
7335 7326 12
7335 7337 8
7335 7376 69
7336 7330 58
7336 7222 212
7336 7421 546
7337 7335 8
7337 7326 22
7337 7340 7
7337 7354 81
7338 7317 68
7338 7258 146
7338 7393 166
7339 7334 83
7339 7361 226
7339 7458 254
7340 7337 7
7341 7342 43
7341 12206 43
7342 7341 43
7342 12206 43
7343 7229 596
7343 7277 243
7343 7353 22
7344 7150 445
7344 7345 11
7344 7920 1322
7345 7344 11
7345 7154 436
7345 7366 245
7345 7923 1328
7346 7329 199
7346 7157 354
7346 7355 111
7347 7318 957
7347 7144 388
7347 7535 403
7348 7349 48
7348 12208 48
7349 7348 48
7349 12208 48
7350 7281 394
7350 7578 554
7351 7328 148
7351 7299 101
7351 7352 9
7351 7378 58
7352 7351 9
7352 7300 101
7352 7364 98
7352 7381 60
7353 7343 22
7353 7288 155
7353 7400 115
7354 7337 81
7354 7378 205
7354 7394 81
7355 7346 111
7355 7128 440
7355 7358 11
7355 7361 7
7356 7357 42
7356 7314 69
7356 7369 82
7356 7402 92
7357 7356 42
7358 7355 11
7358 7220 238
7358 7362 6
7358 7373 212
7359 7308 78
7359 7372 3242
7359 7429 271
7360 7214 373
7360 7377 62
7361 7339 226
7361 7355 7
7361 7362 10
7361 7471 261
7362 7361 10
7362 7358 6
7362 7367 78
7362 7474 262
7363 7215 379
7363 7414 262
7363 7663 801
7364 7352 98
7364 7382 110
7364 7396 64
7365 6169 2242
7365 7509 323
7366 7345 245
7366 7229 254
7366 7465 473
7367 7362 78
7367 7375 135
7367 7436 175
7368 7331 865
7369 7356 82
7369 7376 64
7369 7399 58
7370 7312 235
7370 7372 77
7370 7407 358
7371 7139 485
7371 7176 1254
7371 7409 153
7372 7370 77
7372 7359 3242
7372 8155 3800
7373 7358 212
7373 7375 5
7373 7403 482
7374 7172 497
7374 7267 436
7374 7438 461
7375 7367 135
7375 7373 5
7375 7406 482
7375 7456 188
7376 7369 64
7376 7335 69
7376 7384 17
7377 6922 1310
7377 7360 62
7377 7389 17
7377 7950 1573
7378 7354 205
7378 7351 58
7378 7381 9
7378 7477 218
7379 7194 313
7379 7380 101
7379 7438 148
7380 7379 101
7380 6986 741
7381 7378 9
7381 7352 60
7381 7396 101
7381 7415 75
7382 7364 110
7382 7307 132
7382 7418 114
7383 7173 423
7383 7390 133
7383 7480 244
7384 7376 17
7384 7394 94
7384 7416 74
7385 7386 105
7385 6988 738
7386 7385 105
7386 7330 93
7386 7453 160
7387 7288 255
7387 7331 376
7387 7518 317
7388 7289 175
7388 7912 952
7389 6923 1327
7389 7377 17
7389 7520 537
7389 7952 1563
7390 7383 133
7390 7480 204
7390 7546 392
7391 4255 11165
7391 6083 11370
7391 7956 1832
7392 7293 176
7392 7484 951
7392 7496 951
7392 7702 951
7392 7703 951
7392 7915 951
7393 7338 166
7393 7404 38
7393 7490 253
7394 7384 94
7394 7354 81
7394 7461 155
7395 7282 250
7396 7381 101
7396 7364 64
7396 7408 114
7396 7428 70
7397 7398 154
7398 7397 154
7398 12211 17
7399 7369 58
7400 7229 487
7400 7353 115
7400 7465 183
7400 7518 455
7401 7080 685
7401 7492 349
7401 7542 339
7402 7356 92
7402 7410 92
7402 7440 110
7403 7373 482
7403 7178 385
7403 7406 5
7403 7411 114
7404 7393 38
7404 7310 184
7404 7426 95
7404 7494 206
7405 4262 11789
7405 7286 4791
7405 7867 1253
7406 7375 482
7406 7403 5
7406 7419 114
7406 7557 383
7407 7312 195
7407 7370 358
7407 7437 99
7408 7396 114
7408 7418 46
7408 7493 184
7409 7371 153
7409 7233 1906
7409 7629 2741
7410 7402 92
7410 7416 55
7410 7443 93
7411 7403 114
7411 7191 394
7411 7412 15
7411 7419 13
7412 7411 15
7412 7196 392
7412 7417 44
7412 7420 13
7413 7324 740
7414 7363 262
7414 7431 78
7414 7534 347
7415 7381 75
7415 7428 102
7415 7478 141
7416 7410 55
7416 7384 74
7416 7423 12
7417 7412 44
7417 6829 1388
7417 7425 12
7417 7565 949
7418 7408 46
7418 7382 114
7418 7427 28
7419 7406 114
7419 7411 13
7419 7420 16
7419 7571 356
7420 7419 16
7420 7412 13
7420 7425 43
7420 7574 357
7421 7304 218
7421 7336 546
7421 7536 330
7422 7423 12
7423 7422 12
7423 7416 12
7423 7424 2
7423 7439 64
7424 7423 2
7425 7420 43
7425 7417 12
7425 7447 282
7425 7711 604
7426 7404 95
7426 7319 201
7426 7432 83
7427 7418 28
7427 7433 61
7427 7497 161
7428 7415 102
7428 7396 70
7428 7482 129
7429 7359 271
7430 7189 630
7430 7460 888
7430 7468 188
7431 7414 78
7432 7426 83
7432 7440 126
7432 7515 195
7433 7427 61
7433 7316 235
7433 7435 71
7434 7334 217
7434 7435 152
7434 7451 86
7434 7508 175
7435 7434 152
7435 7433 71
7435 7503 159
7436 7367 175
7436 7456 168
7436 7481 92
7437 7407 99
7437 7562 325
7437 7817 2188
7438 7374 461
7438 7379 148
7438 7479 68
7439 7423 64
7439 7448 28
7439 7450 13
7439 7452 21
7440 7432 126
7440 7402 110
7440 7441 72
7440 7510 147
7441 7440 72
7441 7443 24
7441 7522 165
7442 7163 576
7443 7441 24
7443 7410 93
7443 7448 40
7444 7318 260
7444 7506 609
7444 7491 1326
7445 7446 242
7445 12211 586
7445 12223 586
7446 7445 242
7447 7425 282
7447 7568 667
7447 7610 325
7448 7443 40
7448 7439 28
7448 7450 14
7448 7454 6
7449 6489 1963
7450 7448 14
7450 7439 13
7450 7452 10
7450 7455 7
7451 7434 86
7451 7458 25
7451 7514 144
7452 7450 10
7452 7439 21
7452 7455 17
7452 7461 94
7453 7386 160
7453 7487 65
7453 7536 489
7454 7448 6
7454 7455 13
7455 7454 13
7455 7450 7
7455 7452 17
7455 7533 170
7456 7436 168
7456 7375 188
7456 7501 97
7457 6788 1994
7457 7615 3268
7458 7451 25
7458 7339 254
7458 7471 176
7459 7333 1023
7459 12223 554
7460 7430 888
7460 7530 617
7461 7452 94
7461 7394 155
7461 7466 31
7462 7463 342
7462 7464 1100
7462 7475 34
7462 7475 118
7463 7462 342
7464 7462 1100
7465 7366 473
7465 7400 183
7465 7483 44
7466 7461 31
7466 7476 167
7466 7638 368
7467 7332 979
7467 12219 460
7468 7469 194
7468 7430 188
7468 7470 17
7469 7468 194
7470 7468 17
7470 7499 133
7470 7502 280
7470 7529 288
7471 7458 176
7471 7361 261
7471 7474 12
7471 7537 151
7472 7199 680
7472 6607 1933
7472 7232 4015
7473 7071 821
7473 7512 100
7473 7627 581
7474 7471 12
7474 7362 262
7474 7481 106
7474 7707 491
7475 7462 34
7475 7462 118
7475 7525 278
7476 7466 167
7476 7477 8
7477 7476 8
7477 7378 218
7477 7478 5
7477 7657 359
7478 7477 5
7478 7415 141
7478 7482 103
7478 7656 357
7479 7438 68
7479 7519 115
7479 7519 92
7479 7599 250
7480 7383 244
7480 7390 204
7480 7543 145
7481 7474 106
7481 7436 92
7481 7501 175
7482 7478 103
7482 7428 129
7482 7493 105
7483 7465 44
7484 7485 293
7484 7392 951
7484 7496 951
7484 7702 951
7484 7703 951
7484 7915 951
7485 7484 293
7485 7486 291
7485 7488 85
7486 7485 291
7486 12209 133
7487 7453 65
7487 7595 233
7487 7595 242
7488 7485 85
7488 7489 288
7488 7491 121
7489 7488 288
7489 12210 133
7490 7393 253
7490 7494 25
7491 7488 121
7491 7284 402
7491 7495 12
7491 7444 1326
7492 7214 637
7492 7401 349
7492 7628 322
7493 7482 105
7493 7408 184
7493 7497 78
7493 7582 208
7494 7490 25
7494 7404 206
7494 7513 56
7494 7515 165
7495 7496 501
7495 7491 12
7495 7511 1936
7495 7607 230
7496 7495 501
7496 7392 951
7496 7484 951
7496 7702 951
7496 7703 951
7496 7915 951
7497 7493 78
7497 7427 161
7497 7498 31
7498 7497 31
7498 7503 111
7498 7549 279
7499 7470 133
7499 7507 42
7499 7567 474
7500 7253 1481
7500 8277 6566
7501 7481 175
7501 7456 97
7501 7521 45
7502 7470 280
7503 7498 111
7503 7435 159
7503 7508 113
7504 7281 879
7504 7534 176
7505 7181 1295
7505 7553 150
7506 7444 609
7506 7524 170
7506 7535 307
7507 7499 42
7508 7503 113
7508 7434 175
7508 7514 85
7508 7549 76
7509 7365 323
7509 7512 87
7509 7523 41
7510 7440 147
7510 7522 74
7510 7540 51
7511 7495 1936
7511 7528 169
7511 7554 388
7512 7509 87
7512 7473 100
7512 7579 178
7513 7317 474
7513 7494 56
7513 7516 7
7513 7581 307
7514 7508 85
7514 7451 144
7514 7517 35
7515 7494 165
7515 7432 195
7515 7540 137
7516 7315 485
7516 7513 7
7516 7587 307
7516 7604 174
7517 7514 35
7517 7537 164
7517 7596 158
7518 7400 455
7518 7387 317
7518 7642 249
7519 7479 115
7519 7479 92
7519 7599 175
7520 7389 537
7520 8085 2037
7520 8093 5827
7521 7501 45
7521 7552 271
7521 7726 426
7522 7510 74
7522 7441 165
7522 7533 73
7523 7509 41
7523 7527 10
7524 7506 170
7524 12222 656
7525 7475 278
7525 7539 50
7525 7644 327
7526 7527 74
7526 7547 640
7527 7526 74
7527 7523 10
7527 7561 86
7528 7511 169
7528 12224 656
7529 7470 288
7530 7460 617
7530 7760 529
7530 7835 846
7531 7532 21
7531 7558 73
7531 7559 116
7531 7576 143
7532 7531 21
7533 7522 73
7533 7455 170
7533 7560 75
7534 7414 347
7534 7504 176
7534 7541 16
7535 7506 307
7535 7347 403
7535 7547 79
7536 7453 489
7536 7421 330
7536 7650 292
7537 7517 164
7537 7471 151
7537 7706 341
7538 7539 253
7538 7539 231
7538 7729 2498
7539 7538 253
7539 7525 50
7539 7538 231
7540 7515 137
7540 7510 51
7540 7550 22
7541 7534 16
7541 7566 80
7541 7605 672
7542 7401 339
7542 7584 143
7542 7683 470
7543 7544 45
7543 7480 145
7543 7546 64
7544 7543 45
7544 7545 147
7544 7690 288
7545 7544 147
7545 7689 285
7545 7722 1239
7546 7543 64
7546 7390 392
7546 7548 165
7546 7691 286
7547 7535 79
7547 7526 640
7548 7546 165
7548 7636 1107
7548 7694 287
7549 7498 279
7549 7508 76
7549 7624 139
7550 7540 22
7550 7560 149
7550 7581 85
7551 7324 862
7551 7588 1495
7551 7671 758
7552 7521 271
7552 7557 148
7552 7753 418
7553 7505 150
7553 7282 2688
7553 7938 1636
7554 7511 388
7554 7563 604
7555 7245 614
7555 7565 53
7555 7575 45
7556 7246 615
7556 7577 47
7556 7590 73
7557 7552 148
7557 7406 383
7557 7571 163
7558 7531 73
7558 7564 27
7558 7569 49
7559 7531 116
7559 7564 43
7559 7621 101
7560 7550 149
7560 7533 75
7560 7611 80
7561 7527 86
7561 7563 107
7561 7570 32
7562 7437 325
7562 7685 431
7562 8231 4065
7563 7561 107
7563 7554 604
7564 7558 27
7564 7559 43
7564 7585 32
7565 7417 949
7565 7555 53
7565 7575 39
7566 7541 80
7566 7619 76
7566 7818 975
7567 7499 474
7568 7447 667
7568 7580 40
7568 7634 94
7569 7558 49
7569 7576 49
7569 7585 63
7570 7561 32
7570 7579 82
7570 7658 137
7571 7557 163
7571 7419 356
7571 7574 16
7571 7762 376
7572 7573 348
7572 7956 5159
7572 8014 2439
7573 7572 348
7573 6083 9784
7573 7704 7492
7574 7571 16
7574 7420 357
7574 7761 371
7574 7612 89
7575 7565 39
7575 7555 45
7575 7577 10
7575 7580 9
7576 7531 143
7576 7569 49
7576 7635 151
7577 7575 10
7577 7556 47
7577 7586 10
7577 7590 38
7578 7350 554
7578 7655 159
7578 7669 178
7579 7512 178
7579 7570 82
7579 7666 131
7580 7568 40
7580 7575 9
7580 7583 5
7581 7513 307
7581 7550 85
7581 7587 6
7581 7589 22
7582 7493 208
7582 7624 299
7582 7645 95
7583 7580 5
7583 7586 5
7583 7634 67
7584 7542 143
7584 7855 601
7584 7939 894
7585 7564 32
7585 7569 63
7585 7621 65
7586 7583 5
7586 7577 10
7586 7603 52
7587 7516 307
7587 7581 6
7587 7592 22
7588 7551 1495
7589 7581 22
7589 7591 14
7589 7592 7
7589 7598 43
7590 7577 38
7590 7556 73
7590 7702 494
7591 7589 14
7591 7597 9
7591 7600 7
7592 7587 22
7592 7589 7
7592 7600 13
7592 7608 21
7593 7594 56
7593 7606 42
7593 7654 108
7594 7593 56
7594 7640 169
7594 7649 107
7595 7487 233
7595 7487 242
7595 7599 11
7595 7609 17
7596 7517 158
7596 7624 171
7597 7591 9
7597 7598 4
7597 7601 6
7598 7597 4
7598 7589 43
7598 7602 7
7598 7617 90
7599 7479 250
7599 7595 11
7599 7519 175
7599 7632 46
7600 7592 13
7600 7591 7
7600 7601 10
7600 7613 20
7601 7600 10
7601 7597 6
7601 7602 5
7601 7618 20
7602 7601 5
7602 7598 7
7602 7618 27
7602 7623 90
7603 7586 52
7603 7634 73
7603 7703 477
7604 7516 174
7604 7641 131
7604 7651 98
7604 7664 152
7605 7541 672
7605 7614 49
7605 7777 404
7606 7593 42
7607 7495 230
7608 7592 21
7608 7613 11
7609 7595 17
7609 7631 31
7609 7650 219
7610 7447 325
7610 7612 273
7611 7560 80
7611 7617 20
7611 7620 8
7611 7622 19
7612 7610 273
7612 7574 89
7613 7608 11
7613 7600 20
7613 7618 12
7613 7723 262
7614 7605 49
7614 7655 267
7614 7714 248
7615 7616 337
7615 7457 3268
7616 7615 337
7617 7598 90
7617 7611 20
7617 7620 12
7617 7623 6
7618 7613 12
7618 7601 20
7618 7602 27
7618 7637 40
7619 7566 76
7619 7714 1121
7620 7617 12
7620 7611 8
7620 7622 10
7620 7625 6
7621 7585 65
7621 7559 101
7621 7635 51
7621 7641 60
7622 7620 10
7622 7611 19
7622 7626 6
7622 7638 168
7623 7602 90
7623 7617 6
7623 7625 13
7623 7630 15
7624 7582 299
7624 7549 139
7624 7596 171
7624 7684 126
7625 7623 13
7625 7620 6
7625 7626 10
7625 7633 15
7626 7625 10
7626 7622 6
7626 7633 24
7626 7662 320
7627 7473 581
7627 7904 1532
7628 7492 322
7629 7233 2451
7629 7409 2741
7629 7858 731
7630 7623 15
7630 7633 14
7631 7609 31
7631 7740 230
7632 7599 46
7632 7743 226
7633 7630 14
7633 7625 15
7633 7626 24
7633 7652 51
7634 7568 94
7634 7583 67
7634 7603 73
7634 7881 501
7635 7621 51
7635 7576 151
7636 7548 1107
7636 7313 985
7636 7990 1020
7637 7618 40
7637 7648 68
7637 7723 222
7638 7622 168
7638 7466 368
7638 7657 151
7639 7332 655
7639 7640 247
7639 7708 158
7640 7639 247
7640 7594 169
7640 7649 76
7641 7621 60
7641 7604 131
7641 7653 52
7641 7672 94
7642 7518 249
7642 7643 321
7642 7682 89
7643 7642 321
7644 7525 327
7644 7670 71
7644 7895 1151
7645 7582 95
7645 7656 245
7645 7684 302
7646 7647 147
7646 7769 338
7646 7797 907
7647 7646 147
7648 7637 68
7648 7652 53
7648 7677 67
7649 7640 76
7649 7594 107
7649 7654 43
7649 7679 62
7650 7609 219
7650 7536 292
7650 7674 48
7651 7604 98
7651 7653 46
7651 7676 50
7652 7648 53
7652 7633 51
7652 7688 67
7653 7641 52
7653 7651 46
7653 7672 42
7653 7676 59
7654 7649 43
7654 7593 108
7654 7739 207
7655 7578 159
7655 7614 267
7655 7669 24
7656 7478 357
7656 7645 245
7656 7657 5
7656 7661 6
7657 7638 151
7657 7477 359
7657 7656 5
7657 7662 5
7658 7570 137
7658 7715 583
7658 7727 172
7659 7660 143
7659 7660 221
7659 7720 198
7660 7659 143
7660 7659 221
7660 7675 112
7661 7656 6
7661 7662 5
7661 7665 349
7661 7863 410
7662 7626 320
7662 7657 5
7662 7661 5
7662 7862 409
7663 7363 801
7663 7819 436
7663 7904 818
7664 7604 152
7664 7698 178
7664 7698 229
7665 7661 349
7665 7678 137
7665 7896 528
7666 7579 131
7666 7725 161
7666 7998 1903
7667 7668 104
7667 7675 46
7667 7770 253
7668 7667 104
7669 7655 24
7669 7578 178
7669 7673 19
7670 7644 71
7671 7551 758
7672 7641 94
7672 7653 42
7672 7695 87
7672 7716 111
7673 7669 19
7673 7686 67
7673 7714 334
7674 7650 48
7674 7693 46
7675 7667 46
7675 7660 112
7675 7746 268
7676 7653 59
7676 7651 50
7676 7695 43
7677 7648 67
7677 7688 56
7677 7701 62
7678 7665 137
7678 7687 60
7678 7747 157
7679 7649 62
7679 7708 274
7679 7748 154
7680 7681 980
7681 7680 980
7681 7699 98
7681 7758 1040
7682 7642 89
7682 7717 174
7682 7763 202
7683 7542 470
7684 7645 302
7684 7624 126
7684 7687 6
7684 7706 341
7685 7562 431
7686 7673 67
7687 7678 60
7687 7684 6
7687 7700 224
7687 7744 134
7688 7677 56
7688 7652 67
7688 7709 62
7689 7545 285
7689 7690 128
7689 8063 1318
7690 7689 128
7690 7544 288
7690 7692 101
7690 7757 145
7691 7546 286
7691 7692 4
7691 7694 168
7692 7690 101
7692 7691 4
7692 7829 265
7693 7674 46
7693 7697 109
7693 7803 294
7694 7691 168
7694 7548 287
7694 8016 1134
7695 7672 87
7695 7676 43
7695 7698 9
7696 7322 1350
7696 7724 211
7697 7693 109
7697 7716 302
7698 7695 9
7698 7664 178
7698 7664 229
7699 7681 98
7700 7687 224
7700 7710 118
7700 7772 148
7701 7677 62
7701 7709 55
7701 7814 214
7702 7590 494
7702 7392 951
7702 7484 951
7702 7496 951
7702 7703 951
7702 7915 951
7703 7603 477
7703 7392 951
7703 7484 951
7703 7496 951
7703 7702 951
7703 7915 951
7704 7705 86
7704 7713 59
7704 7573 7492
7705 7704 86
7705 7773 228
7705 7758 2553
7706 7684 341
7706 7537 341
7706 7707 12
7706 7710 8
7707 7706 12
7707 7474 491
7707 7712 8
7707 7726 287
7708 7639 158
7708 7679 274
7708 7786 150
7709 7701 55
7709 7688 62
7709 7728 193
7709 7826 212
7710 7700 118
7710 7706 8
7710 7712 12
7710 7795 151
7711 7425 604
7711 7869 689
7711 8006 738
7712 7710 12
7712 7707 8
7712 7731 286
7712 7792 145
7713 7704 59
7714 7614 248
7714 7673 334
7714 7619 1121
7715 7658 583
7715 7718 93
7715 7787 195
7716 7697 302
7716 7672 111
7716 7813 623
7717 7682 174
7717 7730 82
7717 7899 463
7718 7715 93
7718 7837 284
7719 6972 2256
7719 8400 6809
7720 7721 173
7720 7659 198
7720 7746 45
7721 7720 173
7722 7545 1239
7722 7739 222
7722 7833 196
7723 7613 262
7723 7637 222
7723 7779 133
7724 7696 211
7724 7729 20
7724 7898 397
7725 7666 161
7725 7727 70
7725 7732 31
7725 7830 160
7726 7707 287
7726 7521 426
7726 7731 9
7726 7753 246
7727 7658 172
7727 7725 70
7727 8149 1516
7728 7709 193
7729 7724 20
7729 7538 2498
7730 7717 82
7730 7752 71
7730 7767 73
7731 7712 286
7731 7726 9
7731 7738 38
7732 7725 31
7732 8453 4615
7733 7734 227
7733 7755 90
7733 7780 223
7734 7733 227
7735 7736 72
7735 7752 312
7735 7778 78
7736 7735 72
7736 7737 199
7736 7754 170
7737 7736 199
7738 7731 38
7738 7745 27
7738 7810 122
7739 7654 207
7739 7722 222
7739 7748 38
7740 7741 22
7740 7631 230
7741 7740 22
7741 7802 98
7741 7808 116
7742 7743 26
7742 7800 99
7742 7806 110
7743 7742 26
7743 7632 226
7744 7687 134
7744 7772 218
7744 7883 275
7744 7887 273
7745 7738 27
7745 7759 180
7745 7825 141
7746 7675 268
7746 7720 45
7746 7764 68
7747 7678 157
7748 7679 154
7748 7739 38
7748 7786 213
7749 7750 264
7749 7751 4
7749 7781 166
7750 7749 264
7751 7749 4
7751 7764 95
7751 7816 116
7752 7735 312
7752 7730 71
7752 7845 175
7753 7726 246
7753 7552 418
7753 7759 10
7753 7762 308
7754 7736 170
7754 7770 117
7754 7824 125
7755 7733 90
7755 7756 370
7755 7775 58
7756 7755 370
7757 7690 145
7758 7681 1040
7758 7765 303
7758 7705 2553
7759 7745 180
7759 7753 10
7759 7774 309
7759 7836 129
7760 7530 529
7761 7574 371
7761 7762 15
7761 7776 15
7762 7753 308
7762 7571 376
7762 7761 15
7762 7774 14
7763 7682 202
7764 7746 68
7764 7751 95
7764 7820 236
7765 7766 67
7765 7758 303
7765 8101 2090
7766 7765 67
7767 7768 48
7767 7730 73
7767 7771 3
7768 7767 48
7769 7646 338
7769 7989 1358
7769 8092 971
7770 7754 117
7770 7667 253
7770 7828 172
7771 7767 3
7771 7782 66
7771 7790 23
7772 7744 218
7772 7700 148
7772 7795 147
7772 7801 41
7773 7705 228
7773 7844 196
7773 7861 310
7774 7759 309
7774 7762 14
7774 7776 15
7774 7947 224
7775 7755 58
7775 7835 670
7775 7882 383
7776 7774 15
7776 7761 15
7776 7944 215
7777 7605 404
7778 7735 78
7778 7784 82
7778 7805 48
7779 7723 133
7779 7796 48
7779 7838 137
7780 7733 223
7781 7749 166
7781 7800 361
7781 7839 124
7782 7771 66
7782 7783 8
7782 7798 27
7783 7782 8
7784 7778 82
7784 7785 3
7784 7811 52
7785 7784 3
7785 7793 115
7786 7708 150
7786 7748 213
7786 7789 5
7787 7715 195
7787 7837 297
7787 7877 192
7788 7313 1294
7788 7897 260
7788 7938 856
7789 7786 5
7789 7866 154
7789 7872 612
7790 7771 23
7790 7791 46
7790 7794 6
7791 7790 46
7792 7712 145
7792 7804 22
7792 7810 298
7792 12235 298
7793 7785 115
7794 7790 6
7794 7798 60
7794 7807 26
7795 7772 147
7795 7710 151
7795 7943 349
7796 7779 48
7796 7905 268
7797 7646 907
7798 7794 60
7798 7782 27
7798 7809 26
7799 7805 49
7800 7742 99
7800 7781 361
7800 7910 262
7801 7772 41
7802 7741 98
7802 7803 107
7802 7870 143
7803 7802 107
7803 7693 294
7803 7870 195
7804 7792 22
7804 7815 125
7804 7918 261
7805 7799 49
7805 7778 48
7805 7853 112
7806 7742 110
7806 8158 1405
7807 7794 26
7807 7809 51
7807 7842 109
7808 7741 116
7808 8153 1393
7809 7807 51
7809 7798 26
7809 7843 70
7810 7792 298
7810 12235 298
7810 7738 122
7810 7832 38
7811 7812 76
7811 7784 52
7811 7827 112
7812 7811 76
7813 7716 623
7814 7701 214
7814 7826 62
7814 7933 307
7815 7804 125
7815 7832 166
7815 12234 166
7815 7921 253
7816 7751 116
7817 7437 2188
7817 7937 322
7817 7949 937
7818 7566 975
7818 7819 12
7818 7932 404
7819 7663 436
7819 7818 12
7819 7856 159
7820 7821 211
7820 7764 236
7820 7828 18
7821 7820 211
7822 7823 197
7822 7831 182
7822 7856 87
7823 7822 197
7824 7754 125
7824 7827 9
7824 7857 99
7825 7745 141
7825 7832 28
7825 7836 200
7826 7814 62
7826 7709 212
7826 7834 116
7826 7933 284
7827 7811 112
7827 7824 9
7827 7864 151
7828 7770 172
7828 7820 18
7828 7851 115
7829 7692 265
7830 7725 160
7830 8167 1428
7831 7822 182
7832 7815 166
7832 12234 166
7832 7810 38
7832 7825 28
7832 7847 216
7832 7928 250
7833 7722 196
7833 7854 48
7833 7866 375
7834 7826 116
7834 7862 238
7834 7951 326
7835 7775 670
7835 7530 846
7835 8081 1248
7836 7825 200
7836 7759 129
7836 7847 25
7837 7787 297
7837 7718 284
7837 7924 210
7838 7779 137
7839 7781 124
7840 7841 136
7841 7840 136
7841 7848 24
7841 7907 225
7842 7807 109
7843 7809 70
7844 7773 196
7844 7852 24
7844 7917 383
7845 7752 175
7845 7846 104
7845 7850 5
7846 7845 104
7847 7832 216
7847 7836 25
7847 7865 178
7848 7849 762
7848 7841 24
7848 7981 441
7849 7848 762
7850 7845 5
7850 7876 53
7850 7879 149
7851 7828 115
7851 7868 54
7851 7927 218
7852 7844 24
7852 7859 64
7852 7891 138
7853 7805 112
7853 7864 59
7853 7888 193
7854 7833 48
7854 7880 196
7854 7885 71
7855 7584 601
7855 7860 17
7855 8122 1171
7856 7822 87
7856 7819 159
7856 7941 418
7857 7824 99
7858 7629 731
7858 7949 1642
7858 8081 1304
7859 7852 64
7860 7855 17
7860 8019 729
7860 8124 1158
7861 7773 310
7861 7908 138
7861 7917 293
7862 7834 238
7862 7662 409
7862 7935 195
7863 7661 410
7863 7896 272
7863 7980 366
7864 7853 59
7864 7827 151
7864 7899 391
7865 7847 178
7866 7789 154
7866 7833 375
7866 7892 77
7867 7405 1253
7867 8202 7486
7867 8514 2872
7868 7851 54
7868 7906 274
7868 7927 197
7869 7711 689
7869 7881 482
7869 8026 714
7870 7802 143
7870 7803 195
7870 7909 117
7871 7872 675
7871 12211 450
7872 7871 675
7872 7789 612
7872 7873 8
7873 7872 8
7873 7874 9
7873 8690 4606
7874 7875 730
7874 7873 9
7874 7993 993
7875 7874 730
7875 12220 100
7876 7850 53
7876 7878 105
7876 7884 22
7877 7787 192
7877 7900 167
7877 7929 152
7878 7876 105
7879 7850 149
7880 7854 196
7880 7892 165
7880 7901 77
7881 7634 501
7881 7869 482
7881 8103 2130
7882 7775 383
7883 7744 275
7883 7887 18
7883 7930 145
7884 7876 22
7884 7886 77
7884 7889 11
7885 7854 71
7885 7901 192
7885 7973 305
7886 7884 77
7887 7883 18
7887 7744 273
7887 7931 147
7888 7853 193
7889 7884 11
7889 7890 107
7889 7899 39
7890 7889 107
7891 7852 138
7892 7866 77
7892 7880 165
7892 7925 129
7893 7894 267
7893 8152 1227
7893 12230 387
7894 7893 267
7894 12224 607
7895 7644 1151
7896 7863 272
7896 7665 528
7896 7913 123
7897 7788 260
7897 7990 1388
7897 8097 830
7898 7724 397
7898 8181 29
7899 7889 39
7899 7864 391
7899 7717 463
7900 7877 167
7900 7924 181
7900 7958 185
7901 7880 77
7901 7885 192
7901 7925 196
7902 7903 339
7903 7902 339
7904 7663 818
7904 7627 1532
7905 7796 268
7905 7933 177
7906 7868 274
7906 7910 384
7906 7971 394
7907 7841 225
7908 7861 138
7908 7960 266
7908 8010 542
7909 7870 117
7909 7910 20
7909 8029 460
7910 7906 384
7910 7800 262
7910 7909 20
7910 7954 127
7911 7912 257
7911 8076 558
7912 7911 257
7912 7388 952
7913 7896 123
7913 7914 251
7913 7930 85
7914 7913 251
7915 7916 261
7915 7392 951
7915 7484 951
7915 7496 951
7915 7702 951
7915 7703 951
7916 7915 261
7916 8082 572
7917 7844 383
7917 7861 293
7917 7959 171
7918 7804 261
7918 7921 111
7918 7963 134
7919 7311 1437
7919 8072 3548
7919 8325 1778
7920 7344 1322
7920 7923 15
7920 7957 132
7921 7918 111
7921 7815 253
7921 7922 58
7921 7964 132
7922 7921 58
7922 7926 126
7922 7926 132
7923 7920 15
7923 7345 1328
7923 7961 135
7923 8034 616
7924 7900 181
7924 7837 210
7924 7985 245
7925 7892 129
7925 7901 196
7926 7922 126
7926 7928 86
7926 7922 132
7927 7868 197
7927 7851 218
7928 7926 86
7928 7832 250
7928 7969 136
7929 7877 152
7929 7953 99
7929 7958 174
7930 7913 85
7930 7883 145
7930 7931 26
7931 7930 26
7931 7887 147
7931 7934 19
7932 7818 404
7932 7942 194
7932 7942 285
7933 7905 177
7933 7814 307
7933 7826 284
7933 7936 8
7933 7951 126
7933 7975 190
7934 7931 19
7934 7940 259
7934 7999 228
7935 7862 195
7935 7972 251
7935 7979 171
7936 7933 8
7936 7976 187
7936 7983 385
7937 7817 322
7937 7955 394
7937 8086 1290
7938 7788 856
7938 7553 1636
7938 7987 248
7939 7584 894
7939 7950 33
7940 7934 259
7940 7943 168
7940 8048 376
7941 7856 418
7941 7962 96
7941 7965 88
7942 7932 194
7942 7932 285
7942 8012 292
7943 7940 168
7943 7795 349
7943 8008 213
7944 7945 192
7944 7776 215
7945 7944 192
7945 7946 13
7945 8137 693
7945 8185 1149
7946 7947 186
7946 7945 13
7946 7948 111
7946 8141 705
7947 7946 186
7947 7774 224
7948 7946 111
7949 7817 937
7949 7858 1642
7949 8197 1852
7950 7377 1573
7950 7939 33
7950 7952 14
7950 8121 743
7951 7933 126
7951 7834 326
7951 7972 169
7952 7389 1563
7952 7950 14
7952 8123 739
7952 8447 2676
7953 7929 99
7954 7910 127
7954 7996 213
7954 8007 200
7955 7937 394
7956 7391 1832
7956 7572 5159
7956 7970 107
7957 7920 132
7957 7961 11
7957 8214 1086
7958 7929 174
7958 7900 185
7958 7985 187
7958 7994 153
7959 7917 171
7960 7908 266
7961 7957 11
7961 7923 135
7961 8064 607
7961 8173 840
7962 7941 96
7962 7965 89
7962 8012 682
7963 7918 134
7963 7964 110
7963 7988 105
7964 7963 110
7964 7921 132
7964 7969 217
7965 7941 88
7965 7962 89
7965 8022 206
7966 7967 206
7967 7966 206
7967 7968 27
7967 7977 169
7968 7967 27
7969 7964 217
7969 7928 136
7969 7995 107
7970 7956 107
7970 8072 680
7970 8174 1416
7971 7906 394
7972 7951 169
7972 7935 251
7972 7982 92
7973 7885 305
7973 7974 678
7973 8063 304
7974 7973 678
7975 7933 190
7975 7976 14
7975 8032 340
7976 7975 14
7976 7936 187
7976 8038 292
7976 8057 301
7977 7967 169
7978 7979 10
7978 7982 14
7979 7978 10
7979 7935 171
7979 7980 3
7980 7979 3
7980 7863 366
7980 7986 27
7981 7848 441
7981 7984 14
7982 7972 92
7982 7978 14
7982 7983 7
7983 7936 385
7983 7982 7
7983 7991 55
7984 7981 14
7984 8061 334
7985 7958 187
7985 7924 245
7985 8011 73
7986 7980 27
7986 7991 11
7986 8015 165
7987 7938 248
7987 8017 106
7987 8024 148
7988 7963 105
7988 7995 312
7988 8021 99
7989 7769 1358
7989 7992 549
7989 8105 425
7990 7636 1020
7990 7897 1388
7990 8377 2635
7991 7986 11
7991 7983 55
7991 8018 165
7992 7989 549
7992 8071 375
7993 7874 993
7994 7958 153
7995 7988 312
7995 7969 107
7995 8002 222
7995 8027 109
7996 7997 319
7996 7954 213
7996 8068 321
7997 7996 319
7998 7666 1903
7998 8166 863
7998 8453 3081
7999 8000 66
7999 7934 228
7999 8054 159
8000 7999 66
8001 6246 4039
8001 12197 4039
8001 8218 712
8002 7995 222
8002 8004 220
8002 8104 402
8003 6017 4478
8003 12146 4478
8003 12196 4478
8003 12241 703
8004 8002 220
8004 8005 329
8004 8006 42
8004 8187 706
8005 8004 329
8006 8004 42
8006 7711 738
8006 8219 778
8007 7954 200
8007 8031 127
8007 8044 138
8008 7943 213
8008 8009 147
8008 8073 248
8009 8008 147
8010 7908 542
8011 7985 73
8012 7942 292
8012 8013 609
8012 7962 682
8013 8012 609
8014 7572 2439
8015 7986 165
8015 8018 11
8015 8025 106
8016 7694 1134
8017 7987 106
8017 8020 114
8017 8024 160
8017 8077 223
8018 7991 165
8018 8015 11
8018 8028 108
8019 7860 729
8019 8084 445
8019 8239 1012
8020 8017 114
8021 7988 99
8021 8027 298
8021 8074 198
8022 7965 206
8022 8023 293
8022 8115 617
8023 8022 293
8024 8017 160
8024 7987 148
8024 8071 528
8025 8015 106
8025 8028 12
8025 8042 189
8026 7869 714
8026 8089 256
8026 8242 1789
8027 8021 298
8027 7995 109
8027 8094 243
8028 8018 108
8028 8025 12
8028 8045 190
8029 7909 460
8029 8030 31
8029 8031 34
8029 8037 15
8030 8029 31
8030 8033 482
8031 8007 127
8031 8029 34
8031 8039 16
8031 8044 91
8032 7975 340
8032 8033 17
8032 8041 11
8033 8030 482
8033 8032 17
8034 7923 616
8034 8064 102
8034 8087 295
8035 8036 37
8035 8040 257
8035 8055 55
8036 8035 37
8036 8037 21
8037 8029 15
8037 8036 21
8037 8039 34
8037 8055 58
8038 7976 292
8038 8041 55
8038 8102 293
8039 8031 16
8039 8037 34
8039 8043 72
8039 8056 57
8040 8035 257
8040 8041 202
8040 8100 236
8041 8040 202
8041 8032 11
8041 8038 55
8041 8120 339
8042 8025 189
8042 8045 9
8042 8054 86
8043 8039 72
8043 8056 115
8043 8069 158
8044 8007 138
8044 8031 91
8044 8109 384
8045 8028 190
8045 8042 9
8045 8066 331
8045 8098 208
8046 8047 24
8046 12236 17
8046 12237 14
8047 8046 24
8048 8049 94
8048 7940 376
8048 8067 76
8049 8048 94
8050 8051 314
8050 8109 447
8050 8117 304
8051 8050 314
8052 8053 22
8052 12236 3
8053 8052 22
8054 8042 86
8054 7999 159
8054 8067 289
8055 8037 58
8055 8035 55
8055 8100 319
8056 8043 115
8056 8039 57
8056 8108 361
8056 8129 492
8057 7976 301
8057 8102 348
8057 8275 803
8058 8059 31
8059 8058 31
8059 12237 12
8059 12238 19
8060 8061 24
8060 8065 120
8060 8080 97
8061 8060 24
8061 7984 334
8062 4360 12953
8062 8389 2997
8062 8720 4346
8063 7973 304
8063 7689 1318
8063 8690 3408
8064 7961 607
8064 8034 102
8064 8087 275
8065 8060 120
8066 8045 331
8066 8070 48
8066 8133 419
8067 8054 289
8067 8048 76
8067 8073 175
8068 7996 321
8069 8043 158
8069 8108 193
8069 8150 443
8070 8066 48
8070 8078 173
8070 8111 184
8071 8024 528
8071 7992 375
8071 8105 564
8071 8300 753
8072 7919 3548
8072 7970 680
8072 8325 4718
8073 8067 175
8073 8008 248
8073 8074 10
8073 8078 11
8074 8073 10
8074 8021 198
8074 8079 11
8074 8094 269
8075 8076 69
8075 8221 583
8076 8075 69
8076 7911 558
8077 8017 223
8077 8095 233
8077 8163 325
8078 8070 173
8078 8073 11
8078 8079 9
8078 8284 663
8079 8078 9
8079 8074 11
8079 8096 271
8079 8143 239
8080 8060 97
8080 8149 456
8081 7858 1304
8081 7835 1248
8081 8730 3408
8082 8083 68
8082 7916 572
8083 8082 68
8083 8257 579
8084 8019 445
8084 8124 338
8084 8201 448
8085 7520 2037
8086 7937 1290
8086 8197 1411
8086 8224 943
8087 8064 275
8087 8034 295
8087 8230 1196
8088 8089 974
8089 8088 974
8089 8026 256
8089 8099 63
8090 8091 102
8091 8090 102
8092 7769 971
8093 7520 5827
8094 8074 269
8094 8027 243
8094 8096 12
8094 8104 190
8095 8077 233
8095 8097 63
8095 8163 304
8096 8079 271
8096 8094 12
8096 8114 285
8096 8151 226
8097 7897 830
8097 8095 63
8097 8225 415
8098 8045 208
8098 8118 167
8098 8133 139
8099 8089 63
8099 8242 842
8100 8055 319
8100 8040 236
8100 8120 139
8101 7765 2090
8101 8202 648
8101 8534 4850
8102 8038 293
8102 8057 348
8102 8179 285
8103 7881 2130
8104 8094 190
8104 8002 402
8104 8110 99
8105 8071 564
8105 7989 425
8105 8125 309
8106 8107 559
8106 8127 185
8106 8148 208
8107 8106 559
8107 8255 648
8108 8069 193
8108 8056 361
8108 8200 298
8108 8366 1225
8109 8050 447
8109 8044 384
8109 8241 500
8110 8104 99
8110 8131 168
8111 8070 184
8112 8113 396
8112 8115 66
8112 8175 380
8113 8112 396
8114 8096 285
8114 8135 167
8115 8022 617
8115 8112 66
8115 8136 71
8116 5650 7953
8116 6706 4697
8116 12243 4697
8116 8119 15
8116 8295 1593
8117 8050 304
8118 8098 167
8119 8116 15
8119 6708 4705
8119 8144 87
8119 8302 1602
8119 12245 1602
8119 12253 1602
8120 8100 139
8120 8041 339
8120 8129 25
8120 8154 211
8121 7950 743
8121 8122 64
8121 8123 14
8121 8281 534
8122 8121 64
8122 7855 1171
8122 8124 16
8122 8234 459
8123 7952 739
8123 8121 14
8123 8253 697
8123 8287 540
8124 8122 16
8124 7860 1158
8124 8084 338
8124 8232 447
8125 8105 309
8125 8126 115
8125 8142 49
8126 8125 115
8127 8106 185
8127 8128 115
8127 8130 36
8128 8127 115
8129 8056 492
8129 8120 25
8129 8157 203
8129 8168 153
8130 8127 36
8131 8132 76
8131 8110 168
8132 8131 76
8132 8134 9
8132 8146 199
8133 8098 139
8133 8066 419
8133 8222 269
8134 8135 76
8134 8132 9
8134 8147 176
8134 8248 316
8135 8134 76
8135 8114 167
8136 8115 71
8136 8145 93
8136 8170 188
8137 7945 693
8137 8141 17
8137 8194 181
8138 6953 3333
8138 8291 1307
8138 8391 1486
8139 8140 1047
8139 8374 1421
8139 8400 1272
8140 8139 1047
8141 7946 705
8141 8137 17
8141 8146 64
8141 8178 126
8142 8125 49
8143 8079 239
8143 8151 246
8143 8283 419
8144 8119 87
8144 7147 4008
8144 8555 3358
8145 8136 93
8146 8132 199
8146 8141 64
8146 8147 25
8147 8134 176
8147 8146 25
8147 8178 129
8148 8106 208
8148 8156 45
8148 8252 334
8149 8080 456
8149 7727 1516
8149 8152 18
8149 8304 2891
8150 8069 443
8150 8164 51
8150 8373 825
8151 8143 246
8151 8096 226
8151 8187 271
8152 8149 18
8152 7893 1227
8152 8161 17
8152 8276 2631
8153 8154 56
8153 7808 1393
8154 8153 56
8154 8120 211
8154 8179 87
8155 7372 3800
8156 8148 45
8157 8129 203
8157 8158 57
8157 8263 434
8157 8310 435
8158 8157 57
8158 7806 1405
8159 8160 402
8159 8184 331
8159 8338 1909
8160 8159 402
8161 8152 17
8161 8162 1247
8161 8167 16
8161 8279 2628
8162 8161 1247
8162 12231 298
8163 8095 304
8163 8077 325
8163 8225 158
8163 8300 667
8164 8150 51
8164 8165 81
8164 8165 94
8165 8164 81
8165 8164 94
8165 8233 190
8166 7998 863
8166 8175 29
8167 8161 16
8167 7830 1428
8167 8335 2887
8167 8385 1093
8168 8169 80
8168 8129 153
8168 8188 123
8168 8348 577
8169 8168 80
8169 8192 189
8169 8193 100
8170 8136 188
8170 8186 48
8170 8301 587
8171 8172 45
8171 8201 178
8171 8212 179
8172 8171 45
8172 12239 672
8173 7961 840
8173 8214 255
8173 8217 137
8174 7970 1416
8175 8166 29
8175 8112 380
8175 8176 54
8176 8175 54
8176 8177 12
8176 8313 689
8177 8176 12
8177 8247 472
8177 8322 569
8178 8147 129
8178 8141 126
8178 8196 48
8179 8154 87
8179 8102 285
8179 8264 420
8180 8181 1243
8180 8195 390
8180 8543 3773
8181 8180 1243
8181 7898 29
8182 8183 83
8182 12240 658
8183 8182 83
8183 8215 146
8183 8223 147
8184 8159 331
8185 7945 1149
8186 8170 48
8187 8151 271
8187 8004 706
8187 8315 389
8188 8168 123
8188 8189 8
8188 8356 798
8189 8188 8
8190 8191 89
8191 8190 89
8191 8198 46
8191 8203 41
8192 8169 189
8193 8169 100
8194 8137 181
8194 8220 721
8194 8386 675
8195 8180 390
8195 8338 1327
8195 8530 1853
8196 8178 48
8196 8210 184
8196 8267 191
8197 7949 1852
8197 8086 1411
8197 8337 1285
8198 8191 46
8198 8199 86
8198 8222 71
8198 8237 93
8199 8198 86
8200 8108 298
8200 8207 36
8201 8084 448
8201 8171 178
8201 8212 21
8201 8232 115
8202 8101 648
8202 7867 7486
8202 8216 29
8203 8191 41
8204 8205 412
8204 8206 222
8204 8241 368
8204 8265 188
8205 8204 412
8206 8204 222
8207 8200 36
8207 8213 33
8207 8226 30
8208 8209 592
8209 8208 592
8209 8304 353
8209 8305 418
8210 8211 57
8210 8196 184
8210 8249 84
8211 8210 57
8212 8201 21
8212 8171 179
8212 8215 10
8212 8232 120
8213 8207 33
8214 7957 1086
8214 8173 255
8214 8340 631
8214 8388 1396
8215 8212 10
8215 8183 146
8215 8223 12
8215 8234 137
8216 8202 29
8216 8392 1072
8216 8451 1196
8217 8173 137
8217 8218 65
8217 8326 352
8217 8344 963
8218 8217 65
8218 8001 712
8218 12246 300
8219 8006 778
8219 8244 146
8219 8320 320
8220 8194 721
8220 8221 190
8220 8256 226
8221 8220 190
8221 8075 583
8222 8198 71
8222 8133 269
8222 8280 216
8223 8215 12
8223 8183 147
8223 8228 11
8223 8228 12
8224 8086 943
8224 8231 64
8225 8097 415
8225 8163 158
8225 8541 2269
8226 8207 30
8226 8227 38
8226 8229 32
8226 8235 29
8227 8226 38
8228 8223 11
8228 8223 12
8228 8270 250
8228 8512 1388
8229 8226 32
8230 8087 1196
8230 8252 257
8230 8417 1573
8231 7562 4065
8231 8224 64
8231 8349 867
8232 8201 115
8232 8212 120
8232 8124 447
8232 8234 15
8233 8165 190
8234 8122 459
8234 8232 15
8234 8215 137
8234 8270 156
8235 8226 29
8235 8236 35
8235 8238 28
8235 8245 27
8236 8235 35
8237 8198 93
8238 8235 28
8239 8019 1012
8239 8240 202
8239 8390 667
8240 8239 202
8241 8109 500
8241 8204 368
8241 8371 524
8242 8243 503
8242 8099 842
8242 8259 90
8242 8026 1789
8243 8242 503
8244 8219 146
8244 8248 89
8244 8274 121
8245 8235 27
8245 8246 29
8245 8251 23
8245 8254 17
8246 8245 29
8247 8177 472
8248 8244 89
8248 8134 316
8248 8249 119
8248 8273 108
8249 8248 119
8249 8210 84
8249 8250 26
8249 8272 104
8250 8249 26
8251 8245 23
8252 8230 257
8252 8148 334
8252 8255 12
8253 8123 697
8254 8245 17
8255 8252 12
8255 8107 648
8255 8363 821
8256 8220 226
8257 8258 433
8257 8083 579
8258 8257 433
8258 8329 544
8259 8260 62
8259 8242 90
8259 8271 55
8260 8259 62
8261 8262 598
8262 8261 598
8263 8157 434
8263 8266 77
8263 8332 251
8264 8179 420
8264 8268 78
8264 8275 311
8265 8204 188
8266 8263 77
8266 8269 80
8266 8282 325
8267 8196 191
8267 8272 215
8267 8357 332
8268 8264 78
8268 8285 454
8269 8266 80
8269 8290 491
8270 8234 156
8270 8228 250
8270 8281 65
8270 8513 1183
8271 8259 55
8271 8305 206
8271 8359 364
8272 8249 104
8272 8267 215
8272 8273 107
8272 8309 100
8273 8248 108
8273 8272 107
8273 8274 119
8273 8324 137
8274 8244 121
8274 8273 119
8274 8331 153
8275 8264 311
8275 8057 803
8275 8280 262
8275 8282 27
8276 8152 2631
8276 12249 418
8277 8278 413
8277 7500 6566
8277 8507 1311
8278 8277 413
8279 8161 2628
8279 12251 413
8280 8275 262
8280 8222 216
8280 8286 41
8281 8121 534
8281 8270 65
8281 8287 15
8281 8959 3592
8282 8266 325
8282 8275 27
8282 8289 291
8282 8299 50
8283 8143 419
8283 8307 56
8283 8308 88
8284 8078 663
8284 8303 79
8284 8306 53
8285 8286 81
8285 8268 454
8286 8285 81
8286 8280 41
8286 8288 101
8287 8123 540
8287 8281 15
8287 8447 1464
8287 8921 3363
8288 8286 101
8288 8294 177
8289 8290 42
8289 8282 291
8289 8293 137
8290 8289 42
8290 8269 491
8291 8138 1307
8291 8292 111
8292 8291 111
8292 8360 367
8292 8428 2098
8293 8289 137
8293 8297 145
8293 8379 346
8294 8288 177
8294 8296 53
8294 8303 294
8295 8116 1593
8295 8510 1390
8295 12242 1100
8296 8294 53
8296 8318 775
8296 8330 775
8297 8293 145
8297 8298 50
8297 8312 225
8298 8297 50
8298 8323 772
8298 8334 772
8299 8282 50
8299 8332 395
8299 8422 491
8300 8163 667
8300 8071 753
8300 8419 1519
8301 8170 587
8301 8317 209
8301 8387 444
8302 8119 1602
8302 12245 1602
8302 12253 1602
8302 8523 1526
8303 8294 294
8303 8284 79
8303 8306 56
8304 8209 353
8304 8149 2891
8304 8321 101
8304 8335 77
8305 8271 206
8305 8209 418
8305 8327 86
8306 8303 56
8306 8284 53
8306 8307 11
8306 8314 26
8307 8306 11
8307 8283 56
8307 8308 56
8307 8316 26
8308 8307 56
8308 8283 88
8308 8318 235
8309 8272 100
8309 8324 126
8309 12247 545
8310 8157 435
8310 8311 42
8310 8356 177
8311 8310 42
8311 8342 289
8311 8342 475
8312 8297 225
8312 8314 123
8312 8343 162
8313 8176 689
8313 8378 523
8313 8382 483
8314 8312 123
8314 8306 26
8314 8316 11
8314 8343 96
8315 8187 389
8315 8365 260
8316 8314 11
8316 8307 26
8316 8319 108
8316 8341 93
8317 8301 209
8317 8391 1169
8318 8308 235
8318 8296 775
8318 8330 775
8319 8316 108
8319 8323 179
8319 8341 148
8320 8219 320
8320 8367 258
8321 8304 101
8321 8433 418
8322 8177 569
8322 8568 2245
8322 8391 6226
8323 8319 179
8323 8298 772
8323 8334 772
8324 8273 137
8324 8309 126
8324 8328 13
8324 8331 162
8325 7919 1778
8325 8072 4718
8325 8435 1875
8326 8217 352
8326 8340 92
8326 12248 92
8326 8345 129
8327 8305 86
8328 8324 13
8328 8329 128
8328 8336 129
8328 8398 323
8329 8328 128
8329 8258 544
8330 8331 151
8330 8296 775
8330 8318 775
8331 8330 151
8331 8274 153
8331 8324 162
8332 8299 395
8332 8263 251
8332 8342 192
8333 8334 152
8333 8336 38
8333 8384 282
8334 8333 152
8334 8298 772
8334 8323 772
8335 8304 77
8335 8167 2887
8335 8339 106
8335 8494 847
8336 8333 38
8336 8328 129
8336 8375 245
8337 8197 1285
8337 8462 968
8337 8462 842
8338 8159 1909
8338 8195 1327
8338 8346 150
8339 8335 106
8339 8449 359
8340 8214 631
8340 8326 92
8340 12248 92
8340 8347 42
8341 8316 93
8341 8319 148
8341 8361 125
8342 8311 289
8342 8332 192
8342 8311 475
8343 8312 162
8343 8314 96
8343 8354 53
8344 8217 963
8344 8350 279
8344 8452 979
8345 8326 129
8345 8347 80
8345 12255 80
8345 12260 80
8345 8372 263
8346 8338 150
8347 8340 42
8347 8345 80
8347 12255 80
8347 12260 80
8348 8168 577
8349 8231 867
8349 8396 1219
8350 8351 183
8350 8344 279
8350 8372 151
8351 8350 183
8352 8353 284
8352 8370 600
8352 8374 2415
8353 8352 284
8354 8355 124
8354 8343 53
8354 8468 444
8355 8354 124
8356 8310 177
8356 8188 798
8356 8424 353
8357 8267 332
8357 8404 253
8358 8359 450
8359 8358 450
8359 8271 364
8359 8364 97
8359 8381 137
8360 8292 367
8360 8383 345
8361 8341 125
8361 8365 255
8361 8505 583
8362 8363 24
8362 8363 24
8362 8368 127
8363 8362 24
8363 8362 24
8363 8255 821
8363 8402 371
8364 8359 97
8365 8361 255
8365 8315 260
8365 8367 68
8365 8537 855
8366 8108 1225
8367 8365 68
8367 8320 258
8367 8384 193
8368 8362 127
8368 8402 195
8369 8370 71
8370 8369 71
8370 8376 84
8370 8352 600
8371 8241 524
8371 8373 13
8371 8402 605
8371 8411 107
8372 8345 263
8372 8350 151
8372 8452 938
8373 8371 13
8373 8150 825
8373 8414 105
8374 8139 1421
8374 8352 2415
8375 8336 245
8376 8370 84
8376 8393 96
8376 8410 136
8377 7990 2635
8378 8313 523
8379 8380 297
8379 8293 346
8379 8463 346
8380 8379 297
8381 8359 137
8381 8470 99
8382 8313 483
8383 8360 345
8383 8391 600
8384 8367 193
8384 8333 282
8384 8398 213
8385 8167 1093
8386 8194 675
8386 8397 126
8386 8399 66
8387 8301 444
8388 8214 1396
8388 8443 1103
8388 8875 2576
8389 8062 2997
8389 8420 1542
8389 8720 1823
8390 8239 667
8390 8512 889
8390 8855 3018
8391 8138 1486
8391 8383 600
8391 8317 1169
8391 8322 6226
8392 8216 1072
8392 8533 844
8393 8376 96
8394 8395 226
8394 8401 145
8394 8403 50
8395 8394 226
8396 8349 1219
8397 8386 126
8398 8384 213
8398 8328 323
8398 8488 447
8399 8386 66
8399 8404 153
8400 8139 1272
8400 7719 6809
8400 9019 6452
8401 8394 145
8402 8368 195
8402 8363 371
8402 8371 605
8403 8394 50
8403 8416 87
8403 8436 355
8404 8357 253
8404 8399 153
8404 8488 337
8405 8406 80
8405 8417 51
8405 8417 214
8406 8405 80
8407 8408 372
8407 8409 152
8407 8426 93
8408 8407 372
8409 8407 152
8410 8376 136
8410 8412 105
8410 8416 239
8411 8371 107
8412 8413 19
8412 8410 105
8412 8437 295
8413 8412 19
8413 8415 28
8413 8415 237
8414 8373 105
8415 8413 28
8415 8413 237
8415 8437 393
8416 8403 87
8416 8410 239
8416 8418 16
8417 8405 51
8417 8405 214
8417 8230 1573
8418 8416 16
8418 8421 21
8418 8441 383
8419 8300 1519
8420 7311 3896
8420 8389 1542
8420 8435 97
8421 8418 21
8422 8299 491
8422 8425 276
8422 8456 129
8423 8424 716
8424 8423 716
8424 8356 353
8424 8427 160
8424 8430 51
8425 8422 276
8425 8427 195
8425 8509 388
8426 8407 93
8426 8429 125
8426 8461 183
8427 8424 160
8427 8425 195
8427 8430 143
8428 8292 2098
8428 8431 256
8429 8426 125
8429 8466 346
8429 8516 630
8430 8424 51
8430 8427 143
8430 8434 72
8431 8428 256
8431 8439 172
8432 8433 596
8432 8525 136
8432 8526 136
8433 8432 596
8433 8321 418
8434 8430 72
8435 8420 97
8435 8325 1875
8435 8856 2441
8436 8403 355
8436 8438 27
8436 8439 414
8437 8412 295
8437 8446 112
8437 8415 393
8438 8436 27
8438 8448 109
8438 8469 118
8439 8431 172
8439 8436 414
8439 8478 278
8440 8441 2
8440 8446 19
8441 8440 2
8441 8418 383
8441 8444 61
8442 8443 1348
8442 8457 385
8442 8486 670
8443 8442 1348
8443 8388 1103
8443 8655 1931
8444 8445 84
8444 8441 61
8444 8469 151
8445 8444 84
8446 8440 19
8446 8437 112
8446 8454 42
8447 7952 2676
8447 8287 1464
8447 8475 114
8448 8438 109
8449 8450 633
8449 8339 359
8450 8449 633
8450 8517 136
8451 8216 1196
8452 8372 938
8452 8344 979
8452 8476 75
8452 8492 523
8453 7998 3081
8453 7732 4615
8453 8568 2132
8454 8446 42
8454 8455 0
8454 8472 140
8455 8454 0
8455 8465 98
8455 8490 322
8456 8422 129
8456 8458 175
8456 8487 109
8457 8442 385
8457 8473 80
8457 8709 5397
8458 8456 175
8458 8463 263
8458 8502 198
8459 8460 691
8460 8459 691
8461 8426 183
8462 8337 968
8462 8337 842
8462 8730 3772
8463 8458 263
8463 8379 346
8463 8464 78
8464 8463 78
8464 8468 288
8464 8500 186
8465 8455 98
8466 8429 346
8466 8467 140
8466 8519 422
8467 8466 140
8468 8354 444
8468 8464 288
8468 8496 172
8469 8438 118
8469 8444 151
8469 8472 97
8469 8474 185
8470 8471 238
8470 8381 99
8471 8470 238
8472 8469 97
8472 8454 140
8472 8480 176
8473 8457 80
8473 8484 848
8473 8789 2823
8474 8469 185
8474 8480 83
8475 8447 114
8475 8653 2053
8476 8477 1167
8476 8452 75
8476 8492 485
8477 8476 1167
8477 12259 44
8477 12264 129
8478 8439 278
8478 8479 243
8478 8511 351
8479 8478 243
8480 8472 176
8480 8474 83
8480 8490 217
8481 8482 33
8481 8483 9
8481 8483 9
8482 8481 33
8482 8485 860
8482 8491 36
8483 8481 9
8483 8481 9
8483 8491 38
8483 8520 1075
8484 8473 848
8484 8728 10221
8484 12254 10221
8484 12267 10221
8485 8482 860
8486 8442 670
8486 12252 10099
8486 12262 10099
8487 8456 109
8487 8499 92
8487 8509 403
8488 8398 447
8488 8404 337
8488 8489 254
8488 8537 888
8489 8488 254
8490 8455 322
8490 8480 217
8490 8493 205
8491 8483 38
8491 8482 36
8491 8585 1463
8492 8452 523
8492 8476 485
8492 8515 363
8493 8490 205
8494 8335 847
8494 8495 334
8494 8521 941
8495 8494 334
8496 8468 172
8496 8497 6
8496 8506 38
8497 8498 11
8497 8496 6
8497 8501 195
8497 8540 340
8498 8497 11
8499 8487 92
8499 8502 142
8499 8522 210
8500 8464 186
8500 8501 91
8500 8504 104
8501 8500 91
8501 8497 195
8501 8531 211
8502 8499 142
8502 8458 198
8502 8503 24
8503 8502 24
8503 8504 214
8503 8527 207
8504 8503 214
8504 8500 104
8504 8528 204
8505 8361 583
8505 12279 399
8506 8496 38
8506 12280 410
8507 8277 1311
8507 8508 1255
8507 8514 277
8508 8507 1255
8509 8425 388
8509 8487 403
8509 8536 212
8510 8295 1390
8510 8553 425
8510 8556 555
8511 8478 351
8512 8390 889
8512 8228 1388
8512 8513 38
8513 8270 1183
8513 8512 38
8514 7867 2872
8514 8507 277
8514 8781 2281
8515 8492 363
8515 8580 690
8515 8609 998
8516 8429 630
8517 8518 446
8517 8450 136
8518 8517 446
8518 8560 537
8518 8563 442
8519 8466 422
8519 8701 3068
8520 8483 1075
8521 8494 941
8521 8558 1176
8521 8623 1100
8522 8499 210
8522 8527 128
8522 8545 160
8523 8302 1526
8523 8555 257
8523 8557 283
8524 8525 790
8524 8526 638
8524 8551 357
8525 8524 790
8525 8432 136
8525 8526 136
8526 8524 638
8526 8432 136
8526 8525 136
8527 8522 128
8527 8503 207
8527 8528 200
8527 8544 154
8528 8527 200
8528 8504 204
8528 8529 111
8528 8547 156
8529 8528 111
8529 8531 89
8529 8548 157
8530 8195 1853
8531 8529 89
8531 8501 211
8531 8532 183
8531 8549 157
8532 8531 183
8533 8392 844
8533 8596 921
8534 8101 4850
8534 8535 10
8534 8550 747
8535 8534 10
8535 8550 231
8535 9039 4419
8536 8509 212
8537 8365 855
8537 8488 888
8537 8539 146
8538 8539 356
8539 8538 356
8539 8537 146
8539 8540 30
8539 8575 349
8540 8497 340
8540 8539 30
8540 8549 195
8540 8570 273
8541 8542 247
8541 8225 2269
8541 8567 1336
8542 8541 247
8542 8567 389
8542 8588 488
8543 8180 3773
8543 8561 218
8543 8586 1219
8544 8527 154
8544 8545 113
8544 8546 95
8545 8522 160
8545 8544 113
8545 8594 359
8546 8544 95
8546 8547 99
8546 8552 57
8547 8546 99
8547 8528 156
8547 8548 120
8548 8547 120
8548 8529 157
8548 8549 86
8549 8548 86
8549 8531 157
8549 8540 195
8550 8534 747
8550 8535 231
8550 8562 291
8551 8524 357
8551 8576 272
8552 8546 57
8553 8510 425
8553 8554 495
8553 8554 7
8554 8553 495
8554 8553 7
8554 8556 10
8554 8557 12
8555 8523 257
8555 8144 3358
8555 8565 70
8555 8621 444
8556 8510 555
8556 8554 10
8556 8559 12
8556 8735 1069
8557 8554 12
8557 8523 283
8557 8559 10
8557 8565 81
8558 8521 1176
8558 8623 530
8558 8648 2227
8559 8556 12
8559 8557 10
8559 8569 82
8559 8607 342
8560 8518 537
8560 8590 304
8561 8543 218
8562 8550 291
8563 8518 442
8563 8564 396
8563 8566 17
8564 8563 396
8565 8557 81
8565 8555 70
8565 8569 9
8565 8621 379
8566 8563 17
8566 8587 184
8566 8600 339
8567 8541 1336
8567 8542 389
8567 8723 1990
8568 8453 2132
8568 8322 2245
8568 8674 897
8569 8559 82
8569 8565 9
8569 8571 86
8569 8620 365
8570 8540 273
8570 8574 60
8570 8583 91
8571 8569 86
8571 8607 260
8571 8620 322
8571 8651 407
8572 8573 67
8572 8577 74
8573 8572 67
8573 8575 61
8573 8592 109
8574 8570 60
8575 8539 349
8575 8576 675
8575 8573 61
8575 8589 54
8576 8575 675
8576 8551 272
8577 8572 74
8577 8583 33
8577 8593 78
8578 8579 371
8578 12288 223
8579 8578 371
8579 12306 904
8580 8515 690
8580 8584 52
8580 8612 458
8581 8582 376
8581 12292 132
8582 8581 376
8582 12289 264
8583 8570 91
8583 8577 33
8583 8591 55
8583 8594 610
8584 8580 52
8585 8491 1463
8585 8611 1804
8585 8622 939
8586 8543 1219
8586 8614 1631
8586 8870 2886
8587 8566 184
8587 8600 434
8587 8640 391
8588 8542 488
8589 8575 54
8589 8590 690
8589 8592 54
8589 8606 121
8590 8589 690
8590 8560 304
8591 8583 55
8591 8593 36
8591 8595 229
8591 8604 97
8592 8573 109
8592 8589 54
8592 8598 46
8593 8591 36
8593 8577 78
8593 8599 49
8594 8545 359
8594 8583 610
8594 8608 46
8594 8611 326
8595 8591 229
8595 8603 320
8595 8605 232
8596 8533 921
8596 8597 1038
8596 8762 878
8597 8596 1038
8598 8592 46
8598 8599 49
8598 8624 132
8599 8593 49
8599 8598 49
8599 8627 143
8600 8566 339
8600 8616 92
8600 8587 434
8601 8602 470
8601 8619 1242
8601 8683 633
8602 8601 470
8602 8617 205
8602 8631 338
8603 8595 320
8603 8608 62
8603 8613 88
8604 8591 97
8605 8595 232
8605 12305 152
8605 12312 152
8606 8589 121
8607 8559 342
8607 8571 260
8607 8739 736
8608 8594 46
8608 8603 62
8608 8613 48
8608 8619 314
8609 8515 998
8609 8622 98
8609 8705 665
8610 8611 135
8611 8610 135
8611 8594 326
8611 8619 49
8611 8585 1804
8612 8580 458
8612 8618 100
8613 8608 48
8613 8603 88
8613 8646 148
8614 8615 205
8614 8586 1631
8614 8643 291
8615 8614 205
8616 8600 92
8616 8628 108
8616 8662 245
8617 8602 205
8617 8638 20
8618 8612 100
8618 8705 457
8618 8740 2272
8619 8611 49
8619 8608 314
8619 8601 1242
8619 8654 167
8620 8571 322
8620 8569 365
8620 8636 88
8621 8565 379
8621 8555 444
8621 8639 87
8622 8609 98
8622 8585 939
8622 8631 691
8623 8558 530
8623 8521 1100
8623 8947 2465
8624 8598 132
8624 8665 267
8625 8626 339
8625 12292 131
8626 8625 339
8626 12318 160
8627 8599 143
8627 8678 303
8628 8616 108
8628 8641 69
8628 8642 124
8629 8630 401
8629 12289 275
8630 8629 401
8630 12318 150
8631 8602 338
8631 8637 35
8631 8622 691
8632 8633 403
8632 12317 76
8633 8632 403
8633 12278 599
8634 8635 843
8634 12317 95
8635 8634 843
8635 12288 156
8636 8620 88
8636 8661 299
8637 8631 35
8637 8638 119
8637 8828 1566
8638 8637 119
8638 8617 20
8639 8621 87
8639 8664 314
8640 8587 391
8640 8681 172
8640 8811 1842
8641 8628 69
8641 8642 108
8641 8647 23
8642 8641 108
8642 8628 124
8642 8645 16
8643 8644 42
8643 8614 291
8643 8675 256
8644 8643 42
8645 8642 16
8645 8650 49
8645 8659 66
8646 8613 148
8646 8649 11
8646 8654 267
8647 8641 23
8647 8652 84
8647 8656 45
8648 8558 2227
8648 8704 358
8649 8646 11
8649 8717 223
8649 8748 937
8650 8645 49
8651 8571 407
8651 8657 43
8651 8661 63
8652 8647 84
8653 8475 2053
8653 8904 1680
8654 8619 167
8654 8646 267
8654 8691 120
8654 8695 306
8655 8443 1931
8655 8893 1860
8655 8913 2437
8656 8647 45
8656 8659 113
8656 8673 60
8657 8651 43
8657 8658 3
8657 8661 51
8658 8657 3
8658 8664 51
8658 8670 39
8659 8656 113
8659 8645 66
8659 8660 108
8660 8659 108
8660 8679 60
8661 8657 51
8661 8651 63
8661 8636 299
8662 8616 245
8662 8663 18
8662 8749 682
8663 8662 18
8663 8671 125
8663 8700 146
8664 8658 51
8664 8670 70
8664 8639 314
8665 8666 37
8665 8624 267
8666 8665 37
8666 8667 7
8666 8677 37
8667 8666 7
8667 8668 562
8667 8669 5
8668 8667 562
8669 8667 5
8669 8682 38
8669 8707 265
8670 8658 39
8670 8664 70
8670 8848 729
8671 8663 125
8671 8672 71
8671 8686 39
8672 8671 71
8673 8656 60
8673 8679 233
8673 8694 67
8674 8568 897
8674 8704 125
8674 8820 2796
8675 8676 518
8675 8643 256
8675 8693 221
8676 8675 518
8677 8678 28
8677 8666 37
8677 8682 13
8677 8748 260
8678 8677 28
8678 8627 303
8679 8660 60
8679 8680 3
8679 8673 233
8680 8679 3
8680 8685 44
8680 8697 57
8681 8640 172
8682 8677 13
8682 8669 38
8682 8714 289
8682 8751 260
8683 8601 633
8683 8684 138
8683 8737 254
8684 8683 138
8685 8680 44
8686 8671 39
8686 8687 56
8686 8718 97
8687 8686 56
8688 8689 4321
8688 8760 719
8688 8954 1666
8689 8688 4321
8690 7873 4606
8690 8063 3408
8690 8723 115
8690 8723 137
8691 8654 120
8691 8692 215
8691 8742 262
8692 8691 215
8693 8675 221
8694 8673 67
8694 8697 226
8694 8710 117
8694 8716 55
8695 8696 214
8695 8654 306
8695 8752 204
8696 8695 214
8697 8680 57
8697 8694 226
8697 8708 131
8698 8699 897
8699 8698 897
8699 8760 4327
8699 9521 4871
8700 8663 146
8701 8519 3068
8701 8711 1250
8701 8741 278
8702 8703 40
8703 8702 40
8703 8712 29
8703 8721 263
8704 8648 358
8704 8674 125
8704 8874 868
8705 8618 457
8705 8609 665
8705 8761 691
8706 8707 38
8706 12311 619
8707 8706 38
8707 8669 265
8707 8749 334
8708 8697 131
8708 8716 350
8708 8771 1206
8709 8457 5397
8709 8772 330
8709 8793 432
8710 8694 117
8710 8718 17
8710 8724 35
8711 8701 1250
8712 8703 29
8712 8713 87
8712 8721 17
8713 8712 87
8714 8682 289
8714 8715 58
8714 8729 94
8715 8714 58
8715 12312 628
8716 8694 55
8716 8719 34
8716 8708 350
8717 8649 223
8717 8742 179
8717 8757 34
8718 8686 97
8718 8710 17
8718 8722 18
8719 8716 34
8720 8062 4346
8720 8389 1823
8720 8842 1463
8720 9098 3078
8721 8712 17
8721 8703 263
8721 8725 19
8722 8718 18
8722 8724 24
8722 8774 372
8723 8690 115
8723 8690 137
8723 8736 66
8723 8567 1990
8724 8710 35
8724 8722 24
8724 8770 315
8725 8721 19
8725 8726 50
8725 8733 31
8726 8725 50
8727 8728 604
8727 8750 845
8727 8789 1008
8727 8807 377
8728 8727 604
8728 8484 10221
8728 12254 10221
8728 12267 10221
8729 8714 94
8729 8753 220
8729 8784 257
8730 8081 3408
8730 8462 3772
8730 8955 1330
8731 8732 805
8731 9029 3219
8732 8731 805
8733 8725 31
8733 8734 51
8733 8738 26
8734 8733 51
8735 8556 1069
8735 9051 2244
8736 8723 66
8736 12330 622
8737 8683 254
8737 8738 38
8737 8859 547
8738 8737 38
8738 8733 26
8738 8743 91
8739 8607 736
8739 9056 2250
8740 8618 2272
8740 9199 4723
8741 8701 278
8741 8975 1517
8742 8691 262
8742 8717 179
8743 8738 91
8743 8752 168
8744 8745 60
8744 8746 184
8744 8747 60
8744 8754 34
8745 8744 60
8746 8744 184
8747 8744 60
8748 8649 937
8748 8677 260
8748 8751 14
8749 8707 334
8749 8662 682
8749 8753 19
8749 8783 282
8750 8727 845
8750 8793 341
8751 8748 14
8751 8682 260
8751 8784 438
8752 8743 168
8752 8695 204
8752 8778 300
8753 8729 220
8753 8749 19
8753 8756 5
8754 8755 78
8754 8744 34
8754 8759 52
8754 8768 63
8755 8754 78
8756 8753 5
8756 8777 211
8756 8796 208
8757 8758 130
8757 8717 34
8758 8757 130
8758 8810 280
8758 9038 1380
8759 8754 52
8760 8688 719
8760 8699 4327
8760 8954 3349
8761 8705 691
8762 8596 878
8762 8763 1287
8762 8792 243
8763 8762 1287
8763 8858 2647
8764 8765 87
8764 12318 368
8765 8764 87
8765 8999 1007
8766 8767 87
8766 9007 1000
8767 8766 87
8767 12317 422
8768 8769 86
8768 8754 63
8768 8773 55
8768 8779 59
8769 8768 86
8770 8724 315
8770 8771 347
8770 8774 18
8771 8770 347
8771 8708 1206
8771 8825 682
8772 8709 330
8772 8839 484
8772 8841 385
8773 8768 55
8774 8770 18
8774 8722 372
8774 8788 121
8775 8776 163
8776 8775 163
8776 8795 108
8776 8813 346
8777 8756 211
8777 8786 66
8777 8799 108
8778 8752 300
8779 8780 91
8779 8768 59
8779 8782 69
8779 8790 62
8780 8779 91
8781 8514 2281
8781 8941 1375
8781 9009 2590
8782 8779 69
8783 8749 282
8783 8785 16
8783 8786 14
8784 8751 438
8784 8729 257
8784 8796 181
8784 8873 382
8785 8783 16
8785 8787 13
8785 8826 267
8786 8777 66
8786 8783 14
8786 8787 16
8786 8799 66
8787 8786 16
8787 8785 13
8787 8797 66
8787 8800 61
8788 8774 121
8788 8804 69
8788 8814 136
8789 8727 1008
8789 8473 2823
8789 8893 1100
8789 9026 1129
8790 8791 97
8790 8779 62
8790 8803 59
8790 8806 247
8791 8790 97
8792 8762 243
8793 8709 432
8793 8750 341
8793 8841 339
8793 8929 595
8794 8795 11
8794 8798 42
8795 8794 11
8795 8776 108
8795 8798 73
8796 8784 181
8796 8756 208
8796 8816 254
8796 8844 198
8797 8787 66
8797 8800 80
8797 8831 192
8798 8794 42
8798 8795 73
8798 8826 219
8799 8777 108
8799 8786 66
8799 8816 87
8800 8787 61
8800 8797 80
8800 8818 86
8801 8802 27
8801 8803 63
8801 8805 28
8802 8801 27
8802 8805 19
8802 8815 79
8803 8801 63
8803 8790 59
8803 8806 264
8804 8788 69
8804 8813 46
8804 8814 61
8805 8802 19
8805 8801 28
8805 8817 195
8806 8790 247
8806 8803 264
8806 8808 123
8807 8727 377
8807 9167 607
8808 8806 123
8808 8809 112
8808 8817 475
8808 8835 109
8809 8808 112
8810 8758 280
8810 8827 98
8810 8873 1100
8811 8640 1842
8811 8812 244
8811 8834 98
8812 8811 244
8813 8776 346
8813 8804 46
8813 8822 74
8813 8851 235
8814 8804 61
8814 8788 136
8814 8830 147
8815 8802 79
8815 8836 547
8815 8838 115
8816 8796 254
8816 8799 87
8816 8818 15
8816 8888 333
8817 8808 475
8817 8819 14
8817 8805 195
8818 8816 15
8818 8800 86
8818 8831 231
8818 8888 337
8819 8817 14
8819 8821 277
8819 8829 68
8820 8674 2796
8820 9099 2412
8821 8819 277
8822 8813 74
8823 8824 54
8823 8824 491
8823 8835 645
8824 8823 54
8824 8823 491
8825 8771 682
8825 8836 60
8826 8785 267
8826 8798 219
8826 8831 20
8826 8876 250
8827 8810 98
8827 9027 1586
8827 9034 962
8828 8637 1566
8828 8909 324
8828 8953 891
8829 8819 68
8829 8849 61
8829 8863 234
8830 8814 147
8831 8818 231
8831 8797 192
8831 8826 20
8831 8894 276
8831 9010 999
8832 8833 82
8832 8837 26
8832 8840 20
8833 8832 82
8833 8850 409
8833 8865 182
8834 8811 98
8834 8885 475
8834 8905 277
8835 8808 109
8835 8861 117
8835 8823 645
8836 8825 60
8836 8815 547
8836 8838 16
8836 8867 136
8837 8832 26
8837 8840 25
8837 8845 118
8838 8836 16
8838 8815 115
8838 8849 64
8838 8869 141
8839 8772 484
8839 8891 374
8839 8919 345
8840 8837 25
8840 8832 20
8840 8853 48
8841 8772 385
8841 8793 339
8841 8919 510
8841 8929 390
8842 8720 1463
8842 8856 238
8842 9483 3315
8843 8844 121
8844 8843 121
8844 8796 198
8844 8852 24
8844 8852 425
8845 8837 118
8845 8850 26
8845 8857 32
8846 8847 274
8846 8848 8
8847 8846 274
8847 8870 622
8847 8939 493
8848 8846 8
8848 8670 729
8848 8939 358
8849 8838 64
8849 8829 61
8850 8833 409
8850 8845 26
8850 8857 27
8851 8813 235
8851 8867 139
8851 8918 291
8852 8844 24
8852 8844 425
8852 8881 147
8853 8840 48
8853 8854 58
8853 8868 97
8854 8853 58
8855 8390 3018
8855 8973 544
8855 9067 1360
8856 8842 238
8856 8435 2441
8856 9545 5697
8857 8850 27
8857 8845 32
8857 8862 45
8858 8763 2647
8858 8943 2850
8859 8737 547
8859 8860 247
8859 8926 232
8859 8950 546
8860 8859 247
8861 8835 117
8861 8872 111
8861 8882 141
8862 8857 45
8862 8864 10
8862 8876 98
8863 8829 234
8864 8862 10
8864 8866 13
8864 8877 100
8865 8833 182
8865 8868 111
8865 8871 190
8866 8864 13
8866 8871 55
8867 8851 139
8867 8836 136
8867 8869 24
8868 8853 97
8868 8865 111
8868 8871 35
8869 8867 24
8869 8838 141
8869 8884 131
8870 8847 622
8870 8586 2886
8870 9028 1372
8871 8866 55
8871 8868 35
8871 8865 190
8872 8861 111
8872 8883 62
8872 8887 142
8873 8810 1100
8873 8784 382
8873 8881 142
8874 8704 868
8874 8903 185
8874 8947 397
8875 8388 2576
8875 8912 520
8875 8922 157
8876 8826 250
8876 8862 98
8876 8877 11
8877 8876 11
8877 8864 100
8877 8958 418
8878 8879 8
8878 8880 56
8878 8884 50
8879 8878 8
8879 8880 16
8879 8907 176
8880 8878 56
8880 8879 16
8881 8873 142
8881 8852 147
8881 8888 217
8882 8861 141
8882 8887 57
8882 8901 165
8883 8872 62
8883 8886 24
8883 8892 116
8884 8869 131
8884 8878 50
8884 8917 126
8885 8834 475
8885 8957 522
8886 8883 24
8886 8890 189
8886 8899 37
8887 8872 142
8887 8882 57
8887 8889 9
8888 8816 333
8888 8818 337
8888 8881 217
8889 8887 9
8889 8892 8
8889 8902 96
8890 8886 189
8890 8907 63
8890 8910 149
8891 8839 374
8891 8942 300
8891 8961 336
8892 8883 116
8892 8889 8
8892 8911 56
8893 8789 1100
8893 8655 1860
8894 8831 276
8895 8896 16
8895 8900 17
8895 8918 92
8896 8895 16
8896 8897 203
8896 8897 18
8897 8896 203
8897 8896 18
8897 8898 4
8898 8897 4
8898 8900 17
8899 8886 37
8899 8910 41
8899 8911 125
8900 8895 17
8900 8898 17
8900 8923 94
8901 8882 165
8901 8916 38
8901 8924 156
8902 8889 96
8903 8874 185
8903 8906 12
8903 8908 453
8904 8653 1680
8904 9064 976
8905 8834 277
8905 8957 765
8905 8971 355
8906 8903 12
8906 8925 118
8906 8935 96
8907 8879 176
8907 8890 63
8907 8931 178
8908 8903 453
8909 8828 324
8910 8890 149
8910 8899 41
8910 8931 62
8911 8899 125
8911 8892 56
8911 8914 5
8912 8913 26
8912 8875 520
8912 9429 3720
8913 8912 26
8913 8655 2437
8914 8911 5
8914 8920 88
8914 8934 63
8915 8916 100
8916 8915 100
8916 8901 38
8916 8924 132
8916 8933 64
8917 8884 126
8917 8948 404
8917 8992 394
8918 8895 92
8918 8851 291
8918 8923 18
8919 8839 345
8919 8841 510
8919 8961 392
8919 8998 401
8920 8914 88
8920 8928 113
8920 8930 28
8921 8287 3363
8921 8993 403
8921 8997 523
8922 8875 157
8922 8974 292
8923 8900 94
8923 8918 18
8923 8958 249
8924 8901 156
8924 8916 132
8924 8932 47
8925 8906 118
8926 8859 232
8926 8927 206
8926 8980 290
8927 8926 206
8928 8920 113
8928 8933 86
8928 8936 62
8929 8841 390
8929 8793 595
8929 8998 602
8930 8920 28
8930 8936 30
8931 8910 62
8931 8907 178
8931 8937 174
8932 8924 47
8932 8940 46
8932 8969 250
8933 8928 86
8933 8916 64
8933 8940 151
8933 8945 66
8934 8914 63
8934 8937 12
8934 8938 108
8935 8906 96
8935 8944 58
8935 8952 199
8936 8930 30
8936 8928 62
8936 8938 24
8937 8931 174
8937 8934 12
8937 8946 107
8938 8934 108
8938 8936 24
8938 8945 107
8938 8946 32
8939 8848 358
8939 8847 493
8939 8987 283
8939 12322 283
8940 8933 151
8940 8932 46
8940 8951 65
8941 8781 1375
8941 9186 2967
8941 9277 3007
8942 8891 300
8942 8966 287
8942 8984 287
8943 8858 2850
8943 9009 2424
8944 8935 58
8945 8938 107
8945 8933 66
8945 8949 53
8945 8951 164
8946 8937 107
8946 8938 32
8946 8949 79
8946 8956 75
8947 8623 2465
8947 8874 397
8947 9175 1829
8948 8917 404
8948 8956 130
8948 9002 262
8949 8946 79
8949 8945 53
8949 8960 202
8950 8859 546
8950 8981 1804
8950 8981 698
8951 8945 164
8951 8940 65
8951 8960 71
8952 8935 199
8952 9013 652
8953 8828 891
8953 9016 1204
8954 8688 1666
8954 8760 3349
8954 9057 1212
8955 8730 1330
8955 9050 1777
8955 9434 3865
8956 8948 130
8956 8946 75
8956 8963 243
8957 8905 765
8957 8885 522
8957 8962 106
8958 8877 418
8958 8923 249
8958 8970 95
8959 8281 3592
8959 8986 298
8959 8991 185
8960 8949 202
8960 8951 71
8960 8969 177
8961 8891 336
8961 8919 392
8961 8984 279
8961 9004 182
8962 8957 106
8962 9175 2315
8963 8956 243
8964 8965 1610
8965 8964 1610
8965 8982 92
8965 9079 3672
8966 8942 287
8966 9012 246
8966 9033 623
8967 8968 4
8967 8968 43
8967 8970 128
8968 8967 4
8968 8967 43
8969 8960 177
8969 8932 250
8969 8972 34
8970 8958 95
8970 8967 128
8970 9014 259
8971 8905 355
8971 9005 151
8972 8969 34
8973 8855 544
8973 8977 10
8973 8983 779
8974 8922 292
8974 9316 2712
8974 9493 3258
8975 8976 1364
8975 8741 1517
8975 9303 3205
8976 8975 1364
8977 8973 10
8977 8985 780
8977 8990 65
8978 8979 2127
8979 8978 2127
8979 8982 1732
8979 9019 1084
8980 8926 290
8981 8950 1804
8981 8950 698
8981 9015 187
8982 8965 92
8982 8979 1732
8982 9342 2286
8983 8973 779
8983 8986 282
8984 8942 287
8984 8961 279
8984 9012 282
8984 9018 159
8985 8977 780
8985 8989 243
8986 8959 298
8986 8983 282
8986 8991 161
8987 8939 283
8987 12322 283
8987 8988 100
8987 9023 211
8988 8987 100
8988 12321 1712
8988 12322 1712
8989 8985 243
8989 8995 196
8989 9022 248
8990 8977 65
8990 9082 1050
8990 9121 770
8991 8959 185
8991 8986 161
8991 8993 15
8991 8995 8
8992 8917 394
8992 9001 282
8992 9002 407
8993 8921 403
8993 8991 15
8993 8994 8
8993 8996 8
8994 8993 8
8994 8997 9
8995 8991 8
8995 8989 196
8995 8996 15
8995 9022 202
8996 8993 8
8996 8995 15
8996 8997 6
8996 9008 34
8997 8994 9
8997 8996 6
8997 8921 523
8997 9008 36
8998 8919 401
8998 8929 602
8998 9003 17
8999 9000 542
8999 8765 1007
9000 8999 542
9000 12319 1358
9001 8992 282
9001 9014 105
9001 9020 223
9002 8948 262
9002 8992 407
9002 9011 152
9003 8998 17
9003 9004 443
9003 9025 193
9004 8961 182
9004 9003 443
9004 9018 276
9005 8971 151
9005 9075 1230
9005 9078 560
9006 9007 571
9006 12320 1500
9007 9006 571
9007 8766 1000
9008 8997 36
9008 8996 34
9008 9088 575
9009 8781 2590
9009 8943 2424
9009 9058 677
9010 8831 999
9010 9043 305
9010 9047 279
9011 9002 152
9011 9017 177
9011 9044 255
9012 8966 246
9012 8984 282
9012 9054 286
9013 8952 652
9014 8970 259
9014 9001 105
9014 9073 447
9015 8981 187
9015 9016 90
9015 9030 243
9016 8953 1204
9016 9015 90
9016 9071 1176
9017 9011 177
9018 8984 159
9018 9004 276
9018 9040 158
9019 8400 6452
9019 8979 1084
9019 9095 460
9020 9001 223
9020 9021 150
9020 9049 356
9021 9020 150
9022 8995 202
9022 8989 248
9022 9082 399
9023 8987 211
9023 9028 19
9023 9036 81
9024 9025 141
9024 9040 542
9024 9094 556
9025 9024 141
9025 9003 193
9025 9076 379
9026 8789 1129
9026 9157 771
9026 9162 856
9027 8827 1586
9027 9140 575
9028 8870 1372
9028 9023 19
9028 9060 276
9029 8731 3219
9029 9099 495
9030 9015 243
9030 9035 376
9030 9102 468
9031 9032 153
9032 9031 153
9032 9038 144
9032 9089 313
9033 8966 623
9033 9080 545
9033 9085 336
9034 8827 962
9034 9042 47
9034 9070 419
9035 9030 376
9036 9023 81
9036 9037 628
9036 9077 316
9037 9036 628
9038 9032 144
9038 8758 1380
9038 9065 525
9039 8535 4419
9039 9059 482
9039 9069 252
9040 9018 158
9040 9024 542
9040 9041 12
9041 9040 12
9041 9054 303
9041 9141 906
9042 9034 47
9042 9065 132
9042 9130 684
9043 9010 305
9043 9063 106
9043 9108 533
9044 9045 128
9044 9011 255
9044 9083 422
9045 9044 128
9045 9046 28
9045 9048 44
9046 9045 28
9047 9010 279
9047 9066 418
9047 9100 341
9048 9045 44
9049 9020 356
9050 8955 1777
9050 9051 1338
9050 9055 21
9050 9134 919
9051 9050 1338
9051 8735 2244
9052 9053 1928
9052 9068 459
9053 9052 1928
9054 9012 286
9054 9041 303
9054 9085 608
9055 9050 21
9055 9056 1324
9055 9138 930
9055 9267 3210
9056 9055 1324
9056 8739 2250
9057 8954 1212
9057 9059 817
9057 9200 1296
9058 9009 677
9058 9097 490
9058 9182 954
9059 9057 817
9059 9039 482
9059 9224 2027
9060 9028 276
9060 9077 163
9060 9267 1726
9061 9062 58
9061 9073 194
9061 9074 89
9062 9061 58
9063 9043 106
9063 9066 10
9063 9114 341
9064 8904 976
9064 9072 303
9065 9038 525
9065 9042 132
9065 9081 115
9066 9063 10
9066 9047 418
9066 9117 229
9067 8855 1360
9067 9068 752
9067 9124 229
9068 9067 752
9068 9052 459
9069 9039 252
9070 9034 419
9070 9127 482
9070 9146 690
9071 9016 1176
9071 9131 360
9071 9199 2665
9072 9064 303
9072 9079 255
9073 9014 447
9073 9061 194
9073 9096 129
9074 9061 89
9074 9083 148
9074 9096 125
9075 9005 1230
9076 9025 379
9076 9115 323
9076 9160 631
9077 9060 163
9077 9036 316
9077 9280 1808
9078 9005 560
9078 9139 842
9078 9176 1214
9078 9230 977
9079 9072 255
9079 8965 3672
9080 9033 545
9080 9135 462
9080 9156 412
9081 9065 115
9081 9090 46
9081 9101 59
9082 9022 399
9082 8990 1050
9082 9088 14
9082 9394 1598
9083 9074 148
9083 9084 223
9083 9044 422
9083 9113 86
9084 9083 223
9085 9033 336
9085 9054 608
9085 9156 508
9086 9087 269
9086 9091 314
9086 9110 207
9087 9086 269
9088 9008 575
9088 9082 14
9088 9104 121
9088 9366 1489
9089 9032 313
9089 9090 565
9089 9137 279
9090 9081 46
9090 9101 49
9090 9089 565
9091 9086 314
9092 9093 28
9092 9168 583
9092 9109 7578
9093 9092 28
9094 9024 556
9094 9119 287
9094 9123 104
9095 9019 460
9095 9120 1261
9095 9304 1785
9096 9073 129
9096 9074 125
9096 9176 457
9097 9058 490
9097 9109 1400
9097 9179 1438
9098 8720 3078
9099 8820 2412
9099 9029 495
9099 9286 1309
9100 9047 341
9100 9126 151
9100 9169 389
9101 9090 49
9101 9081 59
9101 9107 19
9102 9103 38
9102 9030 468
9102 9131 429
9103 9102 38
9104 9088 121
9105 9106 116
9105 12319 377
9106 9105 116
9106 9145 89
9107 9101 19
9107 9273 1085
9108 9043 533
9108 9114 144
9109 9097 1400
9109 9092 7578
9110 9086 207
9110 9133 1737
9110 9246 4020
9111 9112 117
9111 9154 88
9112 9111 117
9112 12320 234
9113 9083 86
9114 9108 144
9114 9063 341
9114 9117 146
9115 9076 323
9115 9116 31
9115 9122 37
9116 9115 31
9116 9118 12
9117 9114 146
9117 9066 229
9117 9125 233
9117 9148 175
9118 9116 12
9118 9122 37
9118 9128 80
9119 9094 287
9119 9136 114
9119 9141 369
9120 9095 1261
9120 9133 64
9121 8990 770
9121 9151 217
9122 9115 37
9122 9118 37
9122 9160 829
9123 9094 104
9123 9136 277
9123 9161 256
9124 9067 229
9124 9151 298
9124 9226 572
9125 9117 233
9125 9126 269
9125 9147 534
9126 9100 151
9126 9125 269
9126 9147 167
9127 9070 482
9127 12320 239
9128 9118 80
9128 9129 630
9128 9144 236
9129 9128 630
9130 9042 684
9130 9132 419
9130 9155 523
9131 9071 360
9131 9102 429
9131 9227 992
9132 9130 419
9132 12319 333
9133 9120 64
9133 9110 1737
9133 9333 1277
9134 9050 919
9134 9340 170
9135 9080 462
9135 9174 227
9135 9181 506
9136 9119 114
9136 9123 277
9136 9158 123
9137 9089 279
9138 9055 930
9138 9349 174
9139 9078 842
9139 9164 356
9139 9221 481
9140 9027 575
9140 9152 124
9140 9173 341
9141 9041 906
9141 9119 369
9141 9172 485
9141 9177 193
9142 9143 867
9143 9142 867
9143 9239 527
9144 9128 236
9144 9166 757
9144 9178 184
9145 9146 332
9145 9106 89
9146 9145 332
9146 9070 690
9146 9152 42
9147 9126 167
9147 9125 534
9147 9180 200
9148 9117 175
9149 9150 408
9149 9195 290
9149 9234 735
9150 9149 408
9151 9121 217
9151 9124 298
9151 9159 71
9151 9226 478
9152 9146 42
9152 9140 124
9152 9153 16
9152 9190 393
9153 9154 366
9153 9152 16
9153 9155 7
9153 9165 115
9154 9153 366
9154 9111 88
9155 9130 523
9155 9153 7
9155 9165 119
9155 9240 612
9156 9080 412
9156 9085 508
9156 9185 301
9157 9026 771
9157 9166 254
9158 9136 123
9158 9161 351
9158 9177 383
9158 9231 421
9159 9151 71
9160 9076 631
9160 9122 829
9160 9161 74
9161 9158 351
9161 9123 256
9161 9160 74
9162 9026 856
9162 9163 987
9162 9195 489
9162 9233 448
9163 9162 987
9164 9139 356
9165 9155 119
9165 9153 115
9165 9192 285
9166 9167 1087
9166 9157 254
9166 9144 757
9166 9208 240
9167 9166 1087
9167 8807 607
9168 9092 583
9169 9100 389
9169 9184 384
9169 9225 382
9170 9171 437
9170 9187 127
9170 9324 2339
9171 9170 437
9172 9141 485
9172 9183 358
9172 9188 120
9173 9140 341
9173 9190 140
9173 9276 869
9174 9135 227
9174 9205 512
9174 9206 213
9175 8962 2315
9175 8947 1829
9175 9282 892
9176 9096 457
9176 9078 1214
9176 9223 322
9177 9141 193
9177 9158 383
9177 9188 482
9177 9247 418
9178 9144 184
9178 9203 578
9178 9208 836
9178 9237 297
9179 9097 1438
9180 9147 200
9181 9135 506
9181 9205 161
9182 9058 954
9183 9172 358
9183 9189 31
9183 9191 274
9184 9169 384
9185 9156 301
9185 9191 35
9185 9193 76
9186 8941 2967
9186 9255 469
9187 9170 127
9188 9172 120
9188 9177 482
9188 9189 364
9188 9194 36
9189 9183 31
9189 9188 364
9189 9196 45
9190 9152 393
9190 9173 140
9190 9192 10
9190 9310 880
9191 9185 35
9191 9183 274
9191 9193 69
9191 9215 228
9192 9165 285
9192 9190 10
9192 9313 883
9192 9424 1501
9193 9185 76
9193 9191 69
9193 9206 155
9194 9188 36
9194 9196 388
9194 9213 480
9195 9149 290
9195 9162 489
9195 9234 431
9195 9242 247
9196 9189 45
9196 9194 388
9196 9213 88
9197 9198 542
9197 9204 37
9197 9211 88
9198 9197 542
9199 8740 4723
9199 9071 2665
9199 9257 443
9200 9057 1296
9201 9202 102
9201 9212 125
9201 9216 79
9202 9201 102
9202 9217 220
9202 9220 131
9203 9178 578
9203 9241 260
9203 9250 240
9204 9197 37
9204 9211 32
9205 9181 161
9205 9174 512
9205 9238 139
9206 9174 213
9206 9193 155
9206 9207 5
9207 9206 5
9207 9215 53
9207 9238 532
9208 9178 836
9208 9166 240
9208 9320 602
9208 9320 614
9209 9210 521
9209 9224 151
9209 9522 2063
9210 9209 521
9211 9204 32
9211 9197 88
9211 9214 272
9212 9201 125
9212 9229 59
9212 9232 149
9213 9196 88
9213 9194 480
9213 9215 554
9214 9211 272
9215 9207 53
9215 9191 228
9215 9213 554
9216 9201 79
9216 9220 84
9216 9229 125
9217 9202 220
9217 9228 52
9217 9235 80
9218 9219 178
9218 9254 230
9218 9266 891
9219 9218 178
9219 9236 356
9219 9252 166
9220 9202 131
9220 9216 84
9220 9249 170
9221 9139 481
9221 9222 109
9221 9236 176
9222 9221 109
9222 9244 233
9222 9251 223
9223 9176 322
9223 9225 15
9223 9230 38
9224 9209 151
9224 9059 2027
9225 9169 382
9225 9223 15
9226 9151 478
9226 9124 572
9226 9288 294
9227 9131 992
9227 9281 581
9227 9319 644
9228 9217 52
9229 9216 125
9229 9212 59
9229 9248 121
9230 9223 38
9230 9078 977
9230 9260 186
9231 9158 421
9231 9247 418
9231 9381 1008
9232 9212 149
9232 9245 90
9232 9274 430
9233 9162 448
9234 9149 735
9234 9195 431
9234 9285 248
9235 9217 80
9235 9239 50
9235 9291 290
9236 9221 176
9236 9219 356
9236 9251 199
9237 9178 297
9237 9250 446
9237 9299 306
9238 9205 139
9238 9207 532
9238 9258 741
9238 12321 741
9239 9143 527
9239 9235 50
9239 9293 255
9240 9155 612
9240 9253 217
9240 9273 668
9241 9203 260
9242 9195 247
9242 9243 203
9242 9285 445
9242 9292 237
9243 9242 203
9244 9222 233
9244 9256 109
9245 9232 90
9245 9248 104
9245 9270 372
9246 9110 4020
9246 9283 626
9246 9283 256
9247 9177 418
9247 9231 418
9247 9289 986
9248 9229 121
9248 9245 104
9248 9249 150
9249 9220 170
9249 9248 150
9249 9291 294
9250 9203 240
9250 9237 446
9250 9296 217
9250 9314 458
9251 9222 223
9251 9236 199
9251 9256 299
9252 9219 166
9252 9398 806
9253 9240 217
9254 9218 230
9255 9186 469
9256 9244 109
9256 9251 299
9256 9317 457
9257 9199 443
9257 9259 13
9258 9238 741
9258 12321 741
9258 9353 860
9258 9538 2730
9259 9257 13
9259 9319 861
9259 9428 879
9260 9230 186
9260 9266 142
9260 9276 1348
9261 9262 851
9261 9271 76
9261 9290 124
9262 9261 851
9263 9264 112
9263 9265 414
9263 9288 254
9263 9309 228
9264 9263 112
9265 9263 414
9266 9218 891
9266 9260 142
9266 9279 83
9267 9055 3210
9267 9060 1726
9267 9431 913
9267 9448 1285
9268 9269 19
9268 9275 26
9268 9325 303
9269 9268 19
9270 9245 372
9270 9274 57
9270 9492 2635
9271 9261 76
9271 9272 1025
9271 9290 150
9272 9271 1025
9273 9107 1085
9273 9278 12
9273 9240 668
9274 9270 57
9274 9232 430
9274 9278 93
9275 9268 26
9276 9173 869
9276 9260 1348
9276 9310 208
9277 8941 3007
9277 9303 415
9277 9456 961
9278 9274 93
9278 9273 12
9278 9363 479
9279 9266 83
9279 9287 144
9279 9532 2243
9280 9077 1808
9281 9227 581
9282 9175 892
9282 9401 1293
9282 9472 1018
9283 9246 626
9283 9246 256
9283 9284 12
9284 9283 12
9284 9294 145
9284 9336 359
9285 9234 248
9285 9242 445
9285 9341 260
9286 9099 1309
9286 9315 608
9286 9325 398
9287 9279 144
9288 9263 254
9288 9226 294
9288 9335 199
9289 9247 986
9289 9329 188
9290 9261 124
9290 9271 150
9290 9367 363
9291 9235 290
9291 9293 130
9291 9249 294
9292 9242 237
9292 9341 468
9292 9389 1121
9293 9239 255
9293 9291 130
9293 9300 61
9294 9284 145
9294 9295 125
9294 9355 496
9295 9294 125
9295 9331 416
9295 9371 1843
9296 9250 217
9296 9299 334
9296 9314 312
9296 9391 336
9297 9298 142
9297 9307 129
9297 9308 48
9298 9297 142
9299 9296 334
9299 9237 306
9299 9305 273
9299 9395 334
9300 9293 61
9300 9322 130
9300 9392 345
9301 9302 614
9301 9321 2556
9301 9522 3664
9302 9301 614
9303 9277 415
9303 8975 3205
9303 9410 512
9304 9095 1785
9304 9326 145
9305 9299 273
9305 9306 386
9305 9400 330
9306 9305 386
9307 9297 129
9308 9297 48
9308 9332 326
9308 9338 124
9309 9263 228
9309 9334 325
9310 9190 880
9310 9276 208
9310 9313 14
9310 9478 920
9311 9312 1123
9311 9318 212
9311 9352 176
9311 9367 453
9312 9311 1123
9313 9192 883
9313 9310 14
9313 9347 119
9313 9479 899
9314 9250 458
9314 9296 312
9314 9384 210
9315 9286 608
9315 9356 232
9315 9361 244
9316 8974 2712
9316 9446 1838
9317 9256 457
9317 9470 1221
9318 9311 212
9318 9351 120
9318 9352 111
9319 9227 644
9319 9259 861
9319 9354 179
9320 9208 602
9320 9208 614
9320 9544 1956
9320 9544 1781
9321 9301 2556
9322 9300 130
9322 9323 107
9322 9374 173
9323 9322 107
9323 9418 1071
9324 9170 2339
9324 9397 266
9324 9397 532
9325 9286 398
9325 9268 303
9325 9348 82
9326 9304 145
9326 9333 109
9326 9342 201
9327 9328 667
9327 9329 123
9327 9910 7298
9328 9327 667
9328 9638 3355
9329 9327 123
9329 9289 188
9329 9330 351
9330 9329 351
9331 9295 416
9332 9308 326
9332 9336 114
9332 9346 101
9333 9133 1277
9333 9326 109
9333 9369 939
9334 9309 325
9334 9335 18
9334 9510 820
9335 9334 18
9335 9288 199
9335 9518 935
9336 9337 380
9336 9284 359
9336 9332 114
9336 9485 1024
9337 9336 380
9338 9308 124
9338 9346 260
9338 9358 89
9339 9340 1532
9339 9489 288
9340 9339 1532
9340 9134 170
9341 9285 260
9341 9292 468
9342 8982 2286
9342 9326 201
9342 9462 1448
9343 9344 101
9343 9345 35
9343 9348 29
9344 9343 101
9345 9343 35
9346 9332 101
9346 9338 260
9346 9396 217
9347 9313 119
9347 9420 444
9348 9325 82
9348 9343 29
9348 9359 101
9349 9350 1539
9349 9138 174
9350 9349 1539
9350 9491 274
9351 9318 120
9351 9362 55
9351 9375 105
9352 9318 111
9352 9311 176
9352 9375 115
9353 9258 860
9353 9436 362
9353 9453 521
9354 9319 179
9354 9428 752
9355 9294 496
9356 9315 232
9356 9357 87
9356 9379 71
9357 9356 87
9358 9338 89
9358 9360 17
9358 9396 269
9359 9348 101
9359 9360 10
9359 9411 196
9360 9359 10
9360 9358 17
9361 9315 244
9361 9368 26
9361 9407 377
9362 9351 55
9362 9380 122
9362 9387 98
9363 9278 479
9363 9370 77
9363 9370 77
9364 9365 2456
9365 9364 2456
9366 9088 1489
9366 9728 1810
9367 9311 453
9367 9290 363
9367 9496 1232
9368 9361 26
9368 9372 28
9368 9373 21
9369 9333 939
9369 9468 2831
9370 9363 77
9370 9363 77
9370 9415 1384
9370 9415 1384
9370 9639 6154
9371 9295 1843
9371 9468 1310
9372 9368 28
9372 9373 31
9372 9388 514
9373 9372 31
9373 9368 21
9373 9442 318
9374 9322 173
9374 9392 66
9374 9412 130
9375 9351 105
9375 9352 115
9375 9387 53
9376 9377 1215
9376 9378 151
9376 9399 177
9377 9376 1215
9378 9376 151
9379 9356 71
9379 9406 94
9380 9362 122
9380 9393 102
9380 9525 1914
9381 9231 1008
9381 9384 149
9382 9383 99
9382 9388 49
9382 9399 528
9383 9382 99
9384 9381 149
9384 9314 210
9384 9391 291
9385 9386 2
9386 9385 2
9387 9362 98
9387 9375 53
9387 9393 82
9388 9382 49
9388 9372 514
9388 9451 577
9389 9292 1121
9389 9390 1095
9389 9455 277
9390 9389 1095
9391 9384 291
9391 9296 336
9391 9395 301
9392 9374 66
9392 9300 345
9392 9413 79
9393 9380 102
9393 9387 82
9393 9425 171
9394 9082 1598
9394 9731 1646
9395 9391 301
9395 9299 334
9395 9400 280
9395 9467 339
9396 9358 269
9396 9346 217
9396 9444 311
9397 9324 266
9397 9324 532
9397 9414 264
9398 9252 806
9399 9376 177
9399 9382 528
9399 9401 467
9400 9395 280
9400 9305 330
9401 9282 1293
9401 9399 467
9401 9512 947
9402 9403 3
9403 9402 3
9403 9404 6
9403 9405 3
9404 9403 6
9405 9403 3
9406 9379 94
9406 9407 63
9406 9407 433
9407 9361 377
9407 9406 63
9407 9406 433
9408 9409 33
9409 9408 33
9409 9416 40
9409 9437 198
9410 9303 512
9410 9414 173
9410 9456 203
9410 9484 684
9411 9359 196
9411 9466 313
9411 9475 703
9412 9374 130
9412 9413 40
9412 9427 104
9413 9412 40
9413 9392 79
9413 9499 555
9414 9410 173
9414 9397 264
9414 9484 596
9415 9370 1384
9415 9370 1384
9415 9421 59
9415 9423 61
9416 9409 40
9416 9417 20
9416 9419 14
9417 9416 20
9418 9323 1071
9418 9422 138
9419 9416 14
9420 9347 444
9420 9477 461
9420 9482 585
9421 9415 59
9421 9423 3
9421 9440 381
9422 9418 138
9422 9427 1097
9422 9506 1548
9423 9415 61
9423 9421 3
9423 9535 1186
9423 9535 1186
9424 9192 1501
9425 9393 171
9425 9426 204
9425 9439 315
9426 9425 204
9427 9412 104
9427 9461 176
9427 9422 1097
9428 9259 879
9428 9354 752
9428 9495 533
9429 8912 3720
9429 9430 344
9429 9435 114
9429 9463 1238
9429 9480 367
9429 9573 2363
9430 9429 344
9431 9267 913
9432 9433 8
9432 9446 383
9432 9459 126
9433 9432 8
9434 8955 3865
9434 9454 1584
9434 9490 2733
9435 9429 114
9435 9450 121
9435 9534 1862
9436 9353 362
9437 9409 198
9437 9438 81
9437 9441 22
9437 9443 21
9438 9437 81
9439 9425 315
9440 9421 381
9440 9584 4277
9441 9437 22
9442 9373 318
9442 9451 120
9442 9515 571
9443 9437 21
9444 9396 311
9444 9445 157
9444 9452 41
9445 9444 157
9446 9316 1838
9446 9447 10
9446 9447 10
9446 9432 383
9447 9446 10
9447 9446 10
9447 9495 2389
9448 9449 1313
9448 9267 1285
9448 9454 185
9449 9448 1313
9450 9435 121
9451 9388 577
9451 9442 120
9451 9517 658
9452 9444 41
9452 9460 43
9452 9469 366
9453 9353 521
9454 9448 185
9454 9434 1584
9454 10033 9619
9455 9389 277
9456 9277 961
9456 9410 203
9456 9631 1523
9457 9458 3261
9457 9462 1157
9457 9640 2681
9458 9457 3261
9458 9622 4699
9459 9432 126
9459 9493 1607
9460 9452 43
9460 9476 235
9460 9476 463
9461 9427 176
9461 9520 666
9461 9530 677
9462 9457 1157
9462 9342 1448
9462 9471 429
9463 9429 1238
9464 9465 16
9465 9464 16
9466 9411 313
9466 9469 74
9466 9475 189
9467 9395 339
9467 9516 495
9468 9371 1310
9468 9369 2831
9469 9466 74
9469 9452 366
9469 9486 142
9470 9317 1221
9470 9472 334
9470 9500 405
9471 9462 429
9471 9905 5056
9472 9470 334
9472 9282 1018
9472 9500 187
9473 9474 176
9473 9482 61
9473 9502 333
9474 9473 176
9475 9411 703
9475 9466 189
9475 9487 618
9476 9460 235
9476 9460 463
9476 9481 101
9476 9623 1380
9477 9420 461
9478 9310 920
9478 10187 4915
9479 9313 899
9479 10191 4907
9480 9429 367
9481 9476 101
9482 9473 61
9482 9420 585
9483 8842 3315
9483 9494 98
9483 9606 1309
9484 9410 684
9484 9414 596
9484 9632 1260
9485 9336 1024
9486 9469 142
9487 9475 618
9488 9489 1566
9488 9490 19
9488 9663 2295
9488 9669 3620
9489 9488 1566
9489 9339 288
9490 9488 19
9490 9491 1558
9490 9434 2733
9490 9672 2303
9491 9490 1558
9491 9350 274
9492 9270 2635
9492 9519 298
9493 8974 3258
9493 9459 1607
9493 9523 847
9494 9483 98
9494 9511 680
9494 9572 1040
9495 9447 2389
9495 9428 533
9495 9498 14
9496 9497 183
9496 9367 1232
9496 9501 174
9497 9496 183
9497 9501 39
9497 9503 286
9498 9495 14
9498 9529 381
9499 9413 555
9499 9519 163
9499 9530 381
9500 9472 187
9500 9470 405
9500 9674 1802
9501 9496 174
9501 9497 39
9501 9503 316
9502 9473 333
9503 9497 286
9503 9507 1487
9503 9501 316
9504 9505 477
9505 9504 477
9505 9514 273
9505 9526 270
9506 9422 1548
9506 9529 499
9507 9503 1487
9508 9509 9
9508 9511 884
9508 9545 3844
9508 9755 8331
9509 9508 9
9509 9513 864
9509 9513 968
9509 9757 8308
9510 9334 820
9510 9737 27
9511 9494 680
9511 9508 884
9511 9513 20
9511 9572 1228
9512 9401 947
9513 9511 20
9513 9509 864
9513 9509 968
9513 9676 2035
9514 9505 273
9514 9525 377
9514 9531 224
9515 9442 571
9515 9517 348
9515 9612 1013
9516 9467 495
9516 9536 973
9517 9451 658
9517 9515 348
9517 9524 228
9518 9335 935
9518 9701 733
9519 9499 163
9519 9492 298
9519 9547 495
9520 9461 666
9520 9562 977
9521 8699 4871
9521 9543 320
9521 9551 535
9522 9209 2063
9522 9301 3664
9522 9729 4655
9523 9493 847
9524 9517 228
9525 9514 377
9525 9380 1914
9525 9537 190
9525 9585 782
9526 9505 270
9526 9527 140
9526 9528 11
9527 9526 140
9527 9531 101
9527 9533 75
9528 9526 11
9528 9533 137
9528 9618 709
9529 9498 381
9529 9506 499
9529 9541 249
9530 9461 677
9530 9499 381
9530 9582 519
9531 9527 101
9531 9514 224
9531 9537 215
9531 9542 125
9532 9279 2243
9532 9546 195
9533 9528 137
9533 9527 75
9533 9542 197
9534 9435 1862
9534 9561 829
9535 9423 1186
9535 9423 1186
9535 9763 2899
9536 9516 973
9536 9560 599
9537 9531 215
9537 9525 190
9537 9542 224
9538 9258 2730
9538 9539 31
9538 9717 1691
9539 9538 31
9539 9540 130
9539 9688 1881
9540 9539 130
9541 9529 249
9541 9549 157
9542 9531 125
9542 9533 197
9542 9537 224
9543 9521 320
9543 9602 631
9543 9593 1745
9544 9320 1956
9544 9320 1781
9544 9738 1944
9544 9804 3573
9545 8856 5697
9545 9508 3844
9545 9551 6106
9546 9532 195
9546 9658 930
9546 9684 1351
9547 9548 1
9547 9519 495
9547 9592 351
9548 9547 1
9549 9541 157
9549 9550 335
9549 9552 88
9550 9549 335
9551 9521 535
9551 9602 311
9551 9545 6106
9552 9549 88
9552 9553 242
9552 9556 18
9553 9552 242
9554 9555 31
9554 9567 178
9554 9571 764
9555 9554 31
9555 9559 60
9555 9604 205
9556 9552 18
9556 9567 108
9556 9575 144
9557 9558 483
9557 9755 318
9558 9557 483
9558 9576 356
9559 9555 60
9559 9580 222
9560 9536 599
9560 9570 638
9561 9534 829
9561 9581 201
9561 9644 523
9562 9520 977
9562 9568 76
9562 9569 506
9563 9564 494
9563 9595 357
9564 9563 494
9564 9757 336
9565 9566 74
9565 9574 160
9565 9615 570
9566 9565 74
9567 9556 108
9567 9554 178
9567 9600 175
9568 9562 76
9568 9587 413
9568 9661 780
9569 9562 506
9569 9571 64
9569 9586 220
9570 9560 638
9571 9554 764
9571 9569 64
9571 9580 42
9572 9494 1040
9572 9511 1228
9572 9614 212
9572 9614 215
9573 9429 2363
9573 9579 52
9573 9702 1596
9574 9565 160
9574 9581 470
9574 9621 221
9575 9556 144
9575 9600 204
9575 9624 867
9576 9577 284
9576 9558 356
9577 9576 284
9577 9578 387
9577 9590 225
9578 9577 387
9578 9625 44
9579 9573 52
9580 9571 42
9580 9559 222
9581 9561 201
9581 9574 470
9581 9648 455
9582 9530 519
9582 9583 89
9582 9601 72
9583 9582 89
9583 9592 108
9584 9440 4277
9584 9616 490
9584 9721 2573
9585 9525 782
9585 9608 157
9585 9724 1743
9586 9569 220
9586 9649 433
9587 9568 413
9587 9601 445
9588 9589 1312
9588 9593 11
9588 9599 217
9588 9607 809
9589 9588 1312
9590 9577 225
9590 9591 461
9590 9596 120
9591 9590 461
9591 9628 44
9592 9583 108
9592 9547 351
9592 9636 306
9593 9588 11
9593 9603 218
9593 9611 807
9593 9543 1745
9594 9595 527
9594 9605 110
9594 9626 494
9595 9594 527
9595 9627 283
9595 9563 357
9596 9590 120
9596 9607 170
9597 9598 222
9597 9612 359
9597 9637 346
9598 9597 222
9599 9588 217
9599 9823 2153
9600 9567 175
9600 9575 204
9600 9604 241
9601 9582 72
9601 9587 445
9601 9617 96
9602 9551 311
9602 9543 631
9602 9657 480
9603 9593 218
9603 9820 2109
9604 9555 205
9604 9613 57
9604 9600 241
9605 9594 110
9605 9611 162
9606 9483 1309
9606 9614 143
9606 9742 11994
9607 9588 809
9607 9596 170
9608 9585 157
9609 9610 588
9609 9620 264
9609 9660 856
9610 9609 588
9611 9593 807
9611 9605 162
9612 9515 1013
9612 9597 359
9612 9694 1065
9613 9604 57
9613 9649 560
9614 9572 212
9614 9572 215
9614 9606 143
9614 9645 344
9615 9565 570
9616 9584 490
9616 9619 55
9616 9673 3362
9617 9601 96
9617 9633 124
9617 9634 141
9618 9528 709
9619 9616 55
9619 9629 36
9619 9630 52
9620 9609 264
9621 9574 221
9622 9458 4699
9622 9868 3354
9623 9476 1380
9623 9635 213
9623 9675 472
9624 9575 867
9624 9754 1685
9625 9626 205
9625 9578 44
9626 9625 205
9626 9594 494
9626 9643 160
9627 9595 283
9627 9628 210
9627 9642 150
9628 9627 210
9628 9591 44
9629 9619 36
9629 9630 50
9629 9687 843
9630 9619 52
9630 9629 50
9630 9646 400
9631 9456 1523
9631 9632 397
9631 9739 972
9632 9631 397
9632 9484 1260
9632 9669 577
9633 9617 124
9633 9636 61
9633 9634 147
9634 9617 141
9634 9633 147
9634 9662 527
9635 9623 213
9636 9633 61
9636 9592 306
9636 9699 561
9637 9597 346
9638 9328 3355
9638 9647 682
9638 9718 1264
9639 9370 6154
9639 9673 354
9639 9689 1323
9640 9457 2681
9640 9641 2743
9640 9679 820
9641 9640 2743
9642 9627 150
9642 9657 419
9643 9626 160
9643 9659 440
9644 9561 523
9644 9654 147
9644 9719 1294
9645 9614 344
9645 9665 330
9645 9677 297
9646 9630 400
9647 9638 682
9648 9581 455
9648 9650 104
9648 9655 182
9648 9654 266
9649 9613 560
9649 9586 433
9649 9712 1171
9650 9648 104
9651 9652 508
9651 9653 1033
9651 9767 3902
9652 9651 508
9653 9651 1033
9654 9644 147
9654 9656 3
9654 9648 266
9654 9666 314
9655 9648 182
9656 9654 3
9657 9602 480
9657 9659 16
9657 9642 419
9658 9546 930
9658 9686 277
9659 9657 16
9659 9643 440
9659 9760 1180
9660 9609 856
9660 9729 1700
9661 9568 780
9661 9662 4
9662 9661 4
9662 9634 527
9662 9712 529
9663 9488 2295
9663 9770 326
9664 9665 182
9665 9664 182
9665 9645 330
9665 9677 103
9666 9654 314
9667 9668 48
9667 9699 290
9667 9712 714
9668 9667 48
9669 9632 577
9669 9488 3620
9669 9739 1073
9670 9671 205
9670 9678 83
9670 9695 260
9671 9670 205
9672 9490 2303
9672 9771 318
9673 9616 3362
9673 9639 354
9673 9691 197
9674 9500 1802
9674 9686 130
9674 9690 446
9675 9623 472
9676 9513 2035
9676 9680 36
9676 9682 38
9677 9665 103
9677 9645 297
9677 9678 4
9677 9680 10
9678 9670 83
9678 9677 4
9678 9681 11
9678 9695 231
9679 9640 820
9680 9677 10
9680 9676 36
9680 9681 4
9680 9682 10
9681 9678 11
9681 9680 4
9681 9683 10
9681 9698 241
9682 9680 10
9682 9676 38
9682 9683 5
9682 9698 430
9683 9681 10
9683 9682 5
9684 9685 206
9684 9546 1351
9684 9689 162
9685 9684 206
9686 9658 277
9686 9674 130
9686 9693 46
9687 9629 843
9687 9704 948
9687 9818 2278
9688 9539 1881
9688 9710 826
9688 9711 590
9689 9639 1323
9689 9684 162
9689 9692 338
9690 9674 446
9691 9673 197
9691 9716 665
9691 9817 1848
9692 9689 338
9692 9693 39
9692 9789 1353
9693 9692 39
9693 9686 46
9693 9734 1176
9694 9612 1065
9694 9696 33
9694 9697 39
9695 9670 260
9695 9678 231
9695 9786 4080
9696 9694 33
9696 9697 47
9696 9745 589
9697 9694 39
9697 9696 47
9697 9734 2345
9698 9681 241
9698 9682 430
9698 9793 4084
9699 9667 290
9699 9636 561
9699 9713 139
9700 9701 993
9701 9700 993
9701 9518 733
9702 9573 1596
9702 9703 160
9702 9706 37
9703 9702 160
9704 9705 62
9704 9687 948
9704 9708 99
9705 9704 62
9705 9708 31
9706 9702 37
9706 9707 68
9706 9715 1164
9707 9706 68
9707 9715 112
9707 9720 1074
9708 9709 161
9708 9705 31
9708 9704 99
9709 9708 161
9710 9688 826
9710 9751 855
9711 9688 590
9712 9662 529
9712 9667 714
9712 9649 1171
9713 9699 139
9713 9714 7
9713 9763 725
9714 9713 7
9715 9707 112
9715 9706 1164
9715 9766 1023
9716 9691 665
9716 9725 750
9716 9749 533
9717 9538 1691
9717 9726 169
9717 9748 344
9718 9638 1264
9719 9644 1294
9719 9800 1358
9720 9707 1074
9721 9584 2573
9722 9723 278
9722 9727 132
9722 9798 1085
9723 9722 278
9724 9585 1743
9725 9716 750
9726 9717 169
9726 9748 233
9726 9758 567
9726 9761 599
9727 9722 132
9727 9728 778
9727 9730 14
9727 9805 1000
9728 9727 778
9728 9366 1810
9729 9660 1700
9729 9522 4655
9729 9790 1221
9730 9727 14
9730 9731 871
9730 9737 4415
9730 9807 995
9731 9730 871
9731 9394 1646
9732 9733 2394
9733 9732 2394
9734 9693 1176
9734 9697 2345
9734 9831 1253
9735 9736 142
9736 9735 142
9737 9730 4415
9737 9510 27
9738 9544 1944
9738 10060 3266
9738 10116 5948
9739 9631 972
9739 9669 1073
9739 9779 675
9739 9881 1640
9740 9741 53
9741 9740 53
9742 9606 11994
9743 9744 35
9744 9743 35
9745 9696 589
9745 9746 1316
9745 9782 975
9746 9745 1316
9746 9747 30
9746 9750 21
9747 9746 30
9747 9750 33
9747 9778 1677
9748 9717 344
9748 9726 233
9748 9922 1626
9749 9716 533
9749 9756 667
9749 9764 468
9750 9746 21
9750 9747 33
9750 9765 500
9751 9710 855
9752 9753 42
9753 9752 42
9754 9624 1685
9754 9775 1794
9754 9797 2461
9755 9508 8331
9755 9557 318
9756 9749 667
9757 9509 8308
9757 9564 336
9758 9726 567
9758 9759 1857
9758 9761 68
9758 9801 1252
9759 9758 1857
9760 9659 1180
9760 9780 320
9760 9901 1745
9761 9726 599
9761 9758 68
9761 9762 174
9762 9761 174
9762 9801 784
9762 9882 1388
9763 9713 725
9763 9535 2899
9763 9775 157
9764 9749 468
9764 9784 326
9765 9750 500
9765 9773 63
9765 9776 120
9766 9715 1023
9767 9768 710
9767 9651 3902
9767 9815 705
9768 9767 710
9769 9770 2008
9769 9810 195
9770 9769 2008
9770 9663 326
9771 9772 2020
9771 9672 318
9772 9771 2020
9772 9814 195
9773 9765 63
9773 9774 142
9773 9783 181
9774 9773 142
9775 9763 157
9775 9777 89
9775 9754 1794
9776 9765 120
9776 9782 128
9776 9783 108
9777 9775 89
9777 9781 69
9778 9747 1677
9779 9739 675
9779 9816 392
9780 9760 320
9781 9777 69
9781 9791 168
9781 9802 156
9782 9776 128
9782 9745 975
9782 9794 110
9783 9776 108
9783 9773 181
9783 9794 255
9784 9764 326
9784 9785 206
9784 9792 133
9785 9784 206
9785 9787 206
9785 9821 184
9786 9695 4080
9786 10263 453
9787 9788 429
9787 9785 206
9788 9787 429
9789 9692 1353
9789 9792 157
9789 9825 238
9790 9729 1221
9790 9826 281
9791 9781 168
9791 9802 162
9791 10004 2979
9792 9784 133
9792 9789 157
9792 10007 2347
9793 9698 4084
9793 10269 432
9794 9782 110
9794 9783 255
9794 9813 99
9795 9796 1817
9795 9799 15
9795 9810 3752
9795 9839 3406
9796 9795 1817
9797 9754 2461
9798 9722 1085
9798 9803 79
9798 9822 143
9799 9795 15
9799 9814 3749
9799 9836 910
9799 9846 3399
9800 9719 1358
9800 9956 1286
9801 9762 784
9801 9758 1252
9801 9914 2102
9802 9791 162
9802 9781 156
9802 9851 268
9803 9798 79
9803 9815 698
9803 9908 1153
9804 9544 3573
9804 10276 6422
9805 9806 7
9805 9727 1000
9805 9807 14
9805 9945 1022
9806 9805 7
9806 9822 226
9807 9805 14
9807 9730 995
9807 9946 1023
9807 9971 2104
9808 9809 114
9808 9827 991
9808 9891 923
9809 9808 114
9810 9795 3752
9810 9769 195
9811 9812 189
9811 9817 898
9811 9829 264
9812 9811 189
9813 9794 99
9813 9853 388
9813 9860 286
9814 9799 3749
9814 9772 195
9815 9767 705
9815 9803 698
9815 9868 912
9816 9779 392
9816 9837 2569
9816 9881 642
9817 9691 1848
9817 9811 898
9817 9929 1126
9818 9687 2278
9818 9850 1169
9818 9855 487
9819 9820 1185
9819 9834 499
9819 9878 672
9820 9819 1185
9820 9603 2109
9821 9785 184
9822 9798 143
9822 9806 226
9822 9896 646
9822 9903 592
9823 9824 1284
9823 9599 2153
9824 9823 1284
9824 9826 359
9824 9832 365
9825 9789 238
9826 9824 359
9826 9790 281
9826 9828 52
9826 9832 17
9827 9808 991
9827 9863 261
9827 9851 1533
9828 9826 52
9828 9830 23
9828 9833 16
9828 9859 469
9829 9811 264
9829 9842 132
9829 9852 80
9830 9828 23
9830 9835 17
9831 9734 1253
9831 9964 2008
9831 10184 5838
9832 9824 365
9832 9826 17
9832 9833 41
9832 9834 13
9833 9832 41
9833 9828 16
9833 9835 24
9833 9840 13
9834 9819 499
9834 9832 13
9834 9840 34
9834 9857 69
9835 9833 24
9835 9830 17
9835 9841 14
9835 9859 327
9836 9799 910
9836 9837 868
9836 9915 801
9837 9836 868
9837 9816 2569
9838 9839 1352
9839 9838 1352
9839 9846 28
9839 9858 781
9839 9795 3406
9840 9834 34
9840 9833 13
9840 9841 25
9840 9857 67
9841 9840 25
9841 9835 14
9841 9856 222
9841 9862 92
9842 9829 132
9842 9849 21
9842 9895 1223
9843 9844 3265
9843 9845 162
9843 9877 248
9844 9843 3265
9845 9843 162
9846 9839 28
9846 9867 848
9846 9799 3399
9846 9934 3039
9847 9848 337
9847 9865 183
9847 9909 2449
9848 9847 337
9849 9842 21
9850 9818 1169
9850 9892 830
9851 9802 268
9851 9827 1533
9851 9951 1004
9852 9829 80
9853 9854 588
9853 9813 388
9853 9860 107
9854 9853 588
9854 9861 118
9854 9907 601
9855 9818 487
9856 9841 222
9856 9866 238
9856 9873 546
9857 9834 69
9857 9840 67
9857 9862 35
9857 9878 173
9858 9839 781
9858 9890 1542
9859 9835 327
9859 9828 469
9859 9871 437
9860 9813 286
9860 9853 107
9860 9869 72
9861 9854 118
9862 9857 35
9862 9841 92
9862 9866 42
9862 9874 118
9863 9827 261
9863 9864 377
9863 9904 440
9864 9863 377
9865 9847 183
9866 9862 42
9866 9856 238
9866 9870 122
9866 9874 111
9867 9846 848
9867 9926 1510
9868 9622 3354
9868 9815 912
9868 9908 935
9868 9916 518
9869 9860 72
9869 9872 108
9869 9898 353
9870 9866 122
9870 9921 806
9871 9859 437
9871 9927 339
9872 9869 108
9873 9856 546
9873 9936 321
9874 9862 118
9874 9866 111
9874 9954 933
9875 9876 193
9875 9883 1248
9875 9914 483
9876 9875 193
9876 9897 345
9877 9843 248
9877 9886 95
9877 9928 676
9878 9819 672
9878 9857 173
9878 9957 927
9879 9880 2525
9880 9879 2525
9881 9739 1640
9881 9816 642
9881 10033 2771
9882 9762 1388
9883 9875 1248
9883 9887 517
9883 9894 211
9884 9885 103
9884 9886 0
9884 9886 1
9885 9884 103
9886 9884 0
9886 9877 95
9886 9884 1
9886 9928 647
9887 9883 517
9888 9889 1956
9889 9888 1956
9889 9890 898
9889 9925 431
9889 9927 1377
9890 9889 898
9890 9858 1542
9891 9808 923
9891 9892 13
9891 9893 54
9892 9891 13
9892 9850 830
9892 9961 905
9893 9891 54
9894 9883 211
9895 9842 1223
9896 9822 646
9896 9903 465
9896 9966 638
9897 9876 345
9898 9869 353
9898 9912 149
9898 9917 288
9899 9900 344
9899 9902 242
9899 9913 198
9900 9899 344
9901 9760 1745
9901 10002 1278
9901 10106 3920
9902 9899 242
9903 9896 465
9903 9822 592
9903 9906 206
9903 9943 318
9904 9863 440
9904 9919 153
9905 9471 5056
9906 9903 206
9907 9854 601
9908 9868 935
9908 9803 1153
9908 9958 440
9909 9847 2449
9909 9916 380
9910 9327 7298
9910 9911 891
9910 10032 2557
9911 9910 891
9912 9898 149
9912 9913 11
9912 9913 11
9913 9912 11
9913 9912 11
9913 9899 198
9913 9918 70
9914 9875 483
9914 9801 2102
9914 9955 937
9915 9836 801
9915 9934 477
9915 10048 1864
9916 9868 518
9916 9909 380
9916 9963 421
9917 9898 288
9917 9937 310
9918 9913 70
9918 9920 277
9918 9994 975
9919 9904 153
9919 9923 125
9919 9940 842
9920 9918 277
9921 9870 806
9921 9933 88
9921 9948 1180
9921 9954 690
9922 9748 1626
9922 9959 396
9922 10021 1193
9923 9919 125
9923 9924 219
9923 9952 499
9924 9923 219
9925 9889 431
9925 9926 1231
9925 9931 86
9925 9931 108
9926 9925 1231
9926 9867 1510
9927 9889 1377
9927 9871 339
9928 9877 676
9928 9886 647
9928 10071 2639
9929 9817 1126
9929 9930 5
9929 9939 391
9930 9929 5
9930 9970 500
9931 9925 86
9931 9935 117
9931 9935 101
9931 9925 108
9932 9933 42
9933 9932 42
9933 9921 88
9933 9953 198
9934 9915 477
9934 9846 3039
9934 10048 1515
9935 9931 117
9935 9931 101
9935 9936 855
9935 9950 199
9936 9935 855
9936 9873 321
9937 9917 310
9937 9938 213
9937 9944 128
9938 9937 213
9939 9929 391
9940 9919 842
9940 9949 111
9940 9960 346
9941 9942 1142
9941 9942 270
9941 9952 85
9942 9941 1142
9942 9941 270
9942 9952 403
9943 9903 318
9943 9945 296
9943 9972 336
9944 9937 128
9944 9947 186
9944 9974 544
9945 9943 296
9945 9805 1022
9945 9946 15
9945 10123 1874
9946 9945 15
9946 9807 1023
9946 10013 1644
9946 10124 1876
9947 9944 186
9948 9921 1180
9948 9950 14
9948 9953 1165
9949 9940 111
9949 9951 172
9949 9985 459
9950 9948 14
9950 9935 199
9950 10048 6816
9951 9851 1004
9951 9949 172
9951 9985 398
9952 9941 85
9952 9923 499
9952 9942 403
9953 9933 198
9953 9948 1165
9953 9973 725
9954 9874 933
9954 9921 690
9954 9957 23
9955 9914 937
9956 9800 1286
9956 10004 2748
9956 10077 2185
9957 9878 927
9957 9954 23
9957 9973 241
9958 9908 440
9958 9990 350
9959 9922 396
9959 9965 114
9959 9980 778
9960 9940 346
9961 9892 905
9961 9976 425
9961 9978 1527
9962 9963 153
9962 9981 269
9962 10232 15639
9963 9962 153
9963 9916 421
9963 9987 277
9963 9990 1171
9964 9831 2008
9964 9968 174
9964 9984 394
9965 9959 114
9965 9975 176
9965 10015 776
9966 9896 638
9967 9969 1074
9967 9983 1029
9968 9964 174
9968 9979 167
9968 9991 411
9969 9967 1074
9969 10014 1441
9970 9930 500
9971 9807 2104
9971 9986 302
9972 9943 336
9972 10006 405
9973 9957 241
9973 9953 725
9973 9996 268
9974 9944 544
9974 9992 296
9974 9993 201
9975 9965 176
9975 9988 112
9975 9995 209
9976 9977 383
9976 9961 425
9976 10019 592
9977 9976 383
9978 9961 1527
9979 9968 167
9979 9989 235
9979 9999 193
9980 9959 778
9980 10014 1946
9980 10015 2115
9981 9962 269
9981 9982 387
9981 9987 114
9982 9981 387
9983 9967 1029
9983 10011 356
9984 9964 394
9985 9951 398
9985 9949 459
9985 9998 118
9986 9971 302
9986 10114 72
9987 9981 114
9987 9963 277
9987 10017 1133
9987 10051 782
9988 9975 112
9989 9979 235
9990 9958 350
9990 9963 1171
9990 10017 381
9991 9968 411
9991 9994 145
9991 10001 246
9992 9974 296
9993 9974 201
9994 9991 145
9994 9918 975
9994 10001 297
9995 9975 209
9996 9973 268
9996 9997 191
9996 10053 730
9997 9996 191
9997 10308 819
9998 9985 118
9998 10000 821
9998 10036 865
9999 9979 193
9999 10016 318
9999 10066 1090
10000 9998 821
10000 10019 1211
10000 10061 1085
10001 9991 246
10001 9994 297
10001 10003 15
10002 9901 1278
10002 10010 162
10002 10144 1596
10003 10001 15
10003 10018 300
10003 10029 854
10004 9791 2979
10004 9956 2748
10004 10063 685
10005 10006 669
10005 10028 443
10006 10005 669
10006 9972 405
10006 10043 484
10006 10094 898
10007 9792 2347
10007 10008 120
10007 10020 195
10008 10007 120
10009 10010 231
10010 10009 231
10010 10002 162
10010 10113 1124
10011 9983 356
10011 10012 391
10011 10071 1145
10012 10011 391
10013 9946 1644
10014 9969 1441
10014 9980 1946
10014 10070 907
10015 9965 776
10015 10021 104
10015 9980 2115
10016 9999 318
10017 9987 1133
10017 9990 381
10017 10028 292
10017 10067 615
10018 10003 300
10019 10000 1211
10019 9976 592
10019 10022 31
10020 10007 195
10021 9922 1193
10021 10015 104
10021 10030 79
10022 10019 31
10022 10023 9
10022 10044 1134
10023 10022 9
10023 10024 75
10023 10034 164
10024 10023 75
10024 10027 118
10024 10041 257
10025 10026 514
10025 10037 402
10025 10044 517
10026 10025 514
10027 10024 118
10028 10017 292
10028 10005 443
10028 10043 591
10028 10080 530
10029 10003 854
10030 10021 79
10030 10031 131
10031 10030 131
10031 10046 239
10031 10054 229
10032 9910 2557
10032 10047 835
10032 10108 1003
10033 9881 2771
10033 9454 9619
10034 10023 164
10034 10035 192
10034 10042 60
10035 10034 192
10036 9998 865
10036 10050 253
10036 10107 738
10037 10025 402
10038 10039 1852
10039 10038 1852
10039 10040 1
10040 10039 1
10041 10024 257
10042 10034 60
10042 10045 64
10042 10049 78
10043 10028 591
10043 10006 484
10043 10076 318
10044 10022 1134
10044 10025 517
10044 10131 1145
10045 10042 64
10046 10031 239
10046 10056 90
10046 10057 88
10047 10032 835
10048 9934 1515
10048 9915 1864
10048 9950 6816
10049 10042 78
10049 10052 67
10049 10073 212
10050 10036 253
10051 9987 782
10051 10067 482
10051 10118 650
10052 10049 67
10053 9996 730
10053 10064 80
10053 10101 801
10054 10031 229
10054 10055 14
10054 10059 45
10055 10054 14
10055 10058 20
10056 10046 90
10056 10103 6873
10056 10404 4847
10057 10046 88
10057 10058 148
10057 10084 299
10058 10057 148
10058 10055 20
10058 10059 45
10059 10054 45
10059 10058 45
10059 10065 75
10060 9738 3266
10060 10172 1778
10060 10193 2026
10061 10062 157
10061 10000 1085
10061 10132 929
10062 10061 157
10063 10004 685
10063 10072 330
10063 10139 1395
10064 10053 80
10064 10278 92
10065 10059 75
10065 10084 199
10065 10085 289
10066 9999 1090
10066 10081 204
10066 10090 303
10067 10051 482
10067 10017 615
10067 10080 539
10067 10126 590
10068 10069 244
10069 10068 244
10069 10088 944
10069 10122 696
10070 10014 907
10071 10011 1145
10071 9928 2639
10071 10079 73
10072 10063 330
10072 10074 612
10072 10110 821
10073 10049 212
10073 10075 142
10073 10086 285
10074 10072 612
10075 10073 142
10076 10043 318
10077 10078 291
10077 9956 2185
10077 10095 163
10078 10077 291
10079 10071 73
10079 10102 236
10079 10104 1359
10080 10067 539
10080 10028 530
10080 10097 492
10080 10137 665
10081 10066 204
10082 10083 2423
10082 10106 294
10083 10082 2423
10084 10057 299
10084 10065 199
10084 10096 96
10085 10065 289
10085 10096 363
10085 10109 416
10086 10073 285
10087 10088 305
10088 10087 305
10088 10089 107
10088 10069 944
10088 10153 1510
10089 10088 107
10090 10066 303
10090 10091 124
10090 10105 311
10091 10090 124
10092 10093 2510
10092 10199 1563
10093 10092 2510
10094 10006 898
10095 10077 163
10095 10119 535
10095 10159 2077
10096 10084 96
10096 10085 363
10096 10117 645
10097 10080 492
10098 10099 270
10098 10100 369
10098 10222 12392
10099 10098 270
10099 10100 6
10099 10103 568
10100 10098 369
10100 10099 6
10100 10354 3743
10101 10053 801
10101 10106 264
10101 10125 332
10102 10079 236
10102 10120 967
10102 10211 2462
10103 10099 568
10103 10056 6873
10104 10079 1359
10104 10111 207
10104 10120 508
10105 10090 311
10106 10082 294
10106 10101 264
10106 9901 3920
10106 10125 335
10107 10036 738
10107 10180 2103
10108 10032 1003
10108 10127 1175
10108 10135 463
10109 10085 416
10109 10117 61
10110 10072 821
10110 10151 740
10110 10156 2592
10111 10104 207
10111 10112 17
10112 10111 17
10112 10135 615
10113 10010 1124
10114 10115 2633
10114 9986 72
10115 10114 2633
10115 10153 6399
10116 9738 5948
10116 10127 2604
10116 10208 2673
10117 10096 645
10117 10109 61
10117 10233 2247
10118 10051 650
10118 10126 29
10119 10095 535
10120 10104 508
10120 10102 967
10121 10122 412
10122 10121 412
10122 10069 696
10122 10141 1081
10122 10143 463
10123 9945 1874
10123 10174 317
10124 9946 1876
10124 10176 317
10125 10106 335
10125 10101 332
10125 10140 301
10126 10118 29
10126 10067 590
10126 10128 29
10127 10108 1175
10127 10116 2604
10128 10126 29
10128 10137 587
10128 10168 750
10129 10130 407
10130 10129 407
10131 10044 1145
10131 10142 476
10131 10190 5141
10132 10061 929
10132 10133 18
10133 10132 18
10133 10134 308
10133 10136 147
10134 10133 308
10135 10108 463
10135 10112 615
10135 10138 149
10136 10133 147
10136 10147 203
10136 10155 434
10137 10128 587
10137 10080 665
10137 10149 486
10137 10192 779
10138 10135 149
10138 10148 226
10138 10212 2070
10139 10063 1395
10139 10369 4061
10140 10125 301
10140 10145 161
10140 10154 324
10141 10122 1081
10142 10131 476
10143 10122 463
10143 10203 557
10144 10002 1596
10144 10161 915
10144 10206 1391
10145 10140 161
10145 10146 772
10145 10177 527
10146 10145 772
10147 10136 203
10147 10152 266
10147 10155 156
10148 10138 226
10149 10137 486
10149 10150 173
10149 10157 576
10149 10213 814
10150 10149 173
10151 10110 740
10152 10147 266
10152 10158 370
10152 10166 496
10153 10088 1510
10153 10115 6399
10153 10261 2560
10154 10140 324
10154 10162 390
10154 10165 236
10155 10136 434
10155 10147 156
10155 10160 238
10156 10110 2592
10156 10159 312
10156 10371 3853
10157 10149 576
10157 10173 721
10157 10244 939
10158 10152 370
10158 10163 103
10159 10156 312
10159 10095 2077
10159 10167 87
10160 10155 238
10160 10169 762
10160 10195 879
10161 10144 915
10161 10162 160
10161 10181 188
10162 10161 160
10162 10154 390
10162 10165 177
10162 10196 338
10163 10158 103
10163 10164 295
10163 10185 204
10164 10163 295
10165 10162 177
10165 10154 236
10165 10177 184
10165 10181 944
10166 10152 496
10167 10159 87
10167 10291 2028
10168 10128 750
10168 10192 573
10168 10205 383
10169 10160 762
10170 10171 166
10171 10170 166
10171 10179 87
10171 10182 410
10172 10060 1778
10172 10306 2374
10172 10336 2145
10173 10157 721
10173 10174 515
10173 10175 14
10173 10285 1138
10174 10173 515
10174 10123 317
10175 10173 14
10175 10176 515
10175 10200 526
10175 10289 1149
10176 10175 515
10176 10124 317
10177 10165 184
10177 10145 527
10177 10227 588
10178 10179 124
10179 10178 124
10179 10171 87
10179 10183 43
10180 10107 2103
10181 10161 188
10181 10194 220
10181 10165 944
10182 10171 410
10183 10179 43
10183 10189 1028
10183 10202 261
10184 9831 5838
10184 10186 112
10184 10305 3111
10185 10163 204
10186 10184 112
10186 10215 4343
10187 10188 2029
10187 9478 4915
10188 10187 2029
10188 10189 43
10188 10190 10
10188 10223 628
10189 10188 43
10189 10183 1028
10190 10191 2032
10190 10188 10
10190 10131 5141
10190 10224 637
10191 10190 2032
10191 9479 4907
10192 10168 573
10192 10137 779
10192 10213 507
10192 10228 387
10193 10060 2026
10193 10226 1100
10193 10234 759
10194 10181 220
10194 10206 111
10194 10227 561
10195 10160 879
10196 10162 338
10197 10198 131
10197 10208 1148
10197 10225 317
10198 10197 131
10198 10201 361
10198 10201 133
10199 10092 1563
10199 10216 160
10199 10219 176
10200 10175 526
10200 10311 1171
10201 10198 361
10201 10198 133
10201 10207 96
10202 10183 261
10202 10217 39
10203 10204 313
10203 10143 557
10204 10203 313
10204 10214 104
10204 10214 79
10204 10245 452
10205 10168 383
10205 10228 582
10205 10353 1897
10206 10144 1391
10206 10194 111
10206 10268 790
10207 10201 96
10208 10197 1148
10208 10116 2673
10208 10220 138
10209 10210 3546
10210 10209 3546
10210 10254 3451
10210 10359 3097
10211 10212 22
10211 10102 2462
10211 10282 1201
10212 10211 22
10212 10138 2070
10212 10230 942
10213 10192 507
10213 10149 814
10213 10244 661
10213 10247 382
10214 10204 104
10214 10204 79
10214 10246 350
10215 10216 65
10215 10186 4343
10215 10412 3474
10216 10215 65
10216 10199 160
10216 10219 98
10217 10218 62
10217 10202 39
10218 10217 62
10218 10240 319
10218 10259 1203
10219 10216 98
10219 10199 176
10219 10231 402
10220 10208 138
10220 10257 930
10221 10222 49
10221 10236 249
10221 10334 4337
10222 10221 49
10222 10229 234
10222 10098 12392
10223 10188 628
10223 10238 200
10224 10190 637
10224 10243 199
10225 10197 317
10225 10248 308
10225 10257 1297
10226 10193 1100
10227 10194 561
10227 10177 588
10227 10268 461
10228 10205 582
10228 10192 387
10228 10247 506
10229 10222 234
10229 10236 284
10229 10309 1491
10230 10212 942
10231 10219 402
10231 10232 81
10231 10235 79
10232 10231 81
10232 10235 95
10232 9962 15639
10233 10117 2247
10233 10237 498
10233 10275 397
10234 10193 759
10235 10231 79
10235 10232 95
10235 10368 1690
10236 10221 249
10236 10229 284
10236 10436 9711
10237 10233 498
10238 10239 191
10238 10240 609
10238 10223 200
10239 10238 191
10239 10241 72
10239 10260 433
10240 10238 609
10240 10218 319
10240 10271 271
10241 10239 72
10241 10249 292
10241 10249 459
10241 10253 277
10242 10243 183
10242 10255 177
10242 10266 446
10243 10242 183
10243 10271 879
10243 10224 199
10244 10213 661
10244 10157 939
10244 10290 825
10245 10204 452
10245 10246 136
10245 10277 265
10245 10277 428
10246 10214 350
10246 10245 136
10246 10332 860
10247 10228 506
10247 10213 382
10247 10252 204
10248 10225 308
10249 10241 292
10249 10241 459
10249 10253 13
10249 10258 94
10250 10251 169
10250 10256 107
10250 10261 73
10251 10250 169
10252 10247 204
10252 10296 720
10252 10342 1404
10253 10241 277
10253 10249 13
10254 10210 3451
10254 10261 82
10254 10335 1195
10255 10242 177
10255 10264 209
10255 10265 247
10255 10264 280
10255 10281 293
10256 10250 107
10257 10225 1297
10257 10220 930
10257 10280 208
10258 10249 94
10258 10274 170
10259 10218 1203
10260 10239 433
10260 10272 183
10261 10250 73
10261 10254 82
10261 10153 2560
10262 10263 11445
10263 10262 11445
10263 9786 453
10264 10255 209
10264 10265 10
10264 10255 280
10265 10264 10
10265 10255 247
10265 10267 82
10265 10281 113
10266 10242 446
10266 12323 80
10267 10265 82
10267 12323 86
10268 10206 790
10268 10227 461
10268 10279 555
10269 10270 11427
10269 9793 432
10270 10269 11427
10271 10240 271
10271 10243 879
10271 10284 205
10272 10273 171
10272 10260 183
10273 10272 171
10273 10274 174
10273 10286 765
10274 10273 174
10274 10258 170
10275 10233 397
10275 10276 1041
10275 10361 1402
10275 10362 2002
10276 10275 1041
10276 9804 6422
10277 10245 265
10277 10245 428
10277 10327 560
10278 10279 2473
10278 10064 92
10279 10278 2473
10279 10268 555
10279 10603 10399
10280 10257 208
10280 10283 807
10281 10255 293
10281 10265 113
10282 10211 1201
10282 10283 54
10282 10301 316
10283 10282 54
10283 10280 807
10283 10316 419
10284 10271 205
10284 10295 482
10284 10302 203
10285 10173 1138
10285 10290 31
10285 10292 31
10286 10273 765
10286 10297 283
10287 10288 933
10287 10300 283
10288 10287 933
10288 12323 109
10289 10175 1149
10289 10293 23
10289 10294 23
10290 10244 825
10290 10285 31
10290 10292 4
10290 10303 554
10291 10167 2028
10291 10370 1483
10292 10290 4
10292 10285 31
10292 10293 14
10292 10307 254
10293 10292 14
10293 10289 23
10293 10294 1
10293 10310 257
10294 10293 1
10294 10289 23
10294 10311 495
10294 10330 443
10295 10284 482
10295 10302 622
10295 10326 1635
10296 10252 720
10296 10303 169
10296 10304 162
10297 10298 78
10297 10286 283
10298 10297 78
10298 10318 584
10299 10300 81
10299 10321 584
10300 10299 81
10300 10287 283
10301 10282 316
10302 10284 203
10302 10295 622
10302 10317 1116
10303 10296 169
10303 10290 554
10303 10307 384
10304 10296 162
10304 10329 413
10304 10342 540
10305 10184 3111
10305 10328 876
10306 10172 2374
10306 10432 2149
10306 10522 8182
10307 10303 384
10307 10292 254
10307 10310 15
10307 10329 196
10308 10309 6303
10308 9997 819
10309 10308 6303
10309 10229 1491
10309 10529 7394
10310 10307 15
10310 10293 257
10310 10330 192
10310 10331 191
10311 10294 495
10311 10200 1171
10311 10352 587
10312 10313 97
10312 10323 397
10313 10312 97
10313 12324 286
10314 10315 90
10314 12325 285
10315 10314 90
10315 10324 402
10316 10283 419
10316 10333 274
10316 10395 2151
10317 10302 1116
10317 10424 2554
10318 10319 135
10318 10298 584
10319 10318 135
10319 10322 89
10320 10321 134
10320 10325 87
10321 10320 134
10321 10299 584
10322 10323 248
10322 10319 89
10323 10322 248
10323 10312 397
10324 10325 250
10324 10315 402
10325 10324 250
10325 10320 87
10326 10295 1635
10326 10328 48
10327 10277 560
10327 10332 134
10327 10346 614
10328 10305 876
10328 10326 48
10329 10304 413
10329 10307 196
10329 10331 14
10329 10343 181
10330 10310 192
10330 10294 443
10330 10331 77
10330 10345 225
10331 10329 14
10331 10310 191
10331 10330 77
10331 10344 183
10332 10246 860
10332 10327 134
10332 10356 478
10332 10365 1088
10333 10316 274
10334 10221 4337
10335 10254 1195
10335 10391 1015
10336 10172 2145
10336 10339 9
10336 10350 232
10337 10338 482
10337 12324 202
10338 10337 482
10338 12326 836
10339 10336 9
10340 10341 482
10340 10387 830
10341 10340 482
10341 12325 202
10342 10252 1404
10342 10304 540
10342 10343 14
10342 10351 179
10343 10342 14
10343 10329 181
10343 10344 14
10343 10351 177
10344 10343 14
10344 10331 183
10344 10345 2
10344 10348 54
10345 10344 2
10345 10330 225
10345 10348 54
10345 10349 227
10346 10327 614
10346 10347 45
10347 10346 45
10347 10355 497
10347 10402 1367
10348 10344 54
10348 10345 54
10348 10598 6001
10349 10345 227
10349 10352 250
10349 10442 3826
10350 10336 232
10350 10364 381
10351 10342 179
10351 10343 177
10351 10605 6037
10352 10349 250
10352 10311 587
10352 10443 3489
10353 10205 1897
10353 10548 5511
10354 10100 3743
10354 10360 195
10354 10505 5215
10355 10347 497
10355 10356 178
10355 10402 596
10356 10332 478
10356 10355 178
10356 10367 188
10357 10358 436
10357 10379 531
10357 10403 1210
10358 10357 436
10359 10210 3097
10359 10394 754
10359 10391 2319
10360 10354 195
10360 10518 4558
10361 10275 1402
10361 10376 651
10361 10397 1272
10362 10363 679
10362 10275 2002
10362 10397 451
10362 10521 5795
10363 10362 679
10364 10350 381
10364 10438 1851
10364 10466 3138
10365 10366 574
10365 10332 1088
10365 10393 298
10366 10365 574
10367 10356 188
10367 10393 601
10367 10408 554
10368 10235 1690
10368 10372 96
10368 10375 532
10369 10139 4061
10369 10371 23
10370 10291 1483
10370 10374 218
10370 10512 2922
10371 10156 3853
10371 10369 23
10371 10378 132
10372 10368 96
10372 10373 269
10372 10377 438
10373 10372 269
10373 10384 455
10373 10398 355
10374 10370 218
10375 10368 532
10375 10399 258
10375 10421 1457
10376 10361 651
10377 10372 438
10377 10381 95
10378 10371 132
10378 10507 3035
10378 10520 3251
10379 10357 531
10380 10381 131
10380 12326 79
10381 10380 131
10381 10377 95
10382 10383 179
10382 12326 78
10383 10382 179
10383 10388 139
10384 10373 455
10384 10385 127
10384 10388 409
10385 10384 127
10385 10497 5883
10386 10387 271
10386 10392 140
10387 10386 271
10387 10340 830
10388 10384 409
10388 10383 139
10389 10390 201
10389 10500 5854
10390 10389 201
10390 10392 368
10390 10398 367
10391 10335 1015
10391 10359 2319
10391 10414 643
10392 10390 368
10392 10398 216
10392 10386 140
10393 10365 298
10393 10367 601
10393 10411 1231
10393 10413 339
10394 10359 754
10394 10396 28
10394 10428 722
10395 10316 2151
10396 10394 28
10396 10405 201
10397 10362 451
10397 10361 1272
10397 10431 815
10398 10373 355
10398 10392 216
10398 10390 367
10399 10375 258
10399 10503 2329
10400 10401 110
10400 10405 354
10400 10418 300
10401 10400 110
10402 10355 596
10402 10347 1367
10402 10408 320
10403 10357 1210
10403 10406 585
10403 10439 1592
10404 10056 4847
10404 10433 1464
10404 10469 1287
10405 10400 354
10405 10396 201
10405 10425 309
10406 10403 585
10406 10407 4476
10407 10406 4476
10408 10367 554
10408 10402 320
10408 10429 567
10409 10410 106
10409 10414 121
10409 10417 175
10409 10419 148
10410 10409 106
10411 10393 1231
10411 10416 655
10411 10427 210
10412 10215 3474
10412 10421 354
10412 10440 1255
10412 10457 1419
10413 10393 339
10413 10435 568
10414 10391 643
10414 10409 121
10414 10419 151
10415 10416 5241
10416 10415 5241
10416 10411 655
10416 10427 761
10416 10467 1150
10417 10409 175
10417 10418 184
10417 10422 135
10418 10417 184
10418 10400 300
10418 10420 25
10419 10414 151
10419 10409 148
10419 10426 60
10420 10418 25
10420 10425 259
10420 10430 127
10421 10412 354
10421 10375 1457
10421 10445 732
10422 10417 135
10423 10424 2022
10423 10539 5198
10424 10423 2022
10424 10317 2554
10425 10420 259
10425 10405 309
10425 10428 183
10426 10419 60
10427 10416 761
10427 10411 210
10427 10435 1137
10428 10425 183
10428 10394 722
10428 10434 161
10429 10408 567
10430 10420 127
10430 10434 384
10430 10446 652
10431 10397 815
10432 10306 2149
10433 10404 1464
10434 10430 384
10434 10428 161
10434 10441 595
10435 10427 1137
10435 10413 568
10435 10450 583
10436 10236 9711
10436 10437 269
10436 10447 479
10437 10436 269
10437 10461 983
10438 10364 1851
10439 10403 1592
10439 10449 85
10439 10451 1190
10440 10412 1255
10441 10434 595
10441 10446 39
10442 10349 3826
10442 10444 40
10443 10352 3489
10443 10444 3
10444 10442 40
10444 10443 3
10444 10467 1119
10444 10480 1295
10445 10421 732
10445 10448 136
10445 10479 1016
10446 10430 652
10446 10441 39
10446 10493 2833
10447 10436 479
10448 10445 136
10448 10452 111
10448 10460 418
10449 10439 85
10450 10435 583
10451 10439 1190
10452 10448 111
10452 10481 619
10452 10487 1018
10453 10454 197
10454 10453 197
10455 10456 45
10456 10455 45
10457 10412 1419
10457 10472 1673
10458 10459 54
10459 10458 54
10460 10448 418
10460 10462 383
10460 10478 401
10461 10437 983
10461 10468 162
10461 10474 236
10462 10460 383
10462 10463 811
10462 10491 626
10463 10462 811
10464 10465 60
10465 10464 60
10466 10364 3138
10466 10470 123
10467 10444 1119
10467 10416 1150
10467 10509 1076
10468 10461 162
10469 10404 1287
10470 10466 123
10470 10471 149
10470 10476 449
10471 10470 149
10472 10473 925
10472 10457 1673
10472 10546 2636
10472 10546 2500
10473 10472 925
10474 10461 236
10474 10475 89
10474 10488 1267
10475 10474 89
10476 10470 449
10476 10477 877
10476 10506 1075
10477 10476 877
10478 10460 401
10478 10491 306
10478 10499 309
10479 10445 1016
10479 10486 278
10479 10487 106
10480 10444 1295
10480 10509 850
10480 10587 6048
10481 10452 619
10481 10487 633
10481 10499 257
10482 10483 840
10483 10482 840
10484 10485 24
10485 10484 24
10486 10479 278
10486 10492 95
10486 10533 1848
10487 10479 106
10487 10452 1018
10487 10481 633
10488 10474 1267
10488 10498 137
10488 10504 599
10489 10490 95
10490 10489 95
10491 10478 306
10491 10462 626
10491 10503 340
10491 10517 708
10492 10486 95
10492 10502 120
10492 10510 909
10493 10446 2833
10494 10495 124
10494 10496 220
10494 10501 361
10495 10494 124
10496 10494 220
10497 10385 5883
10497 10547 140
10498 10488 137
10498 10508 196
10498 10523 1046
10499 10481 257
10499 10478 309
10499 10510 231
10500 10389 5854
10500 10551 140
10501 10494 361
10501 10506 422
10501 10515 544
10502 10492 120
10502 10519 359
10502 10545 4058
10503 10491 340
10503 10399 2329
10503 10524 728
10504 10488 599
10505 10354 5215
10505 10537 2243
10506 10476 1075
10506 10501 422
10506 10511 1383
10507 10378 3035
10507 10513 236
10507 10514 176
10508 10498 196
10509 10467 1076
10509 10480 850
10509 10557 4806
10509 10565 6502
10510 10499 231
10510 10492 909
10510 10517 231
10511 10506 1383
10511 10512 584
10511 10516 352
10512 10511 584
10512 10370 2922
10512 10516 473
10513 10507 236
10514 10507 176
10515 10501 544
10516 10511 352
10516 10512 473
10516 10526 1191
10516 10536 1178
10517 10510 231
10517 10491 708
10517 10519 1045
10517 10524 363
10518 10360 4558
10518 10589 3556
10519 10502 359
10519 10517 1045
10519 10524 1698
10520 10378 3251
10520 10530 721
10521 10362 5795
10521 10573 845
10522 10306 8182
10522 10575 3288
10523 10498 1046
10524 10517 363
10524 10503 728
10524 10525 562
10524 10519 1698
10525 10524 562
10526 10516 1191
10527 10528 1680
10527 10532 13
10527 10531 358
10528 10527 1680
10529 10309 7394
10529 10592 8209
10529 10752 9795
10530 10520 721
10530 10531 1604
10530 10582 1669
10531 10530 1604
10531 10527 358
10531 10535 199
10532 10527 13
10532 10534 230
10533 10486 1848
10533 10545 642
10534 10532 230
10534 10535 129
10534 10543 326
10535 10531 199
10535 10534 129
10535 10544 365
10536 10516 1178
10536 10538 312
10536 10556 1244
10537 10505 2243
10537 10549 374
10537 10552 1065
10538 10536 312
10538 10596 3561
10539 10423 5198
10539 10572 5070
10540 10541 123
10540 10541 185
10540 10562 1574
10541 10540 123
10541 10542 366
10541 10540 185
10542 10541 366
10543 10534 326
10544 10535 365
10545 10533 642
10545 10502 4058
10545 10653 2720
10546 10472 2636
10546 10472 2500
10546 10579 1221
10547 10548 4064
10547 10497 140
10548 10547 4064
10548 10353 5511
10548 10550 29
10548 10633 3107
10549 10537 374
10549 10553 246
10549 10571 812
10550 10551 4046
10550 10548 29
10550 10615 2741
10550 11003 9222
10551 10550 4046
10551 10500 140
10552 10537 1065
10553 10554 1569
10553 10549 246
10553 10555 171
10554 10553 1569
10555 10553 171
10556 10536 1244
10557 10509 4806
10558 10559 233
10559 10558 233
10559 10571 420
10559 10576 2434
10560 10561 28
10561 10560 28
10562 10563 1226
10562 10540 1574
10562 10583 1020
10563 10562 1226
10564 10565 828
10565 10564 828
10565 10568 426
10565 10509 6502
10566 10567 766
10567 10566 766
10568 10565 426
10569 10570 45
10570 10569 45
10571 10549 812
10571 10559 420
10571 10671 2271
10572 10539 5070
10572 10657 2880
10573 10574 2378
10573 10521 845
10574 10573 2378
10575 10522 3288
10575 10581 208
10575 10588 5954
10576 10559 2434
10577 10578 643
10578 10577 643
10578 10582 3075
10578 10595 888
10579 10546 1221
10579 10580 117
10579 10646 1327
10580 10579 117
10581 10575 208
10581 10597 314
10581 10596 1577
10582 10578 3075
10582 10530 1669
10582 10585 30
10583 10584 210
10583 10562 1020
10583 10586 17
10583 10586 20
10584 10583 210
10585 10582 30
10585 10657 4587
10585 10658 1364
10586 10583 17
10586 10583 20
10586 10676 3244
10587 10480 6048
10588 10575 5954
10589 10518 3556
10589 10701 4088
10590 10591 510
10591 10590 510
10592 10529 8209
10593 10594 33
10594 10593 33
10595 10578 888
10596 10538 3561
10596 10581 1577
10597 10581 314
10597 10612 625
10597 10769 5173
10598 10348 6001
10598 10637 433
10598 10638 450
10599 10600 16
10600 10599 16
10601 10602 134
10602 10601 134
10603 10604 55
10603 10606 50
10603 10279 10399
10604 10603 55
10604 10606 51
10604 10712 7034
10605 10351 6037
10605 10633 514
10605 10636 277
10606 10604 51
10606 10603 50
10606 10607 17
10607 10606 17
10607 10641 271
10608 10609 1763
10609 10608 1763
10610 10611 344
10611 10610 344
10612 10597 625
10612 10744 4687
10613 10614 390
10614 10613 390
10615 10550 2741
10615 10645 562
10616 10617 7
10617 10616 7
10618 10619 1087
10619 10618 1087
10620 10621 7
10621 10620 7
10622 10623 27
10623 10622 27
10624 10625 9
10625 10624 9
10626 10627 6
10627 10626 6
10628 10629 28
10629 10628 28
10629 10630 77
10629 10656 776
10630 10629 77
10631 10632 35
10632 10631 35
10633 10548 3107
10633 10605 514
10633 10636 327
10634 10635 345
10634 10651 397
10634 10654 2802
10635 10634 345
10636 10633 327
10636 10605 277
10636 10637 14
10636 10649 340
10637 10636 14
10637 10598 433
10637 10638 56
10637 10650 341
10638 10637 56
10638 10598 450
10638 10650 400
10638 10663 892
10639 10640 300
10640 10639 300
10641 10642 1604
10641 10607 271
10642 10641 1604
10642 10779 4299
10643 10644 977
10643 10669 6201
10643 10674 4111
10644 10643 977
10645 10615 562
10645 10649 179
10645 10664 656
10646 10579 1327
10646 10647 137
10646 10648 32
10647 10646 137
10647 10653 212
10648 10646 32
10649 10645 179
10649 10636 340
10649 10650 14
10649 10664 560
10650 10637 341
10650 10638 400
10650 10649 14
10650 10663 475
10651 10652 170
10651 10634 397
10651 10680 1695
10652 10651 170
10653 10647 212
10653 10545 2720
10653 10851 7289
10654 10634 2802
10655 10656 817
10656 10655 817
10656 10629 776
10656 10681 1049
10656 10705 1985
10657 10585 4587
10657 10572 2880
10657 10660 287
10658 10585 1364
10658 10659 5
10658 10832 5876
10659 10658 5
10659 10665 224
10659 10665 224
10660 10657 287
10660 10661 543
10660 10677 620
10661 10660 543
10661 10662 312
10661 10666 371
10662 10661 312
10663 10650 475
10663 10638 892
10663 11048 7314
10664 10645 656
10664 10649 560
10664 11051 7314
10665 10659 224
10665 10659 224
10665 10698 3112
10665 10698 3112
10666 10661 371
10666 10667 262
10666 10675 413
10667 10666 262
10667 10670 4388
10668 10669 982
10668 10673 197
10668 10674 514
10669 10668 982
10669 10643 6201
10669 10679 1869
10670 10667 4388
10670 10678 283
10670 10682 833
10671 10571 2271
10671 10672 549
10671 10684 553
10672 10671 549
10673 10668 197
10673 10683 300
10673 10689 870
10674 10668 514
10674 10643 4111
10674 10683 390
10675 10666 413
10675 10677 773
10675 10688 547
10676 10586 3244
10676 10784 3275
10677 10660 620
10677 10675 773
10677 10685 435
10678 10670 283
10679 10669 1869
10680 10651 1695
10680 10686 227
10680 10692 388
10681 10656 1049
10682 10670 833
10683 10674 390
10683 10673 300
10683 10690 163
10684 10671 553
10685 10677 435
10686 10687 72
10686 10680 227
10686 10691 103
10686 10692 257
10687 10686 72
10688 10675 547
10688 10696 265
10688 10702 989
10689 10673 870
10689 10690 356
10689 10697 206
10690 10683 163
10690 10689 356
10690 10719 1494
10691 10686 103
10692 10686 257
10692 10680 388
10692 10706 1133
10692 10718 1126
10693 10694 371
10693 10695 1277
10693 10738 2568
10694 10693 371
10695 10693 1277
10696 10688 265
10697 10689 206
10698 10665 3112
10698 10665 3112
10698 10708 3234
10698 10708 3234
10699 10700 4438
10700 10699 4438
10700 10728 828
10700 10743 4271
10701 10589 4088
10701 10704 1529
10701 10713 582
10702 10688 989
10702 10711 436
10702 10725 2671
10703 10704 5925
10703 10794 5066
10703 10808 4382
10704 10703 5925
10704 10701 1529
10705 10656 1985
10705 10745 541
10706 10707 174
10706 10692 1133
10706 10722 302
10706 10729 551
10707 10706 174
10708 10698 3234
10708 10698 3234
10708 10769 4056
10709 10710 572
10709 10710 558
10710 10709 572
10710 10709 558
10710 10790 2466
10711 10702 436
10711 10717 335
10711 10731 391
10712 10604 7034
10713 10701 582
10713 10721 140
10713 10766 1096
10714 10715 939
10715 10714 939
10715 10716 631
10715 10723 185
10715 10760 1948
10716 10715 631
10717 10711 335
10718 10692 1126
10719 10720 428
10719 10690 1494
10719 10765 1084
10720 10719 428
10721 10713 140
10721 10736 236
10721 10766 737
10722 10706 302
10722 10730 235
10722 10740 235
10723 10724 320
10723 10715 185
10723 10727 305
10724 10723 320
10725 10702 2671
10725 10726 604
10725 10799 1897
10726 10725 604
10727 10723 305
10728 10700 828
10728 10817 677
10729 10706 551
10729 10740 344
10729 10743 145
10730 10722 235
10731 10711 391
10731 10734 19
10731 10739 79
10732 10733 4557
10732 10737 92
10732 10776 2305
10733 10732 4557
10734 10731 19
10734 10735 198
10734 10778 580
10735 10734 198
10736 10721 236
10736 10737 8
10736 10749 290
10737 10736 8
10737 10732 92
10738 10693 2568
10739 10731 79
10739 10742 189
10739 10751 306
10740 10729 344
10740 10722 235
10740 10741 42
10740 10768 400
10741 10740 42
10742 10739 189
10743 10729 145
10743 10700 4271
10743 10774 615
10744 10612 4687
10744 10761 1177
10744 10867 5801
10745 10746 146
10745 10705 541
10746 10745 146
10746 10750 128
10746 10754 799
10747 10748 758
10747 10772 4302
10747 10781 1987
10748 10747 758
10749 10736 290
10749 10826 1737
10749 10899 4367
10750 10746 128
10750 10753 84
10750 10759 101
10751 10739 306
10752 10529 9795
10752 10792 2875
10752 10812 2158
10753 10750 84
10753 10759 65
10753 10770 229
10754 10755 386
10754 10746 799
10754 10767 791
10755 10754 386
10755 10764 1046
10755 10764 1002
10756 10757 280
10757 10756 280
10757 10758 4264
10757 11020 11637
10758 10757 4264
10759 10750 101
10759 10753 65
10759 10767 100
10760 10715 1948
10761 10744 1177
10761 10829 3294
10762 10763 369
10763 10762 369
10763 10775 41
10764 10755 1046
10764 10755 1002
10764 10804 3045
10764 10804 2893
10765 10719 1084
10765 10781 324
10765 10780 599
10766 10713 1096
10766 10721 737
10766 10808 3361
10767 10754 791
10767 10759 100
10767 10770 54
10767 10782 225
10768 10740 400
10768 10771 11
10769 10597 5173
10769 10708 4056
10769 10803 819
10770 10753 229
10770 10767 54
10770 10773 468
10771 10768 11
10771 10786 350
10772 10747 4302
10772 10823 2315
10773 10770 468
10774 10743 615
10774 10775 42
10774 10786 299
10775 10774 42
10775 10763 41
10776 10732 2305
10776 10777 453
10776 10780 102
10777 10776 453
10778 10734 580
10778 10783 77
10778 10799 869
10779 10642 4299
10779 10819 3068
10780 10776 102
10780 10765 599
10781 10765 324
10781 10747 1987
10781 10788 367
10782 10767 225
10782 10793 594
10782 10815 897
10783 10778 77
10783 10791 298
10783 10806 486
10784 10785 288
10784 10676 3275
10784 10792 957
10785 10784 288
10786 10774 299
10786 10771 350
10786 10787 30
10787 10786 30
10788 10781 367
10788 10789 372
10788 10852 3694
10789 10788 372
10790 10710 2466
10790 10795 309
10790 10801 1816
10791 10783 298
10792 10784 957
10792 10752 2875
10792 10794 468
10793 10782 594
10793 10811 951
10793 10815 523
10794 10792 468
10794 10703 5066
10794 10972 6900
10795 10790 309
10795 10796 2228
10795 10800 118
10796 10795 2228
10797 10798 267
10797 10800 86
10797 10812 918
10798 10797 267
10799 10778 869
10799 10725 1897
10799 10846 1373
10800 10797 86
10800 10795 118
10800 10807 324
10801 10802 994
10801 10805 238
10801 10790 1816
10802 10801 994
10803 10769 819
10803 10939 3044
10804 10764 3045
10804 10764 2893
10804 10810 444
10805 10801 238
10806 10783 486
10806 10883 3716
10807 10800 324
10807 10809 426
10808 10766 3361
10808 10703 4382
10808 11110 10000
10809 10807 426
10810 10804 444
10810 10820 474
10810 10820 466
10811 10793 951
10811 10813 592
10811 10818 364
10812 10797 918
10812 10752 2158
10812 10923 3750
10813 10811 592
10813 10814 4554
10813 10816 165
10813 10818 339
10814 10813 4554
10815 10782 897
10815 10793 523
10815 11131 4563
10816 10813 165
10816 10817 1123
10816 10839 866
10817 10816 1123
10817 10728 677
10818 10811 364
10818 10813 339
10818 10839 1110
10819 10779 3068
10819 10836 1640
10820 10810 474
10820 10810 466
10820 10864 1050
10820 10896 1318
10821 10822 24
10821 10830 207
10821 10833 544
10822 10821 24
10823 10772 2315
10823 10828 622
10823 10976 2701
10824 10825 239
10824 10827 182
10825 10824 239
10826 10749 1737
10826 10899 3776
10826 11021 5262
10827 10824 182
10827 10835 348
10827 10850 1477
10828 10823 622
10828 10829 274
10829 10761 3294
10829 10828 274
10830 10831 37
10830 10821 207
10830 10833 481
10830 10834 107
10831 10830 37
10832 10658 5876
10832 10837 904
10833 10821 544
10833 10830 481
10833 10875 1631
10834 10830 107
10835 10827 348
10836 10819 1640
10836 10940 2318
10837 10832 904
10837 10838 484
10837 10856 6130
10838 10837 484
10838 10883 6720
10838 10919 1299
10839 10818 1110
10839 10816 866
10839 10914 1973
10840 10841 276
10840 10842 63
10840 10844 347
10841 10840 276
10842 10843 319
10842 10840 63
10842 10850 1037
10843 10842 319
10844 10845 754
10844 10840 347
10844 10849 539
10845 10844 754
10846 10847 156
10846 10799 1373
10846 10848 39
10847 10846 156
10848 10846 39
10848 10869 1678
10848 10880 1627
10849 10844 539
10850 10827 1477
10850 10842 1037
10850 10857 30
10851 10653 7289
10851 10868 222
10851 10900 726
10852 10788 3694
10852 10947 1357
10853 10854 462
10853 10858 148
10853 10860 71
10854 10853 462
10855 10856 2092
10855 10859 126
10855 10925 1612
10856 10855 2092
10856 10837 6130
10856 10982 5699
10857 10850 30
10857 10865 420
10857 10882 768
10858 10853 148
10859 10855 126
10860 10853 71
10860 10861 496
10860 10873 397
10861 10860 496
10862 10863 72
10863 10862 72
10863 10866 110
10863 10897 456
10864 10820 1050
10864 10896 340
10864 10950 1596
10865 10857 420
10865 10870 139
10866 10863 110
10866 10868 83
10867 10744 5801
10867 10939 2225
10868 10851 222
10868 10866 83
10869 10848 1678
10870 10865 139
10871 10872 34
10871 10876 26
10871 10879 69
10871 10902 958
10872 10871 34
10872 10876 24
10872 10898 938
10873 10874 204
10873 10860 397
10873 10875 82
10874 10873 204
10875 10833 1631
10875 10873 82
10875 10898 592
10876 10871 26
10876 10872 24
10876 10917 936
10877 10878 50
10877 10880 778
10877 10933 1284
10878 10877 50
10879 10871 69
10879 10902 1277
10880 10848 1627
10880 10877 778
10880 10948 1446
10881 10882 341
10881 10898 653
10881 10924 906
10882 10881 341
10882 10857 768
10882 10889 426
10882 10894 217
10883 10838 6720
10883 10806 3716
10883 10948 2986
10883 10963 1102
10884 10885 93
10885 10884 93
10885 10886 70
10885 10930 668
10886 10885 70
10887 10888 6
10888 10887 6
10889 10882 426
10889 10895 410
10889 10971 2705
10890 10891 86
10890 10892 191
10890 10893 539
10891 10890 86
10892 10890 191
10893 10890 539
10894 10882 217
10895 10889 410
10896 10820 1318
10896 10864 340
10896 10918 394
10897 10863 456
10897 10900 358
10897 10901 2511
10898 10875 592
10898 10881 653
10898 10872 938
10899 10749 4367
10899 10826 3776
10899 10916 375
10900 10897 358
10900 10851 726
10900 10903 55
10901 10897 2511
10901 10933 1283
10901 11061 3272
10902 10871 958
10902 10908 78
10902 10879 1277
10902 10926 701
10903 10900 55
10903 11089 132
10904 10905 490
10904 10906 39
10904 10911 61
10904 10941 570
10905 10904 490
10906 10904 39
10906 10910 751
10906 10911 66
10907 10908 370
10908 10907 370
10908 10902 78
10908 10909 2
10908 10926 679
10909 10908 2
10910 10906 751
10910 10912 55
10910 10915 518
10911 10904 61
10911 10906 66
10911 10915 431
10912 10910 55
10912 10913 222
10912 10921 180
10913 10912 222
10914 10839 1973
10914 10985 1158
10914 10989 832
10915 10910 518
10915 10911 431
10915 10953 733
10916 10899 375
10917 10876 936
10917 10920 83
10917 10922 90
10918 10896 394
10918 10974 1307
10918 10995 779
10919 10838 1299
10919 11024 1894
10919 11076 8649
10920 10917 83
10920 10922 37
10920 10924 169
10921 10912 180
10921 10931 149
10921 10931 146
10922 10917 90
10922 10920 37
10922 10935 205
10923 10812 3750
10924 10920 169
10924 10881 906
10924 10944 328
10925 10855 1612
10925 10936 770
10925 10954 1169
10926 10908 679
10926 10902 701
10926 10930 42
10926 10937 95
10927 10928 183
10927 10929 139
10927 10944 431
10928 10927 183
10929 10927 139
10929 10934 196
10929 10938 152
10930 10885 668
10930 10926 42
10930 10931 26
10930 10937 60
10931 10921 149
10931 10921 146
10931 10930 26
10931 10937 78
10932 10933 134
10932 10943 915
10932 10952 688
10933 10932 134
10933 10877 1284
10933 10901 1283
10934 10929 196
10935 10922 205
10935 11037 384
10936 10925 770
10937 10931 78
10937 10930 60
10937 10926 95
10938 10929 152
10939 10867 2225
10939 10803 3044
10939 10956 777
10940 10836 2318
10940 11098 3162
10941 10904 570
10941 10942 19
10941 10955 705
10942 10941 19
10942 10953 410
10942 10993 903
10943 10932 915
10943 10948 982
10943 10977 535
10944 10924 328
10944 10927 431
10944 10958 847
10944 10959 616
10945 10946 207
10945 10954 412
10945 10961 904
10946 10945 207
10947 10852 1357
10947 10949 52
10947 10951 68
10948 10883 2986
10948 10880 1446
10948 10943 982
10949 10947 52
10949 10951 43
10949 10966 339
10950 10864 1596
10950 10957 1403
10950 10974 294
10951 10947 68
10951 10949 43
10951 11063 1590
10952 10932 688
10953 10942 410
10953 10915 733
10953 10997 752
10954 10945 412
10954 10925 1169
10954 11013 1064
10955 10941 705
10956 10939 777
10956 10982 1431
10956 11319 6284
10957 10950 1403
10957 11129 3559
10958 10944 847
10959 10960 311
10959 10944 616
10959 11099 2729
10960 10959 311
10961 10962 330
10961 10968 366
10961 10945 904
10962 10961 330
10963 10883 1102
10963 10983 181
10963 10986 351
10964 10965 6875
10965 10964 6875
10965 10981 182
10965 10993 636
10966 10949 339
10966 10967 108
10966 10976 1131
10967 10966 108
10968 10969 116
10968 10970 1
10968 10970 1
10968 10961 366
10969 10968 116
10970 10968 1
10970 10968 1
10970 10979 236
10971 10889 2705
10971 10990 266
10971 11080 2271
10972 10794 6900
10972 10973 1234
10972 11071 1313
10972 11117 2660
10973 10972 1234
10974 10918 1307
10974 10950 294
10974 10975 3
10975 10974 3
10976 10966 1131
10976 10823 2701
10976 11063 1266
10977 10943 535
10977 10978 4
10978 10977 4
10978 10992 776
10979 10980 552
10979 10970 236
10979 11000 364
10980 10979 552
10981 10965 182
10981 11005 392
10981 11010 456
10982 10956 1431
10982 10856 5699
10982 11012 968
10983 10963 181
10984 11044 2140
10985 10914 1158
10985 10989 244
10985 11002 195
10986 10963 351
10987 10988 63
10987 10996 131
10987 10999 236
10988 10987 63
10989 10914 832
10989 10985 244
10989 11008 243
10990 10971 266
10990 10991 516
10990 10994 64
10991 10990 516
10992 10978 776
10993 10942 903
10993 10965 636
10993 10997 101
10994 10990 64
10995 10918 779
10995 11155 3562
10995 11188 5034
10996 10987 131
10996 10998 24
10996 11000 66
10997 10993 101
10997 10953 752
10997 11029 587
10998 10996 24
10998 10999 20
10998 11001 20
10999 10987 236
10999 10998 20
10999 11001 23
11000 10996 66
11000 10979 364
11000 11004 18
11001 10999 23
11001 10998 20
11001 11011 180
11002 10985 195
11002 11008 206
11002 11046 613
11003 10550 9222
11003 11025 636
11003 11043 540
11004 11000 18
11004 11009 180
11004 11011 359
11005 11006 265
11005 10981 392
11005 11007 53
11006 11005 265
11007 11005 53
11007 11014 273
11007 11019 238
11008 10989 243
11008 11002 206
11008 11031 358
11009 11004 180
11010 10981 456
11010 11014 104
11010 11032 413
11011 11001 180
11011 11004 359
11011 11012 204
11012 10982 968
11012 11011 204
11012 11027 3177
11013 10954 1064
11013 11015 34
11013 11017 78
11013 11018 54
11014 11007 273
11014 11010 104
11014 11019 114
11015 11013 34
11015 11016 240
11015 11028 269
11016 11015 240
11017 11013 78
11017 11018 40
11017 11022 179
11018 11017 40
11018 11013 54
11018 11027 221
11019 11007 238
11019 11014 114
11019 11035 325
11020 10757 11637
11021 10826 5262
11021 11116 9122
11021 11332 7285
11022 11023 337
11022 11017 179
11022 11027 33
11023 11022 337
11024 10919 1894
11024 11060 633
11024 11322 10478
11025 11026 14
11025 11003 636
11025 11033 115
11026 11025 14
11026 11335 14270
11027 11022 33
11027 11018 221
11027 11012 3177
11028 11015 269
11028 11030 61
11028 11050 208
11029 10997 587
11029 11034 43
11029 11036 43
11030 11028 61
11031 11008 358
11031 11046 84
11031 11075 587
11032 11010 413
11032 11034 28
11032 11040 56
11033 11025 115
11033 11469 10882
11034 11032 28
11034 11029 43
11034 11036 31
11035 11019 325
11035 11045 226
11035 11049 198
11036 11034 31
11036 11029 43
11036 11039 62
11036 11040 58
11037 11038 1608
11037 10935 384
11038 11037 1608
11038 11041 38
11038 11042 36
11039 11036 62
11040 11032 56
11040 11036 58
11040 11045 40
11041 11038 38
11041 11042 25
11041 11100 1919
11042 11038 36
11042 11041 25
11042 11057 911
11043 11003 540
11043 11053 146
11043 11054 159
11044 10984 2140
11044 11049 761
11044 11078 2602
11045 11035 226
11045 11040 40
11045 11047 51
11046 11031 84
11046 11002 613
11046 11135 2974
11047 11045 51
11047 11049 16
11047 11079 773
11048 10663 7314
11048 11065 282
11048 11070 510
11049 11035 198
11049 11047 16
11049 11044 761
11050 11028 208
11050 11052 162
11050 11072 527
11051 10664 7314
11051 11054 378
11051 11066 269
11052 11050 162
11053 11043 146
11053 11067 252
11053 11088 656
11054 11043 159
11054 11051 378
11054 11066 236
11055 11056 133
11056 11055 133
11057 11042 911
11057 11064 305
11057 11068 204
11058 11059 141
11059 11058 141
11060 11024 633
11060 11334 9889
11061 10901 3272
11061 11062 22
11061 11076 925
11062 11061 22
11063 10951 1590
11063 10976 1266
11063 11104 634
11064 11057 305
11065 11048 282
11065 11069 77
11065 11069 416
11066 11054 236
11066 11051 269
11066 11067 7
11066 11069 14
11067 11053 252
11067 11066 7
11067 11070 14
11067 11088 546
11068 11057 204
11069 11066 14
11069 11065 77
11069 11070 7
11069 11065 416
11070 11067 14
11070 11069 7
11070 11048 510
11070 11389 5807
11071 10972 1313
11071 11110 1254
11071 11117 2288
11072 11050 527
11073 11074 57
11074 11073 57
11075 11031 587
11075 11194 295
11076 11061 925
11076 11077 333
11076 10919 8649
11077 11076 333
11077 11081 512
11077 11091 348
11078 11044 2602
11078 11086 1541
11078 11346 8854
11079 11047 773
11079 11084 40
11079 11093 2338
11080 10971 2271
11080 11082 182
11080 11100 756
11081 11077 512
11082 11083 55
11082 11080 182
11082 11092 369
11083 11082 55
11084 11079 40
11084 11097 947
11084 11159 1870
11085 11086 35
11085 11087 28
11085 11123 1229
11086 11085 35
11086 11078 1541
11086 11087 25
11087 11085 28
11087 11086 25
11087 11204 2763
11088 11053 656
11088 11067 546
11088 11390 5276
11089 11090 2512
11089 10903 132
11090 11089 2512
11090 11118 121
11091 11077 348
11092 11082 369
11093 11079 2338
11093 11094 1796
11094 11093 1796
11094 11095 11
11094 11096 17
11095 11094 11
11095 11096 17
11095 11099 623
11096 11094 17
11096 11095 17
11096 11124 1126
11097 11084 947
11097 11103 133
11097 11105 246
11098 10940 3162
11098 11176 2758
11098 11401 8513
11099 11095 623
11099 10959 2729
11099 11139 1415
11100 11041 1919
11100 11080 756
11100 11125 381
11101 11102 786
11102 11101 786
11103 11097 133
11104 11063 634
11104 11107 95
11104 11116 98
11105 11097 246
11105 11106 159
11105 11109 13
11106 11105 159
11107 11104 95
11107 11108 222
11107 11120 108
11108 11107 222
11109 11105 13
11110 11071 1254
11110 10808 10000
11110 11173 1232
11111 11112 54
11111 11113 64
11111 11124 362
11112 11111 54
11113 11111 64
11114 11115 8036
11115 11114 8036
11115 11121 107
11115 11122 121
11116 11104 98
11116 11120 98
11116 11021 9122
11117 10972 2660
11117 11071 2288
11117 11233 4319
11117 11274 3464
11118 11119 1213
11118 11090 121
11119 11118 1213
11119 11232 3740
11119 11371 10012
11120 11116 98
11120 11107 108
11120 11121 51
11121 11120 51
11121 11115 107
11121 11132 355
11122 11115 121
11122 11132 275
11122 11184 3823
11123 11085 1229
11123 11180 4221
11123 11198 3056
11124 11096 1126
11124 11111 362
11124 11126 192
11125 11100 381
11125 11140 743
11125 11164 1751
11126 11127 97
11126 11124 192
11127 11126 97
11127 11128 115
11127 11130 119
11128 11127 115
11129 10957 3559
11130 11127 119
11131 10815 4563
11131 11133 510
11131 11136 744
11132 11121 355
11132 11122 275
11132 11284 2420
11133 11131 510
11133 11134 108
11133 11181 4325
11134 11133 108
11135 11046 2974
11135 11143 62
11135 11152 194
11136 11131 744
11137 11138 149
11137 11141 100
11137 11146 53
11138 11137 149
11138 11142 19
11138 11146 65
11139 11099 1415
11140 11141 13
11140 11125 743
11140 11156 96
11141 11140 13
11141 11137 100
11141 11151 48
11142 11138 19
11142 11147 21
11142 11150 57
11143 11135 62
11143 11168 336
11143 11180 1260
11144 11145 240
11145 11144 240
11146 11138 65
11146 11137 53
11146 11150 19
11147 11142 21
11148 11149 1202
11149 11148 1202
11149 11157 307
11149 11160 342
11150 11142 57
11150 11146 19
11150 11154 28
11151 11141 48
11152 11153 83
11152 11135 194
11152 11195 1194
11153 11152 83
11154 11150 28
11155 10995 3562
11155 11189 72
11156 11140 96
11157 11158 1121
11157 11149 307
11157 11164 478
11158 11157 1121
11159 11084 1870
11160 11149 342
11160 11177 625
11160 11247 2249
11161 11162 104
11161 11163 161
11161 11172 285
11162 11161 104
11163 11161 161
11164 11157 478
11164 11125 1751
11164 11172 168
11165 11166 48
11166 11165 48
11167 11168 91
11168 11167 91
11168 11143 336
11168 11171 38
11169 11170 51
11170 11169 51
11171 11168 38
11172 11161 285
11172 11164 168
11172 11174 596
11173 11110 1232
11173 11242 4507
11173 11387 9155
11174 11175 17
11174 11172 596
11174 11178 213
11175 11174 17
11176 11098 2758
11176 11233 1110
11176 11329 4002
11177 11160 625
11177 11183 123
11177 11187 158
11178 11174 213
11178 11179 12
11179 11178 12
11180 11123 4221
11180 11143 1260
11180 11193 1012
11181 11182 160
11181 11133 4325
11181 11203 741
11182 11181 160
11183 11177 123
11183 11187 39
11183 11215 705
11184 11122 3823
11185 11186 92
11186 11185 92
11187 11183 39
11187 11177 158
11187 11192 45
11188 10995 5034
11188 11189 625
11188 11212 337
11188 11228 483
11189 11188 625
11189 11155 72
11190 11191 19
11191 11190 19
11192 11187 45
11192 11226 602
11193 11180 1012
11194 11195 1990
11194 11075 295
11195 11194 1990
11195 11152 1194
11195 11203 164
11195 11210 238
11196 11197 53
11196 11198 170
11196 11205 872
11197 11196 53
11198 11123 3056
11198 11196 170
11198 11201 18
11199 11200 268
11200 11199 268
11201 11198 18
11201 11202 119
11201 11206 73
11202 11201 119
11203 11181 741
11203 11195 164
11203 11209 171
11204 11087 2763
11204 11205 2
11204 11211 140
11205 11204 2
11205 11196 872
11205 11227 394
11206 11201 73
11207 11208 333
11208 11207 333
11209 11203 171
11209 11210 41
11209 11244 724
11210 11209 41
11210 11195 238
11211 11204 140
11212 11188 337
11212 11228 354
11212 11290 1980
11213 11214 122
11214 11213 122
11215 11183 705
11216 11217 127
11217 11216 127
11217 11218 25
11217 11221 133
11218 11217 25
11218 11222 15
11218 11224 170
11219 11220 199
11220 11219 199
11220 11222 21
11220 11225 88
11221 11217 133
11222 11220 21
11222 11218 15
11222 11223 20
11223 11222 20
11223 11231 227
11223 11243 511
11224 11218 170
11225 11220 88
11226 11192 602
11227 11205 394
11228 11188 483
11228 11212 354
11228 11317 1457
11229 11230 34
11230 11229 34
11231 11223 227
11232 11119 3740
11232 11379 5070
11232 11240 64
11233 11176 1110
11233 11117 4319
11233 11274 581
11234 11235 31
11235 11234 31
11236 11237 22
11237 11236 22
11238 11239 28
11239 11238 28
11240 11241 105
11240 11232 64
11241 11240 105
11241 11253 396
11241 11257 674
11242 11173 4507
11242 11248 185
11242 11245 685
11243 11223 511
11243 11250 668
11243 11252 163
11244 11209 724
11245 11246 238
11245 11242 685
11245 11318 1465
11246 11245 238
11247 11160 2249
11247 11249 30
11247 11250 33
11248 11242 185
11249 11247 30
11249 11250 30
11249 11251 374
11250 11247 33
11250 11249 30
11250 11243 668
11251 11249 374
11251 11254 106
11251 11271 439
11252 11243 163
11253 11241 396
11254 11251 106
11254 11320 1281
11255 11256 2161
11256 11255 2161
11256 11266 119
11256 11311 1052
11257 11241 674
11258 11259 17
11259 11258 17
11260 11261 267
11261 11260 267
11262 11263 34
11263 11262 34
11264 11265 19
11265 11264 19
11266 11256 119
11266 11275 184
11266 11330 4135
11267 11268 52
11268 11267 52
11269 11270 5
11270 11269 5
11271 11251 439
11272 11273 167
11273 11272 167
11274 11233 581
11274 11117 3464
11274 11331 2533
11274 11340 1425
11275 11266 184
11276 11277 198
11277 11276 198
11278 11279 46
11279 11278 46
11280 11281 65
11281 11280 65
11281 11283 59
11281 11286 37
11281 11287 95
11282 11283 7
11283 11282 7
11283 11281 59
11283 11285 28
11284 11132 2420
11284 11305 3350
11284 11309 289
11285 11283 28
11286 11281 37
11287 11281 95
11287 11288 12
11287 11289 28
11287 11291 31
11288 11287 12
11289 11287 28
11290 11212 1980
11290 11296 141
11290 11306 131
11291 11287 31
11291 11292 21
11291 11294 38
11291 11297 41
11292 11291 21
11293 11294 15
11294 11293 15
11294 11291 38
11294 11295 11
11294 11299 42
11295 11294 11
11296 11290 141
11296 11301 148
11296 11304 82
11297 11291 41
11297 11298 14
11297 11299 43
11297 11302 80
11298 11297 14
11299 11294 42
11299 11297 43
11299 11300 35
11299 11302 37
11300 11299 35
11301 11296 148
11301 11310 215
11301 11328 1159
11302 11299 37
11302 11297 80
11302 11303 66
11303 11302 66
11304 11296 82
11304 11306 111
11304 11310 88
11305 11284 3350
11306 11290 131
11306 11304 111
11306 11312 90
11307 11308 43
11308 11307 43
11309 11284 289
11309 11350 1954
11310 11304 88
11310 11301 215
11310 11312 114
11311 11256 1052
11312 11306 90
11312 11310 114
11312 11313 448
11312 11328 198
11313 11312 448
11313 11327 34
11314 11315 695
11314 11316 221
11314 11318 204
11315 11314 695
11316 11314 221
11317 11228 1457
11317 11326 346
11317 11478 7799
11318 11245 1465
11318 11314 204
11318 11339 740
11319 10956 6284
11320 11254 1281
11320 11321 221
11320 11323 64
11321 11320 221
11322 11024 10478
11323 11320 64
11324 11325 2849
11325 11324 2849
11326 11317 346
11326 11327 217
11326 11328 492
11327 11326 217
11327 11313 34
11328 11312 198
11328 11301 1159
11328 11326 492
11329 11176 4002
11329 11331 504
11330 11266 4135
11331 11329 504
11331 11274 2533
11331 11378 1740
11331 11413 5963
11332 11333 1329
11332 11021 7285
11332 11365 840
11333 11332 1329
11334 11060 9889
11334 11476 15898
11335 11026 14270
11335 11363 6511
11335 11396 2195
11336 11337 1244
11336 11338 4026
11336 11341 197
11337 11336 1244
11338 11336 4026
11339 11318 740
11340 11274 1425
11340 11353 218
11340 11421 7818
11341 11336 197
11341 11342 19
11341 11356 806
11342 11341 19
11342 11343 40
11342 11533 13428
11343 11344 19
11343 11345 82
11343 11342 40
11344 11343 19
11345 11343 82
11346 11078 8854
11346 11349 32
11346 11351 67
11347 11348 68
11347 11351 5
11347 11349 438
11348 11347 68
11349 11346 32
11349 11352 286
11349 11347 438
11350 11309 1954
11350 11403 2009
11351 11347 5
11351 11346 67
11352 11349 286
11353 11340 218
11353 11382 975
11353 11397 4795
11354 11355 406
11354 11360 1435
11354 11358 567
11355 11354 406
11356 11357 349
11356 11341 806
11356 11360 767
11357 11356 349
11358 11359 175
11358 11354 567
11358 11374 2360
11359 11358 175
11360 11356 767
11360 11354 1435
11360 11375 387
11361 11362 916
11362 11361 916
11362 11392 2668
11363 11364 212
11363 11335 6511
11363 11396 4305
11364 11363 212
11364 11371 95
11364 11431 6355
11365 11332 840
11365 11376 699
11365 11380 2857
11366 11367 71
11366 11368 162
11366 11372 138
11367 11366 71
11368 11366 162
11368 11369 78
11368 11370 328
11369 11368 78
11370 11368 328
11371 11119 10012
11371 11364 95
11371 11395 3225
11372 11373 127
11372 11366 138
11372 11374 53
11373 11372 127
11374 11372 53
11374 11358 2360
11374 11409 2921
11375 11360 387
11376 11365 699
11376 11377 652
11376 11392 849
11377 11376 652
11378 11331 1740
11379 11232 5070
11379 11395 603
11380 11381 230
11380 11386 155
11380 11365 2857
11381 11380 230
11382 11353 975
11382 11383 45
11382 11420 1937
11383 11382 45
11383 11384 59
11383 11393 251
11384 11383 59
11385 11386 118
11386 11385 118
11386 11380 155
11386 11388 38
11387 11173 9155
11387 11391 3989
11387 11410 1416
11388 11386 38
11389 11070 5807
11389 11538 7589
11390 11088 5276
11390 11537 7578
11391 11387 3989
11392 11362 2668
11392 11376 849
11392 11394 130
11393 11383 251
11394 11392 130
11394 11404 1227
11394 11426 4112
11395 11379 603
11395 11371 3225
11395 11427 2658
11396 11363 4305
11396 11335 2195
11396 11402 375
11396 11444 3311
11397 11398 97
11397 11353 4795
11397 11423 3547
11398 11397 97
11399 11400 3418
11400 11399 3418
11401 11098 8513
11402 11396 375
11403 11350 2009
11403 11439 3164
11403 11484 10184
11404 11394 1227
11404 11415 1538
11404 11450 3475
11405 11406 733
11406 11405 733
11406 11419 1134
11407 11408 714
11407 11413 1384
11407 11457 5972
11408 11407 714
11409 11374 2921
11409 11414 672
11409 11416 1405
11410 11387 1416
11410 11411 89
11410 11412 2011
11411 11410 89
11412 11410 2011
11412 11421 3757
11412 11451 3475
11413 11331 5963
11413 11407 1384
11413 11429 805
11414 11409 672
11414 11418 348
11414 11422 810
11415 11404 1538
11416 11417 113
11416 11409 1405
11416 11434 1847
11417 11416 113
11418 11414 348
11419 11406 1134
11419 11438 3737
11420 11382 1937
11420 11437 1667
11421 11340 7818
11421 11412 3757
11421 11451 3028
11422 11414 810
11422 11428 787
11422 11430 1560
11423 11397 3547
11423 11424 1599
11424 11423 1599
11424 11425 276
11424 11448 2994
11425 11424 276
11426 11394 4112
11427 11395 2658
11427 11432 4170
11427 11475 4856
11428 11422 787
11429 11413 805
11430 11422 1560
11431 11364 6355
11431 11433 189
11431 11443 2176
11432 11427 4170
11433 11431 189
11434 11416 1847
11435 11436 4003
11436 11435 4003
11437 11420 1667
11437 11455 1989
11437 11461 2699
11438 11419 3737
11438 11440 632
11439 11403 3164
11439 11441 159
11439 11442 527
11440 11438 632
11440 11446 357
11440 11460 1677
11441 11439 159
11441 11460 10659
11442 11439 527
11443 11431 2176
11443 11445 92
11443 11444 579
11444 11396 3311
11444 11447 262
11444 11443 579
11445 11443 92
11446 11440 357
11447 11444 262
11447 11521 7562
11448 11424 2994
11448 11449 264
11448 11449 141
11449 11448 264
11449 11448 141
11449 11463 988
11450 11404 3475
11450 11454 5090
11450 11458 614
11451 11421 3028
11451 11412 3475
11451 11493 2709
11452 11453 72
11453 11452 72
11454 11450 5090
11455 11437 1989
11456 11457 291
11457 11456 291
11457 11407 5972
11457 11459 53
11457 11466 580
11458 11450 614
11458 11468 1305
11458 11512 12689
11459 11457 53
11460 11440 1677
11460 11441 10659
11460 11488 3261
11461 11462 10
11461 11437 2699
11461 11473 1297
11462 11461 10
11462 11479 1594
11463 11449 988
11463 11467 1024
11463 11470 1043
11464 11465 236
11465 11464 236
11466 11457 580
11467 11463 1024
11468 11458 1305
11468 11486 1645
11468 11518 5027
11469 11033 10882
11469 11568 4224
11470 11463 1043
11470 11477 468
11470 11485 2076
11471 11472 91
11472 11471 91
11472 11474 171
11473 11461 1297
11474 11472 171
11475 11427 4856
11475 11483 583
11476 11334 15898
11476 11481 6747
11476 11482 1336
11477 11470 468
11478 11317 7799
11479 11462 1594
11479 11480 506
11479 11507 3418
11480 11479 506
11481 11476 6747
11481 11500 4900
11481 11639 13746
11482 11476 1336
11482 11483 8036
11482 11715 25114
11483 11482 8036
11483 11475 583
11483 11510 1586
11484 11403 10184
11484 11487 137
11484 11512 1942
11485 11470 2076
11486 11468 1645
11487 11484 137
11487 11536 2671
11488 11460 3261
11489 11490 1146
11490 11489 1146
11491 11492 21
11492 11491 21
11493 11451 2709
11493 11511 2251
11493 11513 3715
11494 11495 30
11495 11494 30
11496 11497 30
11497 11496 30
11498 11499 583
11499 11498 583
11500 11481 4900
11501 11502 28
11502 11501 28
11503 11504 14
11504 11503 14
11505 11506 589
11506 11505 589
11507 11479 3418
11507 11517 1892
11508 11509 254
11509 11508 254
11510 11483 1586
11510 11521 4962
11510 11597 6301
11511 11493 2251
11512 11484 1942
11512 11458 12689
11512 11532 1361
11513 11514 1661
11513 11493 3715
11513 11519 3337
11514 11513 1661
11515 11516 4
11516 11515 4
11517 11507 1892
11518 11468 5027
11518 11519 883
11518 11520 93
11519 11518 883
11519 11513 3337
11519 11548 1337
11520 11518 93
11520 11528 302
11520 11636 13091
11521 11510 4962
11521 11447 7562
11521 11549 1847
11522 11523 7339
11523 11522 7339
11524 11525 3170
11524 11529 273
11524 11534 694
11525 11524 3170
11526 11527 824
11527 11526 824
11528 11520 302
11528 11548 1056
11528 11647 7052
11529 11524 273
11530 11531 1150
11531 11530 1150
11532 11512 1361
11532 11536 61
11532 11625 4070
11533 11342 13428
11533 11555 5430
11533 11621 6731
11534 11535 41
11534 11535 41
11534 11524 694
11534 11650 10772
11535 11534 41
11535 11534 41
11535 11536 1615
11536 11532 61
11536 11487 2671
11536 11535 1615
11537 11390 7578
11537 11554 21
11538 11389 7589
11538 11556 17
11539 11540 136
11540 11539 136
11540 11541 284
11540 11542 14
11540 11543 151
11541 11540 284
11542 11540 14
11543 11540 151
11544 11545 824
11545 11544 824
11545 11559 2392
11545 11618 4167
11546 11547 1752
11547 11546 1752
11548 11519 1337
11548 11528 1056
11548 11572 898
11549 11521 1847
11549 11552 232
11549 11660 9636
11550 11551 120
11551 11550 120
11551 11558 367
11552 11549 232
11552 11564 484
11552 11576 12632
11553 11554 501
11553 11563 329
11553 11576 959
11554 11553 501
11554 11537 21
11555 11533 5430
11556 11557 588
11556 11538 17
11557 11556 588
11557 11566 412
11557 11569 393
11558 11551 367
11559 11560 1116
11559 11545 2392
11559 11669 11052
11560 11559 1116
11561 11562 141
11561 11565 140
11561 11567 87
11562 11561 141
11562 11563 80
11563 11553 329
11563 11562 80
11564 11552 484
11565 11561 140
11565 11570 48
11566 11557 412
11566 11568 104
11567 11561 87
11567 11571 175
11568 11469 4224
11568 11566 104
11568 11571 94
11569 11557 393
11569 11570 74
11569 11574 470
11570 11569 74
11570 11565 48
11571 11567 175
11571 11568 94
11571 11596 3874
11572 11548 898
11572 11573 1409
11572 11599 1818
11573 11572 1409
11574 11569 470
11574 11575 83
11574 11576 13
11574 11593 1905
11575 11574 83
11576 11553 959
11576 11574 13
11576 11552 12632
11576 11642 6310
11577 11578 386
11577 11579 121
11577 11579 681
11578 11577 386
11579 11577 121
11579 11580 50
11579 11577 681
11580 11579 50
11580 11599 3499
11581 11582 2162
11582 11581 2162
11583 11584 255
11584 11583 255
11585 11586 25
11586 11585 25
11587 11588 17007
11588 11587 17007
11588 11598 1128
11588 11595 9551
11589 11590 287
11590 11589 287
11591 11592 6
11592 11591 6
11593 11574 1905
11593 11602 805
11594 11595 373
11595 11594 373
11595 11588 9551
11595 11663 5874
11596 11571 3874
11596 11600 1147
11596 11604 1527
11597 11510 6301
11597 11674 6000
11597 11708 10466
11598 11588 1128
11598 11601 712
11598 11608 311
11599 11580 3499
11599 11572 1818
11599 11613 427
11600 11596 1147
11600 11601 386
11600 11604 217
11601 11600 386
11601 11598 712
11601 11605 212
11602 11603 52
11602 11593 805
11603 11602 52
11603 11615 248
11604 11600 217
11604 11612 93
11604 11596 1527
11605 11601 212
11605 11606 7
11605 11607 14
11606 11605 7
11606 11609 9
11607 11605 14
11607 11608 672
11607 11610 17
11608 11607 672
11608 11598 311
11608 11611 1157
11608 11617 229
11609 11606 9
11609 11610 19
11609 11612 305
11610 11607 17
11610 11609 19
11610 11614 122
11611 11608 1157
11612 11604 93
11612 11609 305
11612 11619 234
11613 11599 427
11613 11635 1814
11613 11675 5105
11614 11610 122
11614 11619 346
11614 11622 227
11615 11616 41
11615 11603 248
11616 11615 41
11616 11631 207
11617 11608 229
11617 11620 623
11617 11623 191
11618 11545 4167
11619 11612 234
11619 11614 346
11619 11628 344
11620 11617 623
11621 11533 6731
11622 11614 227
11622 11624 532
11622 11628 105
11623 11617 191
11623 11624 39
11623 11627 43
11624 11622 532
11624 11623 39
11624 11626 8
11625 11532 4070
11625 11636 1918
11626 11624 8
11626 11630 28
11627 11623 43
11627 11630 38
11627 11634 876
11628 11619 344
11628 11622 105
11628 11629 4
11628 11633 227
11629 11628 4
11630 11626 28
11630 11627 38
11630 11641 1370
11631 11632 87
11631 11616 207
11632 11631 87
11632 11644 753
11633 11628 227
11634 11627 876
11635 11613 1814
11635 11637 1559
11635 11637 3523
11636 11625 1918
11636 11520 13091
11636 11640 869
11637 11635 1559
11637 11638 858
11637 11635 3523
11638 11637 858
11639 11481 13746
11639 11650 4548
11639 11673 2977
11640 11636 869
11640 11668 2211
11641 11630 1370
11641 11643 23
11641 11646 1049
11642 11576 6310
11642 11658 172
11643 11641 23
11643 11649 100
11644 11645 1983
11644 11632 753
11645 11644 1983
11645 11651 171
11646 11641 1049
11646 11732 25457
11646 11734 28443
11647 11528 7052
11647 11667 2000
11648 11649 130
11648 11653 264
11648 11654 267
11649 11648 130
11649 11643 100
11650 11534 10772
11650 11639 4548
11650 11672 2465
11651 11652 252
11651 11645 171
11652 11651 252
11652 11653 216
11652 11662 334
11653 11648 264
11653 11652 216
11653 11655 73
11654 11648 267
11654 11656 79
11654 11662 251
11655 11653 73
11655 11666 119
11656 11654 79
11656 11659 118
11657 11658 490
11657 11659 261
11657 11665 356
11658 11657 490
11658 11642 172
11659 11657 261
11659 11656 118
11660 11661 3017
11660 11549 9636
11660 11674 4382
11661 11660 3017
11662 11652 334
11662 11654 251
11662 11688 2278
11663 11595 5874
11663 11664 2637
11663 11682 2479
11664 11663 2637
11664 11669 4934
11665 11666 455
11665 11657 356
11665 11689 2061
11666 11665 455
11666 11655 119
11667 11647 2000
11667 11668 7494
11667 11684 2599
11668 11667 7494
11668 11640 2211
11668 11683 1944
11669 11664 4934
11669 11559 11052
11669 11681 5847
11670 11671 2839
11671 11670 2839
11672 11650 2465
11672 11678 938
11672 11683 7735
11673 11639 2977
11673 11692 3158
11674 11597 6000
11674 11660 4382
11674 11705 6507
11675 11613 5105
11676 11677 490
11677 11676 490
11678 11672 938
11678 11687 1725
11678 11694 2779
11679 11680 3130
11680 11679 3130
11681 11669 5847
11681 11709 9720
11682 11663 2479
11683 11672 7735
11683 11668 1944
11683 11706 3903
11684 11667 2599
11684 11685 952
11684 11686 24
11685 11684 952
11686 11684 24
11686 11693 637
11686 11696 954
11687 11678 1725
11688 11662 2278
11688 12331 1339
11689 11665 2061
11689 12332 1332
11690 11691 528
11691 11690 528
11692 11673 3158
11693 11686 637
11693 11695 74
11693 11697 125
11694 11678 2779
11695 11693 74
11695 11696 191
11695 11701 174
11696 11695 191
11696 11686 954
11697 11693 125
11697 11698 27
11697 11699 163
11698 11697 27
11698 11702 68
11698 11704 719
11699 11700 83
11699 11697 163
11699 11703 138
11700 11699 83
11701 11695 174
11702 11698 68
11703 11699 138
11704 11698 719
11705 11674 6507
11706 11683 3903
11706 11707 1447
11707 11706 1447
11708 11597 10466
11709 11681 9720
11709 11714 881
11710 11711 4
11711 11710 4
11712 11713 80
11713 11712 80
11714 11709 881
11714 11726 3865
11715 11482 25114
11716 11717 11209
11717 11716 11209
11717 11718 587
11717 11730 11959
11718 11717 587
11719 11720 4785
11720 11719 4785
11720 11721 462
11721 11722 2175
11721 11720 462
11721 11723 26
11722 11721 2175
11723 11721 26
11723 11727 2029
11723 11728 2184
11724 11725 616
11725 11724 616
11726 11714 3865
11727 11723 2029
11727 11729 840
11728 11723 2184
11729 11730 913
11729 11727 840
11729 11731 227
11730 11729 913
11730 11717 11959
11731 11729 227
11732 11646 25457
11732 11733 10772
11732 11734 6612
11733 11732 10772
11734 11732 6612
11734 11646 28443
11734 11735 3346
11735 11734 3346
11735 11736 723
11736 11735 723
11737 111 96
11738 117 14
11739 406 37
11740 407 32
11741 518 190
11742 525 199
11743 1159 523
11743 1159 552
11743 11744 331
11743 11745 106
11744 1173 4114
11744 1238 4114
11744 11743 331
11745 11743 106
11745 325 11492
11745 1175 11492
11745 11746 706
11745 11747 570
11746 1174 4105
11746 1239 4105
11746 11747 4105
11746 11745 706
11747 1174 4105
11747 1239 4105
11747 11746 4105
11747 11745 570
11748 1305 118
11748 1304 86
11748 11749 35
11748 1330 39
11749 1303 96
11749 1306 152
11749 11748 35
11749 1334 27
11750 1307 78
11750 1301 345
11750 1310 5
11750 1314 151
11751 1474 73
11752 1477 81
11753 11754 18
11754 11753 18
11755 2235 175
11755 2143 382
11756 11757 2144
11756 11766 675
11757 1957 4166
11757 2124 4166
11757 11756 2144
11758 2336 7667
11758 2430 7667
11758 11764 7667
11758 2289 290
11759 2457 14317
11759 2518 14317
11759 11763 14317
11759 2325 239
11760 2463 559
11760 11761 1134
11761 2398 447
11761 11760 1134
11762 2400 347
11762 2383 1124
11763 2457 14317
11763 2518 14317
11763 11759 14317
11763 2385 341
11764 2336 7667
11764 2430 7667
11764 11758 7667
11764 2412 219
11765 11766 2228
11765 11770 1932
11766 11765 2228
11766 11756 675
11767 11768 707
11767 2442 1945
11768 11767 707
11768 2646 449
11769 11770 714
11769 2649 440
11770 11769 714
11770 11765 1932
11771 2577 451
11771 11772 40
11771 2614 87
11771 11775 679
11772 2597 26
11772 11771 40
11772 11773 11
11772 2612 48
11773 2598 27
11773 11772 11
11773 2617 37
11773 11774 218
11774 11773 218
11774 2616 263
11774 11779 4013
11775 2582 352
11775 11771 679
11775 2763 4319
11775 2783 4319
11776 2647 998
11776 11777 373
11776 11786 813
11777 11776 373
11777 11780 512
11777 11781 503
11778 2648 1350
11778 11783 376
11778 11801 867
11779 11774 4013
11779 2785 381
11779 11797 829
11779 11797 829
11780 2782 1120
11780 2783 1120
11780 11777 512
11781 11777 503
11781 11782 52
11781 11787 114
11781 11794 182
11782 2784 553
11782 2785 553
11782 11781 52
11783 11778 376
11783 11788 96
11783 11789 98
11784 2781 131
11784 2761 605
11784 2764 605
11785 11786 28
11785 11787 40
11786 11776 813
11786 11785 28
11786 11788 18
11786 11790 39
11787 11785 40
11787 11781 114
11787 11790 26
11787 11794 125
11788 11783 96
11788 11786 18
11788 11789 9
11788 11791 39
11789 11783 98
11789 11788 9
11789 11792 39
11789 11793 57
11790 11786 39
11790 11787 26
11790 11791 18
11790 11795 130
11791 11788 39
11791 11790 18
11791 11792 13
11791 11796 134
11792 11789 39
11792 11791 13
11793 2762 126
11793 2779 126
11793 11789 57
11794 11787 125
11794 11781 182
11794 11795 22
11794 11798 134
11795 11790 130
11795 11794 22
11795 11796 20
11795 11802 441
11796 11791 134
11796 11795 20
11796 11799 209
11796 11804 680
11797 11779 829
11797 11779 829
11797 11798 18
11797 11800 94
11798 11794 134
11798 11797 18
11798 11800 75
11799 11796 209
11799 11803 436
11799 2802 726
11799 11804 726
11800 11798 75
11800 11797 94
11800 11802 245
11800 11802 245
11801 2782 4660
11801 3066 4660
11801 2782 4660
11801 3066 4660
11801 11778 867
11802 11795 441
11802 11800 245
11802 11800 245
11802 2866 431
11803 2784 4658
11803 3067 4658
11803 11799 436
11804 2802 726
11804 11799 726
11804 11796 680
11804 2871 167
11805 2804 1193
11805 2833 531
11805 3029 769
11806 11807 206
11806 2934 997
11807 11806 206
11807 11808 485
11807 11809 24
11807 11812 525
11808 2813 3793
11808 2994 3793
11808 11807 485
11809 11810 202
11809 11807 24
11809 11811 440
11809 11813 638
11810 11809 202
11810 2932 1029
11811 11809 440
11811 3015 171
11811 11813 230
11812 11807 525
11812 3012 313
11812 11814 1367
11813 11811 230
11813 11809 638
11813 11815 1244
11814 11812 1367
11814 11816 419
11814 11821 837
11815 11813 1244
11815 11817 418
11815 11820 832
11816 3210 607
11816 3218 607
11816 11817 607
11816 11814 419
11816 11821 425
11817 3210 607
11817 3218 607
11817 11816 607
11817 11815 418
11817 11820 413
11818 3209 370
11818 3188 404
11818 11823 1353
11819 3186 622
11819 3190 442
11819 11822 1141
11820 11817 413
11820 11815 832
11820 11847 1099
11821 11814 837
11821 11816 425
11821 11849 1169
11822 11819 1141
11822 3382 277
11823 11818 1353
11823 3328 274
11824 11825 137
11824 11829 283
11824 11838 400
11825 3255 1365
11825 3362 1365
11825 11824 137
11826 3254 1436
11826 3365 1436
11826 11827 562
11827 11826 562
11827 11828 481
11827 11830 173
11828 3305 601
11828 3342 601
11828 11831 601
11828 11827 481
11829 11824 283
11829 11832 274
11829 11834 59
11829 11837 182
11830 11827 173
11830 11831 27
11830 11832 79
11830 11841 460
11831 3305 601
11831 3342 601
11831 11828 601
11831 11830 27
11832 11829 274
11832 11830 79
11832 11833 61
11832 11835 33
11833 11832 61
11833 11834 166
11834 11829 59
11834 11833 166
11834 11839 148
11834 11842 216
11835 11832 33
11835 3342 33
11835 11836 11
11835 11839 240
11836 11835 11
11836 3346 35
11836 3372 16
11836 11840 239
11837 11829 182
11837 11838 12
11838 11824 400
11838 11837 12
11838 3403 219
11839 11834 148
11839 11835 240
11839 11840 9
11839 11842 87
11840 11839 9
11840 11836 239
11840 11841 47
11840 11843 85
11841 11840 47
11841 11830 460
11841 11844 94
11841 11846 539
11842 11834 216
11842 11839 87
11842 11843 9
11842 3404 208
11843 11842 9
11843 11840 85
11843 11844 6
11843 11845 21
11844 11843 6
11844 11841 94
11844 11845 22
11844 11848 155
11845 11843 21
11845 11844 22
11845 3407 186
11846 3318 354
11846 3347 354
11846 11841 539
11847 11820 1099
11847 11853 135
11847 11856 200
11848 11844 155
11848 3387 238
11848 3409 397
11849 11821 1169
11849 11855 109
11850 3206 1812
11850 11854 287
11850 11861 282
11851 3144 1332
11851 3206 1332
11851 11852 1838
11852 11851 1838
11852 11863 277
11852 11863 307
11853 11847 135
11854 3352 1033
11854 3436 1033
11854 11850 287
11855 11849 109
11855 11858 42
11855 11866 467
11856 11847 200
11856 11860 50
11856 11864 423
11857 3395 122
11857 3398 229
11857 3422 130
11857 11859 42
11858 11855 42
11859 11857 42
11859 3405 269
11859 3417 97
11859 3419 185
11860 11856 50
11861 11862 466
11861 11850 282
11861 11863 18
11861 3444 162
11862 3352 941
11862 3444 941
11862 11861 466
11863 11861 18
11863 11852 277
11863 11852 307
11863 3436 294
11863 3471 294
11864 11865 46
11864 11856 423
11864 11876 600
11865 11864 46
11866 11855 467
11866 11867 121
11866 11877 772
11867 11866 121
11868 11869 43
11868 11870 7
11869 3488 1441
11869 3506 1441
11869 11871 1441
11869 11868 43
11870 11868 7
11870 11871 53
11870 11872 24
11871 3488 1441
11871 3506 1441
11871 11869 1441
11871 11870 53
11872 11870 24
11872 11873 41
11872 3487 4045
11872 3516 4045
11872 11878 4045
11872 3507 1636
11872 3613 1636
11872 11881 1636
11873 11872 41
11873 11874 50
11873 11875 52
11874 3491 1329
11874 3517 1329
11874 11875 1329
11874 11873 50
11875 3491 1329
11875 3517 1329
11875 11874 1329
11875 11873 52
11876 11864 600
11876 11878 875
11876 11879 457
11877 11866 772
11877 11880 270
11877 11883 583
11878 3487 4045
11878 3516 4045
11878 11872 4045
11878 11876 875
11878 11879 628
11879 11878 628
11879 11876 457
11879 11880 56
11879 11882 460
11880 11879 56
11880 11877 270
11880 11883 421
11880 11884 682
11881 3507 1636
11881 3613 1636
11881 11872 1636
11881 11888 300
11882 3557 2211
11882 3660 2211
11882 11884 2211
11882 11879 460
11883 11880 421
11883 11877 583
11883 11887 249
11884 3557 2211
11884 3660 2211
11884 11882 2211
11884 11880 682
11885 11886 65
11885 11886 68
11885 11887 28
11886 3616 366
11886 3646 366
11886 11885 65
11886 11885 68
11887 11883 249
11887 11885 28
11887 11889 47
11887 3672 2631
11887 11931 2631
11888 11881 300
11888 11892 151
11889 11887 47
11889 11890 66
11889 11891 65
11890 11889 66
11891 11889 65
11892 11888 151
11892 11894 387
11892 11895 333
11893 3669 5
11893 11901 251
11893 11910 409
11894 3664 216
11894 11892 387
11894 11895 84
11895 11894 84
11895 11892 333
11895 11896 17
11895 11900 96
11896 11895 17
11896 3651 484
11896 11899 65
11896 11909 192
11897 3438 2330
11897 11907 68
11897 3755 455
11898 3442 2327
11898 11908 113
11898 11924 685
11899 11896 65
11899 11902 32
11899 11903 31
11900 3666 261
11900 11895 96
11900 11901 16
11900 11902 18
11901 11893 251
11901 11900 16
11901 11904 18
11901 11910 313
11902 11900 18
11902 11899 32
11902 11903 4
11902 11904 16
11903 11902 4
11903 11899 31
11903 11905 15
11903 11909 166
11904 11901 18
11904 11902 16
11904 11905 5
11904 11912 413
11905 11904 5
11905 11903 15
11905 11906 20
11905 11906 500
11906 11905 20
11906 11911 152
11906 11905 500
11907 11897 68
11907 11914 343
11907 11915 369
11908 11898 113
11908 11913 287
11908 11918 544
11909 11903 166
11909 11896 192
11909 11911 15
11909 3763 1320
11909 11929 1320
11910 11893 409
11910 11901 313
11910 3752 145
11911 11906 152
11911 11909 15
11911 11912 519
11911 3768 1310
11911 11930 1310
11912 11904 413
11912 3747 50
11912 11911 519
11913 11908 287
11913 11914 12
11913 11916 53
11913 11918 327
11914 11907 343
11914 11913 12
11914 11915 74
11914 11917 57
11915 11907 369
11915 11914 74
11915 3764 25
11915 3805 322
11916 11913 53
11916 11917 11
11916 11922 162
11916 11923 298
11917 11914 57
11917 11916 11
11917 3805 370
11917 11920 149
11918 11913 327
11918 11908 544
11918 11923 24
11918 11924 16
11919 3800 111
11919 3790 108
11920 3789 143
11920 11917 149
11920 11922 14
11920 3858 111
11921 3802 99
11921 3797 122
11922 11920 14
11922 11916 162
11922 11926 45
11922 3852 86
11923 11916 298
11923 11918 24
11923 11925 11
11923 11926 45
11924 11918 16
11924 11898 685
11924 11925 19
11924 3854 146
11925 11923 11
11925 11924 19
11925 3803 71
11925 3854 141
11926 11922 45
11926 11923 45
11927 3804 290
11927 11939 1655
11928 3693 1688
11928 11932 138
11928 11934 369
11929 3763 1320
11929 11909 1320
11929 11960 1319
11930 3768 1310
11930 11911 1310
11930 3933 1321
11930 11961 1321
11931 3672 2631
11931 11887 2631
11931 11933 175
11931 11935 223
11932 11928 138
11932 11936 195
11932 11937 241
11933 11931 175
11933 11938 379
11933 11943 300
11934 11928 369
11934 11935 19
11934 11936 144
11934 11947 228
11935 11934 19
11935 11931 223
11935 11944 251
11935 11946 220
11936 11932 195
11936 11934 144
11936 11937 67
11936 11948 422
11937 11932 241
11937 11936 67
11937 11950 249
11938 3343 7040
11938 3951 7040
11938 11949 7040
11938 11950 7040
11938 11933 379
11939 4107 695
11939 11927 1655
11940 3345 7051
11940 3957 7051
11940 11953 7051
11940 11941 152
11941 11940 152
11941 11943 119
11941 11956 178
11942 4115 668
11942 3830 1567
11943 11933 300
11943 11941 119
11943 11944 9
11943 11945 16
11944 11935 251
11944 11943 9
11944 11945 17
11944 11946 59
11945 11944 17
11945 11943 16
11945 11951 73
11945 11956 115
11946 11935 220
11946 11944 59
11946 11947 19
11946 11951 69
11947 11934 228
11947 11946 19
11947 11948 23
11947 11954 75
11948 11949 553
11948 11947 23
11948 11936 422
11948 11955 79
11949 3343 7040
11949 3951 7040
11949 11938 7040
11949 11950 7040
11949 11948 553
11950 3343 7040
11950 3951 7040
11950 11938 7040
11950 11949 7040
11950 11937 249
11951 11946 69
11951 11945 73
11951 11954 16
11951 11958 247
11952 11953 182
11952 11955 165
11952 11957 260
11953 3345 7051
11953 3957 7051
11953 11940 7051
11953 11952 182
11954 11947 75
11954 11951 16
11954 11955 23
11954 11959 373
11955 11948 79
11955 11954 23
11955 11952 165
11955 11957 122
11956 11945 115
11956 11941 178
11956 11958 178
11957 11952 260
11957 11955 122
11957 11959 255
11958 11951 247
11958 11956 178
11958 11964 661
11959 11957 255
11959 11954 373
11959 11965 536
11960 11929 1319
11960 11963 321
11960 11966 246
11961 3933 1321
11961 11930 1321
11961 11962 42
11962 11961 42
11962 11969 200
11962 11970 209
11963 4081 148
11963 11960 321
11963 11966 105
11964 11958 661
11964 11995 638
11965 11959 536
11965 11994 629
11966 11960 246
11966 11963 105
11966 11967 68
11966 11969 135
11967 11966 68
11967 4085 251
11967 11968 10
11967 11991 480
11968 11967 10
11968 11971 217
11968 11972 232
11969 11962 200
11969 11966 135
11969 11970 48
11969 11971 85
11970 11962 209
11970 11969 48
11970 4166 393
11970 11971 83
11971 11970 83
11971 11969 85
11971 11968 217
11971 11972 14
11972 4171 447
11972 11971 14
11972 11968 232
11972 11990 286
11973 4008 1489
11973 11974 669
11973 11978 160
11974 3872 3058
11974 4428 3058
11974 11973 669
11975 4012 1468
11975 11983 169
11975 11992 237
11976 4106 384
11976 4480 1031
11977 4116 380
11977 4462 1071
11978 11973 160
11978 11979 23
11978 11983 14
11978 11985 86
11979 3886 2867
11979 4400 2867
11979 11980 2867
11979 11992 2867
11979 11978 23
11980 3886 2867
11980 4400 2867
11980 11979 2867
11980 11992 2867
11980 11981 216
11981 11980 216
11981 11982 274
11981 11984 22
11982 4132 1183
11982 4443 1183
11982 11986 1183
11982 11996 1183
11982 12003 1183
11982 11981 274
11983 11975 169
11983 11978 14
11983 11987 104
11983 11999 275
11984 11981 22
11984 11988 107
11984 4370 247
11985 11978 86
11985 11986 338
11985 11988 101
11986 4132 1183
11986 4443 1183
11986 11982 1183
11986 11996 1183
11986 12003 1183
11986 11985 338
11987 11983 104
11987 11989 82
11987 11996 303
11988 11985 101
11988 11984 107
11988 11989 12
11988 4370 247
11989 11987 82
11989 11988 12
11989 11998 106
11989 4368 248
11990 4081 1129
11990 4404 1129
11990 11972 286
11991 4085 1121
11991 4409 1121
11991 11967 480
11992 3886 2867
11992 4400 2867
11992 11979 2867
11992 11980 2867
11992 11975 237
11993 4237 204
11993 11997 56
11993 12014 538
11994 11965 629
11994 12006 175
11994 12026 469
11995 11964 638
11995 12001 157
11995 12002 157
11995 12004 163
11996 4132 1183
11996 4443 1183
11996 11982 1183
11996 11986 1183
11996 12003 1183
11996 11987 303
11997 11993 56
11997 12007 511
11997 12008 359
11998 11989 106
11998 11999 46
11998 12000 8
11998 4368 259
11999 11983 275
11999 11998 46
11999 12003 254
12000 4367 1032
12000 4452 1032
12000 11998 8
12001 11995 157
12001 12002 20
12001 12005 279
12001 12005 274
12002 11995 157
12002 12001 20
12002 12004 18
12002 12007 153
12003 4132 1183
12003 4443 1183
12003 11982 1183
12003 11986 1183
12003 11996 1183
12003 11999 254
12004 11995 163
12004 12002 18
12004 12006 11
12004 12017 250
12005 12001 279
12005 4240 577
12005 12001 274
12006 11994 175
12006 12004 11
12006 12016 213
12006 12016 211
12007 12002 153
12007 11997 511
12007 12008 177
12007 12017 195
12008 11997 359
12008 12009 186
12008 12007 177
12008 12010 26
12009 12008 186
12009 12010 199
12009 12014 469
12010 12008 26
12010 12009 199
12010 12012 45
12010 12018 302
12011 4385 77
12011 12035 257
12011 12037 260
12012 12010 45
12012 12013 293
12012 12015 24
12012 12030 296
12013 12012 293
12013 12015 306
12013 12027 735
12014 12009 469
12014 11993 538
12014 12021 372
12015 12012 24
12015 12013 306
12015 12028 222
12015 12028 225
12016 12006 213
12016 12006 211
12016 12026 82
12017 12004 250
12017 12007 195
12017 12018 16
12018 12017 16
12018 12010 302
12018 12025 50
12018 12031 64
12019 12020 384
12019 12023 32
12019 12024 38
12020 4117 1310
12020 4481 1310
12020 12019 384
12021 12014 372
12021 12048 213
12022 4384 276
12022 12023 130
12022 12023 99
12022 12033 73
12023 12022 130
12023 12019 32
12023 12024 10
12023 12022 99
12024 12023 10
12024 12019 38
12024 12033 91
12024 12038 106
12025 12018 50
12025 12029 20
12026 11994 469
12026 12016 82
12026 12029 20
12026 12041 152
12027 12013 735
12027 12049 250
12028 12015 222
12028 12015 225
12028 12032 62
12029 12026 20
12029 12025 20
12029 12031 21
12029 12041 154
12030 12012 296
12030 12032 4
12031 12029 21
12031 12018 64
12031 12032 22
12031 12036 63
12032 12030 4
12032 12028 62
12032 12031 22
12032 12036 76
12033 12022 73
12033 12024 91
12033 12034 25
12033 12038 50
12034 4384 337
12034 12033 25
12034 12035 9
12034 12039 61
12035 12011 257
12035 12034 9
12035 12037 25
12035 12040 65
12036 12031 63
12036 12032 76
12036 12044 101
12037 12011 260
12037 12035 25
12037 12043 74
12037 12050 528
12038 12033 50
12038 12024 106
12038 12039 27
12038 12046 203
12039 12034 61
12039 12038 27
12039 12040 9
12039 4560 786
12039 12055 786
12040 12035 65
12040 12039 9
12040 12043 29
12040 12050 357
12041 12026 152
12041 12029 154
12041 12042 7
12042 12041 7
12042 12052 334
12043 12037 74
12043 12040 29
12043 12045 81
12043 12047 402
12044 12036 101
12044 12053 339
12045 4481 174
12045 4524 174
12045 12043 81
12046 4362 786
12046 4560 786
12046 12038 203
12047 4484 174
12047 4529 174
12047 12043 402
12048 4554 1085
12048 12021 213
12049 4559 1079
12049 12027 250
12050 12037 528
12050 12040 357
12050 12056 426
12051 12052 134
12051 12078 744
12052 12051 134
12052 12042 334
12053 12054 132
12053 12044 339
12054 12053 132
12054 12069 749
12055 4560 786
12055 12039 786
12055 4745 975
12055 12071 975
12056 12050 426
12056 12072 973
12057 4631 197
12057 12061 77
12057 12059 360
12058 4634 219
12058 12061 55
12058 12064 421
12059 4616 351
12059 12062 60
12059 12057 360
12060 4622 358
12060 12062 52
12060 12065 500
12061 12057 77
12061 12058 55
12061 12062 247
12061 12063 318
12062 12060 52
12062 12059 60
12062 12061 247
12062 12063 359
12063 12062 359
12063 12061 318
12063 12064 70
12063 12065 93
12064 12063 70
12064 12058 421
12064 12066 175
12064 12067 191
12065 12060 500
12065 12063 93
12065 12068 162
12066 4732 474
12066 4843 474
12066 12064 175
12067 12064 191
12067 4866 940
12067 12097 940
12068 12065 162
12068 4870 944
12068 12098 944
12069 12070 597
12069 12054 749
12070 12069 597
12070 12079 335
12070 12083 514
12071 4745 975
12071 12055 975
12071 12073 193
12072 12056 973
12072 12076 247
12073 12071 193
12073 12082 554
12073 12092 386
12074 4741 1190
12074 4909 1190
12074 4997 107
12075 4909 820
12075 5058 820
12075 5001 108
12076 12072 247
12076 12093 494
12076 12095 399
12077 12078 934
12077 12080 53
12078 12077 934
12078 12051 744
12079 12070 335
12079 12104 519
12080 12077 53
12080 12092 650
12080 12103 473
12081 4917 227
12081 12084 440
12081 12085 100
12082 4773 779
12082 5027 779
12082 12073 554
12083 12070 514
12083 12105 333
12083 12107 396
12084 12081 440
12084 5054 431
12084 12085 10
12085 12081 100
12085 12084 10
12085 12086 16
12085 12089 12
12086 4915 330
12086 12085 16
12086 12087 329
12086 12090 11
12087 4918 527
12087 12086 329
12087 5069 899
12088 5077 433
12088 12089 9
12088 12094 483
12089 12085 12
12089 12088 9
12089 12090 16
12089 12094 98
12090 12086 11
12090 12089 16
12090 12091 328
12090 5489 641
12091 12090 328
12091 5086 899
12091 5489 725
12092 12073 386
12092 12080 650
12092 12103 397
12093 5078 815
12093 5210 815
12093 12076 494
12094 12089 98
12094 12088 483
12094 5388 545
12094 5400 545
12094 6021 545
12095 12076 399
12095 12106 276
12096 5153 5
12097 4866 940
12097 12067 940
12097 12101 415
12097 5561 374
12098 4870 944
12098 12068 944
12098 12110 359
12098 5533 369
12099 4992 402
12099 12102 25
12100 4993 401
12100 5732 918
12101 5129 2509
12101 5256 2509
12101 12097 415
12102 12099 25
12102 5559 434
12102 12117 441
12103 12092 397
12103 12080 473
12103 12104 16
12103 12113 220
12104 12103 16
12104 12079 519
12104 12105 67
12104 12111 196
12105 12104 67
12105 12083 333
12105 12107 94
12105 12108 66
12106 12095 276
12106 12109 109
12106 12113 219
12107 12105 94
12107 12083 396
12107 12115 216
12107 12119 394
12108 12105 66
12108 12111 159
12108 12112 175
12108 12118 408
12109 12106 109
12109 12116 205
12109 12129 419
12110 5293 1751
12110 5745 1751
12110 12098 359
12111 12104 196
12111 12108 159
12111 12112 19
12112 12111 19
12112 12108 175
12112 12113 18
12112 12118 236
12113 12103 220
12113 12112 18
12113 12106 219
12113 12114 26
12114 12113 26
12114 12116 104
12114 12121 226
12115 12107 216
12115 12124 207
12115 12133 470
12116 12109 205
12116 12114 104
12116 12126 164
12116 12129 238
12117 12102 441
12117 12130 173
12118 12112 236
12118 12108 408
12118 12119 11
12118 12122 24
12119 12118 11
12119 12107 394
12119 12120 3
12119 12123 24
12120 12119 3
12120 12124 25
12121 12114 226
12121 12122 1
12122 12121 1
12122 12118 24
12122 12123 11
12122 12126 56
12123 12122 11
12123 12119 24
12123 12125 26
12123 12127 59
12124 12120 25
12124 12115 207
12124 12125 22
12124 12133 291
12125 12123 26
12125 12124 22
12125 12128 64
12125 12135 558
12126 12116 164
12126 12122 56
12126 12127 12
12126 5615 302
12127 12126 12
12127 12123 59
12127 12128 25
12127 12131 155
12128 12127 25
12128 12125 64
12128 12131 142
12128 12132 222
12129 12109 419
12129 12116 238
12129 5615 174
12130 12117 173
12130 5730 280
12131 12127 155
12131 12128 142
12131 5750 96
12132 5750 333
12132 12128 222
12132 12135 317
12133 12124 291
12133 12115 470
12133 12198 3064
12134 6402 4
12135 12132 317
12135 12125 558
12135 12199 2781
12136 6473 303
12136 6336 220
12136 12138 37
12136 12139 12
12137 6488 18
12137 12138 5
12137 12140 165
12137 12141 77
12138 12136 37
12138 12137 5
12138 12142 20
12139 6483 312
12139 12136 12
12139 12142 13
12140 12137 165
12140 12141 87
12140 6617 31
12141 12140 87
12141 12137 77
12142 12139 13
12142 12138 20
12142 12143 45
12142 12149 268
12143 12142 45
12143 6624 40
12143 12148 263
12144 6520 309
12144 6544 309
12144 6566 50
12145 6320 1596
12145 12146 516
12145 12147 13
12145 12168 248
12146 6017 4478
12146 8003 4478
12146 12196 4478
12146 12145 516
12147 12145 13
12147 6628 84
12147 6542 567
12147 6627 567
12147 12168 236
12148 6508 288
12148 6649 288
12148 12143 263
12149 6507 378
12149 6711 378
12149 12142 268
12150 6398 363
12150 12151 8
12150 12152 58
12150 12153 8
12151 12150 8
12151 6397 365
12151 12154 8
12151 12156 43
12152 12150 58
12152 12155 14
12152 12158 15
12153 12150 8
12153 12154 8
12153 12157 46
12153 12163 23
12154 12153 8
12154 12151 8
12154 12159 47
12154 12162 23
12155 6422 382
12155 12152 14
12155 6723 114
12156 12151 43
12156 6397 384
12156 12160 24
12157 12153 46
12157 12158 21
12157 12163 117
12158 12152 15
12158 12157 21
12158 6728 115
12158 12165 49
12159 12154 47
12159 12161 22
12159 12162 115
12160 12156 24
12160 12161 6
12160 6651 207
12161 12159 22
12161 12160 6
12161 12164 197
12161 12166 44
12162 12154 23
12162 12159 115
12162 6864 228
12163 12153 23
12163 12157 117
12163 6896 227
12164 6652 180
12164 6661 180
12164 12161 197
12165 12158 49
12165 6733 114
12165 6895 215
12166 12161 44
12166 6661 140
12166 6866 220
12167 6627 105
12167 12168 189
12167 12197 521
12168 12145 248
12168 12147 236
12168 12167 189
12168 12196 383
12169 6678 130
12169 12171 12
12169 12175 28
12169 12179 47
12170 6677 131
12170 12171 12
12170 12174 25
12170 12180 44
12171 12169 12
12171 12170 12
12171 12172 15
12171 12173 14
12172 12171 15
12172 12173 12
12172 12175 6
12172 12178 9
12173 12172 12
12173 12171 14
12173 12174 4
12173 12177 6
12174 12173 4
12174 12170 25
12174 12177 5
12174 12180 27
12175 12169 28
12175 12172 6
12175 12178 5
12175 12179 23
12176 6811 174
12176 6830 174
12176 6822 118
12176 12180 164
12177 12173 6
12177 12174 5
12177 12183 16
12177 12187 15
12178 12175 5
12178 12172 9
12178 12182 14
12178 12186 13
12179 12169 47
12179 12175 23
12179 6826 130
12179 12182 10
12180 12174 27
12180 12170 44
12180 12176 164
12180 12183 12
12181 6829 41
12181 6830 76
12182 12179 10
12182 12178 14
12182 12184 13
12182 12186 13
12183 12177 16
12183 12180 12
12183 12185 14
12183 12187 17
12184 6832 127
12184 12182 13
12184 12189 25
12184 12194 45
12185 12183 14
12185 6830 164
12185 12188 30
12185 12193 53
12186 12182 13
12186 12178 13
12186 12189 6
12186 12190 9
12187 12177 15
12187 12183 17
12187 12188 5
12187 12191 10
12188 12187 5
12188 12185 30
12188 12191 7
12188 12193 30
12189 12184 25
12189 12186 6
12189 12190 5
12189 12194 28
12190 12189 5
12190 12186 9
12190 12191 9
12190 12192 13
12191 12187 10
12191 12188 7
12191 12190 9
12191 12192 14
12192 12190 13
12192 12191 14
12192 12193 14
12192 12194 16
12193 12192 14
12193 12188 30
12193 12185 53
12193 6921 133
12194 12184 45
12194 12189 28
12194 12192 16
12194 12195 13
12195 12194 13
12195 6916 119
12196 6017 4478
12196 8003 4478
12196 12146 4478
12196 12168 383
12197 6246 4039
12197 8001 4039
12197 12167 521
12198 12133 3064
12198 12215 406
12198 12217 427
12199 12135 2781
12199 12202 38
12200 12201 12
12200 12203 25
12200 12205 26
12201 7305 76
12201 7306 76
12201 12200 12
12202 12199 38
12202 12216 372
12202 12221 667
12203 12200 25
12203 12204 11
12203 12207 22
12204 7320 41
12204 7321 41
12204 12203 11
12205 12200 26
12205 12206 15
12205 12207 27
12206 7341 43
12206 7342 43
12206 12205 15
12207 12203 22
12207 12205 27
12207 12208 11
12208 7348 48
12208 7349 48
12208 12207 11
12209 7284 343
12209 7285 343
12209 12210 343
12209 7486 133
12210 7284 343
12210 7285 343
12210 12209 343
12210 7489 133
12211 7398 17
12211 12220 617
12211 7445 586
12211 12223 586
12211 7871 450
12212 12213 3
12212 12214 68
12213 12212 3
12214 12212 68
12215 12198 406
12215 12216 15
12215 12217 76
12215 12228 220
12216 12202 372
12216 12215 15
12216 12221 350
12216 12227 214
12217 12215 76
12217 12198 427
12217 12218 72
12217 12231 571
12218 12217 72
12218 12228 242
12219 7467 460
12219 12220 235
12219 12226 165
12220 12219 235
12220 12211 617
12220 7875 100
12221 12202 667
12221 12222 16
12221 12222 16
12221 12216 350
12222 12221 16
12222 12221 16
12222 7524 656
12223 7445 586
12223 12211 586
12223 7459 554
12223 12225 77
12224 7528 656
12224 12227 356
12224 7894 607
12225 12223 77
12225 12232 633
12226 12219 165
12226 12233 625
12227 12224 356
12227 12216 214
12227 12228 14
12227 12230 196
12228 12227 14
12228 12215 220
12228 12218 242
12228 12229 193
12229 12228 193
12229 12231 89
12230 12227 196
12230 7893 387
12231 12229 89
12231 12217 571
12231 8162 298
12232 12225 633
12233 12226 625
12234 7815 166
12234 7832 166
12234 12235 37
12235 7792 298
12235 7810 298
12235 12234 37
12236 8046 17
12236 8052 3
12236 12237 15
12237 8046 14
12237 12236 15
12237 8059 12
12238 8059 19
12239 8172 672
12240 8182 658
12241 8003 703
12241 12248 437
12241 12250 465
12242 12243 864
12242 12244 28
12242 8295 1100
12242 12252 585
12243 6706 4697
12243 8116 4697
12243 12242 864
12244 12245 417
12244 12242 28
12244 12254 591
12244 12254 577
12245 8119 1602
12245 8302 1602
12245 12253 1602
12245 12244 417
12246 8218 300
12246 12256 413
12246 12257 429
12247 8309 545
12248 8326 92
12248 8340 92
12248 12241 437
12249 8276 418
12249 12282 278
12250 12241 465
12250 12259 245
12250 12261 360
12251 8279 413
12251 12283 282
12252 12242 585
12252 12253 855
12252 8486 10099
12252 12262 10099
12253 8119 1602
12253 8302 1602
12253 12245 1602
12253 12252 855
12254 12244 591
12254 12244 577
12254 8484 10221
12254 8728 10221
12254 12267 10221
12255 8345 80
12255 8347 80
12255 12260 80
12255 12256 190
12256 12255 190
12256 12246 413
12256 12258 36
12256 12271 398
12257 12246 429
12257 12258 15
12258 12257 15
12258 12256 36
12258 12261 89
12258 12271 374
12259 12260 171
12259 12250 245
12259 8477 44
12259 12263 479
12260 8345 80
12260 8347 80
12260 12255 80
12260 12259 171
12261 12250 360
12261 12258 89
12261 12264 76
12261 12270 139
12262 12263 69
12262 8486 10099
12262 12252 10099
12263 12262 69
12263 12259 479
12263 12265 499
12264 8477 129
12264 12261 76
12264 12265 46
12264 12268 52
12265 12263 499
12265 12264 46
12265 12268 79
12265 12269 33
12266 12267 319
12266 12269 85
12267 12266 319
12267 12269 416
12267 8484 10221
12267 8728 10221
12267 12254 10221
12268 12265 79
12268 12264 52
12268 12270 86
12268 12272 35
12269 12266 85
12269 12265 33
12269 12272 135
12269 12267 416
12270 12268 86
12270 12261 139
12270 12273 26
12270 12276 700
12271 12258 374
12271 12256 398
12271 12276 474
12272 12269 135
12272 12268 35
12272 12273 76
12272 12275 464
12273 12272 76
12273 12270 26
12273 12274 525
12273 12275 382
12274 12273 525
12274 12275 156
12274 12278 1681
12275 12274 156
12275 12273 382
12275 12272 464
12276 12270 700
12276 12271 474
12276 12277 1111
12277 12276 1111
12277 12285 726
12277 12285 735
12278 12274 1681
12278 12289 332
12278 8633 599
12279 8505 399
12279 12286 110
12279 12296 238
12280 8506 410
12280 12287 108
12280 12297 227
12281 12282 1829
12281 12291 243
12282 12281 1829
12282 12249 278
12283 12284 1826
12283 12251 282
12284 12283 1826
12284 12293 248
12285 12277 726
12285 12277 735
12285 12288 63
12285 12289 32
12286 12279 110
12286 12290 333
12286 12295 145
12287 12280 108
12287 12299 172
12287 12303 544
12288 12285 63
12288 8635 156
12288 8578 223
12289 12278 332
12289 12285 32
12289 8582 264
12289 8629 275
12290 12286 333
12290 12291 430
12290 12295 249
12291 12290 430
12291 12281 243
12292 8581 132
12292 8625 131
12292 12314 1183
12293 12294 458
12293 12284 248
12294 12293 458
12294 12298 227
12294 12311 387
12295 12286 145
12295 12290 249
12295 12296 113
12295 12298 16
12296 12279 238
12296 12295 113
12296 12297 9
12296 12300 14
12297 12280 227
12297 12296 9
12297 12299 131
12297 12301 14
12298 12295 16
12298 12294 227
12298 12300 114
12298 12307 191
12299 12287 172
12299 12297 131
12299 12302 14
12299 12303 408
12300 12296 14
12300 12298 114
12300 12301 9
12300 12307 118
12301 12297 14
12301 12300 9
12301 12302 131
12301 12308 117
12302 12299 14
12302 12301 131
12302 12304 305
12302 12305 41
12303 12287 544
12303 12299 408
12303 12313 1190
12304 12302 305
12304 12305 322
12304 12314 1297
12305 12304 322
12305 12302 41
12305 12308 139
12305 8605 152
12305 12312 152
12306 8579 904
12306 12313 417
12307 12300 118
12307 12298 191
12307 12308 8
12307 12311 14
12308 12301 117
12308 12307 8
12308 12305 139
12308 12312 14
12309 12310 75
12309 12313 24
12310 12309 75
12311 12307 14
12311 12294 387
12311 12312 8
12311 8706 619
12312 12308 14
12312 12311 8
12312 8605 152
12312 12305 152
12312 8715 628
12313 12306 417
12313 12309 24
12313 12314 17
12313 12303 1190
12314 12292 1183
12314 12313 17
12314 12304 1297
12314 12315 34
12315 12316 73
12315 12314 34
12316 12315 73
12317 8634 95
12317 8632 76
12317 8767 422
12318 8630 150
12318 8626 160
12318 8764 368
12319 9000 1358
12319 9132 333
12319 9105 377
12320 9006 1500
12320 9112 234
12320 9127 239
12321 9238 741
12321 9258 741
12321 8988 1712
12321 12322 1712
12322 8939 283
12322 8987 283
12322 8988 1712
12322 12321 1712
12323 10267 86
12323 10266 80
12323 10288 109
12324 10313 286
12324 10337 202
12325 10314 285
12325 10341 202
12326 10338 836
12326 10380 79
12326 10382 78
12327 12328 20
12328 12327 20
12329 849 59
12330 8736 622
12331 11688 1339
12332 11689 1332
