23887 66790
0 1 50
1 0 50
2 3 37
3 2 37
3 8 93
3 9 160
4 5 104
5 4 104
5 6 166
5 11 115
6 5 166
6 7 87
7 6 87
7 12 88
8 3 93
9 3 160
9 10 209
9 29 351
10 9 209
11 5 115
12 7 88
13 14 127
14 13 127
14 17 74
15 16 77
16 15 77
17 14 74
18 19 91
19 18 91
19 20 40
19 23 24
20 19 40
21 22 160
22 21 160
23 19 24
24 25 247
25 24 247
26 27 479
27 26 479
28 29 435
29 28 435
29 9 351
29 30 65
30 29 65
30 31 457
30 50 615
31 30 457
32 33 95
33 32 95
33 34 143
34 33 143
34 35 113
34 47 284
35 34 113
36 37 2094
37 36 2094
38 39 139
39 38 139
40 41 1074
41 40 1074
41 42 50
41 44 34
42 43 1087
42 41 50
42 45 49
43 42 1087
44 41 34
44 45 61
44 63 389
45 42 49
45 44 61
45 48 58
46 47 62
47 46 62
47 34 284
47 49 234
48 45 58
48 56 71
49 47 234
49 50 233
49 51 273
50 30 615
50 49 233
50 54 130
51 49 273
51 52 34
51 53 40
52 51 34
53 51 40
54 50 130
54 62 344
54 92 861
55 56 163
55 64 61
56 55 163
56 48 71
57 58 36
58 57 36
58 59 40
58 61 56
59 58 40
59 60 60
59 62 123
60 59 60
61 58 56
62 59 123
62 54 344
62 65 128
63 64 23
63 44 389
63 96 1150
64 63 23
64 55 61
65 62 128
66 67 139
67 66 139
67 82 222
68 69 20
69 68 20
69 70 42
69 71 1
69 88 131
70 69 42
70 98 206
71 69 1
72 73 66
73 72 66
74 75 82
75 74 82
76 77 95
77 76 95
77 94 76
78 79 1774
79 78 1774
80 81 81
81 80 81
82 67 222
82 83 181
82 86 46
83 82 181
84 85 150
85 84 150
85 105 1051
86 82 46
86 87 105
86 97 47
87 86 105
88 69 131
89 90 104
89 91 378
90 89 104
90 99 168
91 89 378
92 54 861
92 93 323
92 103 78
93 92 323
94 77 76
94 95 247
94 97 76
95 94 247
96 63 1150
96 106 88
96 107 86
97 86 47
97 94 76
97 104 49
98 70 206
99 90 168
99 102 7
99 103 352
100 101 505
101 100 505
101 105 33
102 99 7
103 99 352
103 92 78
103 111 93
103 121 570
104 97 49
104 109 169
104 110 136
105 101 33
105 108 40
105 85 1051
106 96 88
106 115 30
107 96 86
107 116 29
108 105 40
108 112 84
108 117 99
109 104 169
110 104 136
110 113 150
111 103 93
112 108 84
112 113 18
112 114 77
113 110 150
113 112 18
113 118 93
114 115 35
114 112 77
114 118 62
115 114 35
115 106 30
116 117 79
116 107 29
117 116 79
117 108 99
117 125 767
118 113 93
118 114 62
118 124 739
119 120 1798
120 119 1798
121 103 570
121 126 404
121 130 552
122 123 941
123 122 941
124 118 739
124 125 82
124 128 71
125 117 767
125 124 82
125 129 78
126 127 467
126 121 404
126 131 103
127 126 467
127 132 537
128 124 71
128 129 86
128 162 1209
129 128 86
129 125 78
129 171 1271
130 121 552
130 131 283
130 262 2468
131 126 103
131 130 283
132 127 537
132 137 629
133 134 1291
134 133 1291
135 136 338
136 135 338
137 132 629
138 139 203
139 138 203
139 147 463
139 165 670
140 141 68
141 140 68
141 142 41
141 146 32
142 141 41
143 144 10
143 153 201
144 143 10
144 147 354
144 159 462
145 146 63
146 145 63
146 141 32
146 150 30
147 139 463
147 144 354
147 148 17
148 147 17
149 150 59
150 149 59
150 146 30
150 154 39
151 152 1145
151 157 112
152 151 1145
153 143 201
153 154 66
153 161 295
154 153 66
154 150 39
155 156 164
156 155 164
157 151 112
157 158 570
157 185 644
158 157 570
159 160 82
159 144 462
159 170 161
160 159 82
160 165 208
161 153 295
162 128 1209
162 172 48
163 164 123
164 163 123
165 139 670
165 160 208
165 168 9
166 167 435
166 183 145
167 166 435
168 165 9
168 169 63
168 170 208
169 168 63
169 177 95
169 190 504
170 168 208
170 159 161
170 211 818
171 172 20
171 129 1271
171 178 81
172 171 20
172 162 48
173 174 509
173 179 55
174 173 509
175 176 1239
176 175 1239
177 169 95
178 171 81
178 188 128
178 198 273
179 173 55
179 180 209
179 194 177
180 179 209
181 182 47
182 181 47
183 166 145
183 209 626
184 185 42
185 184 42
185 157 644
185 195 218
186 187 362
186 195 879
186 216 831
187 186 362
187 189 724
188 178 128
188 310 1236
188 312 1233
189 187 724
189 190 6
189 212 750
190 189 6
190 169 504
190 208 873
191 192 206
191 193 93
192 191 206
193 191 93
193 194 150
193 199 159
194 179 177
194 193 150
194 196 43
195 185 218
195 186 879
195 200 66
195 200 67
196 194 43
196 197 3
196 204 451
197 196 3
197 205 302
198 178 273
199 193 159
199 203 414
199 203 287
200 195 66
200 195 67
200 201 38
200 201 43
201 200 38
201 202 1
201 200 43
201 260 1088
202 201 1
203 199 414
203 199 287
204 196 451
205 197 302
205 210 150
205 224 551
206 207 1701
206 213 374
206 240 379
207 206 1701
208 190 873
208 211 89
208 215 131
209 183 626
209 213 64
209 214 138
210 205 150
210 214 87
210 219 272
211 208 89
211 170 818
211 227 350
212 189 750
212 238 347
213 206 374
213 209 64
213 221 119
214 209 138
214 210 87
214 222 177
214 225 139
215 208 131
216 186 831
216 260 444
217 218 358
217 223 121
217 224 239
218 217 358
218 223 159
219 210 272
219 220 47
219 226 51
220 219 47
221 213 119
221 222 15
221 230 72
222 221 15
222 214 177
222 284 514
223 217 121
223 218 159
223 237 240
224 205 551
224 226 181
224 217 239
225 214 139
225 231 54
225 232 102
226 219 51
226 224 181
226 232 82
226 246 388
227 211 350
227 252 228
228 229 153
229 228 153
229 235 175
229 247 122
230 221 72
230 270 368
231 225 54
231 232 104
231 256 193
232 225 102
232 226 82
232 231 104
233 234 66
234 233 66
234 235 59
234 236 38
234 243 107
235 234 59
235 229 175
235 289 895
236 234 38
236 250 108
237 223 240
237 239 14
237 246 79
238 212 347
238 251 345
238 405 939
239 237 14
239 257 402
239 279 321
240 206 379
240 241 21
240 242 31
241 240 21
241 242 22
241 270 229
242 240 31
242 241 22
242 247 33
243 234 107
243 250 34
243 259 356
244 245 1435
245 244 1435
246 237 79
246 253 59
246 226 388
247 229 122
247 242 33
247 258 114
248 249 452
248 268 198
249 248 452
250 243 34
250 236 108
250 261 127
251 238 345
252 227 228
252 255 55
252 266 125
253 246 59
253 282 269
254 255 75
255 254 75
255 252 55
256 231 193
256 284 320
256 288 266
257 239 402
258 247 114
258 269 106
258 286 243
259 243 356
260 201 1088
260 216 444
260 344 579
261 250 127
261 267 37
261 271 128
262 130 2468
262 263 5
262 263 4
263 262 5
263 262 4
263 266 33
263 418 647
264 265 465
265 264 465
265 266 119
265 296 230
266 252 125
266 263 33
266 265 119
267 261 37
267 269 44
267 274 120
268 248 198
268 314 267
268 530 1096
269 267 44
269 258 106
269 291 174
270 241 229
270 230 368
270 284 101
271 261 128
272 273 109
272 287 123
272 283 216
273 272 109
273 283 117
274 267 120
275 276 794
276 275 794
276 277 13
276 485 551
277 276 13
277 278 122
277 354 293
278 277 122
279 239 321
280 281 56
280 290 69
280 313 165
281 280 56
281 285 176
281 293 137
282 253 269
283 273 117
283 272 216
284 270 101
284 222 514
284 256 320
284 290 86
284 305 108
285 281 176
285 293 70
286 258 243
286 295 68
286 305 92
287 272 123
287 289 124
287 318 135
288 256 266
288 298 68
288 308 85
289 235 895
289 287 124
289 294 123
289 322 108
290 284 86
290 280 69
290 292 14
291 269 174
291 306 59
291 398 337
292 290 14
292 311 52
292 327 147
293 281 137
293 285 70
293 308 57
293 313 61
294 289 123
294 303 166
294 353 168
295 286 68
295 299 20
296 265 230
296 297 40
296 307 26
297 296 40
298 288 68
298 321 84
298 329 111
299 300 22
299 295 20
299 315 48
299 332 102
300 299 22
301 302 29
302 301 29
302 306 23
302 326 107
303 294 166
303 304 14
303 368 179
304 303 14
304 309 120
304 377 180
305 286 92
305 284 108
305 332 89
305 336 124
306 291 59
306 302 23
306 317 61
306 323 70
307 296 26
307 333 75
307 405 943
308 293 57
308 288 85
308 321 70
308 331 77
309 304 120
309 377 282
310 188 1236
310 312 77
310 387 262
311 292 52
311 328 63
311 336 94
312 188 1233
312 310 77
312 346 121
313 280 165
313 293 61
313 327 53
314 268 267
314 335 87
314 385 726
315 316 22
315 299 48
315 324 56
316 315 22
317 306 61
317 320 11
317 340 76
318 287 135
318 319 114
318 322 190
318 370 117
319 318 114
319 365 112
320 317 11
321 308 70
321 298 84
321 343 93
321 345 85
322 289 108
322 318 190
322 371 113
323 306 70
323 326 5
323 334 40
324 325 54
324 315 56
324 341 79
324 348 108
325 324 54
326 323 5
326 302 107
326 341 70
327 292 147
327 313 53
327 339 56
327 342 71
328 311 63
328 342 70
328 347 89
329 298 111
329 330 122
329 337 45
329 343 83
330 329 122
331 308 77
331 339 49
331 345 72
332 299 102
332 305 89
332 348 93
332 361 117
333 307 75
333 363 193
333 367 103
334 323 40
334 340 32
334 351 80
335 314 87
336 305 124
336 311 94
336 347 44
336 361 91
337 329 45
337 338 60
337 355 67
337 376 104
338 337 60
339 327 56
339 331 49
339 359 72
339 360 69
340 317 76
340 334 32
341 326 70
341 324 79
341 351 39
341 383 116
342 328 70
342 327 71
342 360 59
342 373 83
343 321 93
343 329 83
343 357 33
344 260 579
344 380 127
345 331 72
345 321 85
345 359 45
345 366 64
346 312 121
346 369 44
346 387 350
347 336 44
347 328 89
347 364 51
347 373 71
348 324 108
348 332 93
348 352 8
349 350 1532
350 349 1532
350 530 568
350 685 1336
351 334 80
351 341 39
351 372 45
352 348 8
352 383 74
352 410 148
353 294 168
353 368 149
353 371 122
354 277 293
354 375 40
354 390 83
355 337 67
355 356 79
355 395 95
355 400 120
356 355 79
357 358 53
357 343 33
357 376 50
358 357 53
358 366 34
359 339 72
359 345 45
359 386 64
359 388 71
360 342 59
360 339 69
360 388 70
360 389 70
361 332 117
361 336 91
361 382 42
361 384 53
362 363 53
363 362 53
363 333 193
363 378 44
364 347 51
364 382 45
364 396 75
365 319 112
365 370 123
365 407 80
366 345 64
366 358 34
366 386 51
366 394 88
367 333 103
367 393 102
367 441 161
368 303 179
368 353 149
368 377 26
369 346 44
369 437 114
370 318 117
370 365 123
370 392 46
371 353 122
371 322 113
371 374 9
372 351 45
372 406 75
373 347 71
373 342 83
373 389 62
373 396 62
374 371 9
374 379 10
374 392 161
375 354 40
376 357 50
376 337 104
376 394 58
376 401 84
377 304 180
377 368 26
377 309 282
378 363 44
379 374 10
379 387 338
379 423 84
379 450 321
380 344 127
380 381 73
380 448 173
381 380 73
382 361 42
382 364 45
382 399 45
382 414 80
383 341 116
383 352 74
383 404 58
383 410 152
384 361 53
384 399 38
384 421 86
385 314 726
385 438 125
386 359 64
386 366 51
386 422 87
386 440 124
387 379 338
387 310 262
387 346 350
388 360 70
388 359 71
388 412 62
389 373 62
389 360 70
389 412 69
389 413 76
390 354 83
390 391 35
390 397 46
390 467 151
391 390 35
392 374 161
392 370 46
392 407 174
393 367 102
393 402 58
393 441 172
394 366 88
394 376 58
394 422 65
394 428 98
395 355 95
396 364 75
396 373 62
396 413 52
396 414 52
397 390 46
398 291 337
398 403 17
398 420 48
399 384 38
399 382 45
399 409 37
399 433 86
400 355 120
401 376 84
401 408 73
401 428 65
402 393 58
402 424 40
402 548 335
403 398 17
403 411 50
403 419 32
404 383 58
404 406 71
404 456 114
405 238 939
405 307 943
405 462 186
405 599 423
406 372 75
406 404 71
406 426 240
407 365 80
407 392 174
407 432 59
408 401 73
408 457 107
408 470 317
409 399 37
409 425 44
409 458 118
410 352 148
410 421 19
410 383 152
411 403 50
411 419 50
411 426 89
412 389 69
412 388 62
412 440 78
412 461 125
413 396 52
413 389 76
413 429 52
414 382 80
414 396 52
414 425 27
415 416 31
416 415 31
416 417 79
416 466 106
417 416 79
418 263 647
418 431 83
418 475 354
418 516 243
419 403 32
419 411 50
419 427 31
420 398 48
420 427 28
420 432 30
421 410 19
421 384 86
421 433 40
421 469 117
422 386 87
422 394 65
422 463 112
422 464 110
423 379 84
423 434 25
423 488 326
424 402 40
424 436 88
425 409 44
425 414 27
425 430 14
426 411 89
426 406 240
426 456 212
427 420 28
427 419 31
427 435 21
428 394 98
428 401 65
428 457 77
428 463 68
429 413 52
429 447 44
429 461 82
430 425 14
430 447 44
430 451 49
431 418 83
431 437 106
431 446 86
432 407 59
432 420 30
432 435 14
432 450 64
433 421 40
433 399 86
433 443 32
434 423 25
434 513 37
435 432 14
435 427 21
435 479 78
436 424 88
437 431 106
437 442 33
437 369 114
438 385 125
438 483 140
439 440 1
439 464 73
439 474 86
440 439 1
440 412 78
440 386 124
441 393 172
441 367 161
441 521 137
442 437 33
442 449 21
442 455 22
442 475 141
443 433 32
443 458 38
443 476 66
444 445 457
445 444 457
446 431 86
446 449 15
446 459 26
447 430 44
447 429 44
447 482 82
448 380 173
448 462 51
448 465 156
449 446 15
449 442 21
449 452 13
450 379 321
450 432 64
450 479 87
451 430 49
451 468 40
451 477 56
452 449 13
452 455 22
452 459 25
453 454 73
454 453 73
454 536 144
455 452 22
455 442 22
455 501 208
456 426 212
456 404 114
456 460 17
457 428 77
457 408 107
457 481 56
457 498 65
458 443 38
458 409 118
458 477 40
459 446 26
459 452 25
459 484 40
460 456 17
460 469 105
460 500 200
461 429 82
461 412 125
461 482 47
462 448 51
462 405 186
462 497 54
463 422 112
463 428 68
463 496 57
463 498 80
464 439 73
464 422 110
464 504 86
464 507 88
465 448 156
465 466 15
465 503 59
466 416 106
466 465 15
466 480 44
467 390 151
467 483 127
467 511 353
468 451 40
469 460 105
469 421 117
469 476 48
470 408 317
470 471 334
470 478 17
471 470 334
472 473 58
472 494 161
472 548 144
473 472 58
474 439 86
474 507 92
474 532 124
475 442 141
475 418 354
475 512 186
476 469 48
476 443 66
476 492 85
477 458 40
477 451 56
477 492 33
478 470 17
478 502 46
478 547 183
479 450 87
479 435 78
479 617 555
480 466 44
480 491 72
481 457 56
481 493 19
481 523 64
482 447 82
482 461 47
482 505 45
483 467 127
483 438 140
483 579 312
484 459 40
484 495 16
484 499 53
485 276 551
485 511 53
486 487 715
486 489 55
486 491 219
487 486 715
488 423 326
488 575 30
489 486 55
490 491 108
491 490 108
491 480 72
491 486 219
492 476 85
492 477 33
492 514 150
493 481 19
493 519 135
494 472 161
495 484 16
495 518 144
495 518 222
496 463 57
496 504 68
497 462 54
497 538 155
497 611 250
498 463 80
498 457 65
498 523 66
499 484 53
499 540 231
500 460 200
500 515 37
500 541 268
501 455 208
501 506 12
501 522 99
501 518 99
502 478 46
502 508 647
502 517 43
503 465 59
504 464 86
504 496 68
504 520 32
504 533 88
505 482 45
505 514 21
506 501 12
506 526 75
506 550 95
507 474 92
507 464 88
507 533 68
507 542 86
508 502 647
508 531 464
508 560 200
509 510 310
509 549 144
510 509 310
511 485 53
511 467 353
511 715 544
512 475 186
512 513 135
512 522 11
512 574 375
513 512 135
513 434 37
514 492 150
514 505 21
514 532 104
515 500 37
515 541 333
515 617 247
516 418 243
516 546 158
516 553 96
517 502 43
517 547 101
517 560 143
518 495 144
518 501 99
518 495 222
519 493 135
519 529 43
519 557 85
520 504 32
521 441 137
521 525 210
521 546 43
522 501 99
522 512 11
522 526 33
522 535 28
522 577 378
523 498 66
523 481 64
523 539 32
524 525 36
525 524 36
525 521 210
525 544 63
525 554 72
526 506 75
526 522 33
526 535 39
527 528 540
528 527 540
528 531 31
529 519 43
529 558 72
530 268 1096
530 350 568
530 605 229
531 508 464
531 528 31
531 665 433
532 514 104
532 474 124
532 542 63
532 545 20
533 507 68
533 504 88
533 534 1
533 561 92
534 533 1
535 526 39
535 522 28
535 567 82
536 454 144
536 537 24
536 549 83
537 536 24
538 497 155
539 523 32
539 552 32
539 557 145
539 562 122
540 499 231
541 500 268
541 545 23
541 515 333
542 532 63
542 507 86
542 551 20
542 561 179
543 544 39
544 543 39
544 525 63
544 564 66
544 591 211
545 541 23
545 532 20
545 551 58
546 521 43
546 516 158
546 571 137
546 596 248
547 478 183
547 517 101
547 558 53
548 472 144
548 402 335
548 565 138
549 509 144
549 536 83
549 569 68
550 506 95
550 572 92
550 576 157
551 545 58
551 542 20
551 578 262
552 539 32
552 586 82
552 592 179
553 516 96
553 571 96
553 657 252
554 525 72
554 564 52
555 556 36
555 559 29
556 555 36
556 563 43
556 568 44
557 539 145
557 519 85
558 529 72
558 547 53
558 566 30
558 606 200
559 555 29
560 517 143
560 508 200
560 610 190
560 643 348
561 542 179
561 533 92
561 573 83
562 539 122
562 573 28
563 556 43
564 544 66
564 554 52
564 596 65
565 548 138
565 593 77
566 558 30
567 535 82
567 633 249
568 556 44
568 584 44
568 604 95
569 549 68
569 570 125
569 650 234
570 569 125
571 546 137
571 553 96
571 873 686
572 550 92
573 561 83
573 562 28
573 578 15
573 586 93
574 512 375
574 575 147
574 577 12
574 835 1037
575 574 147
575 488 30
576 550 157
577 522 378
577 574 12
577 583 39
577 597 44
578 551 262
578 573 15
578 618 222
579 483 312
579 741 477
580 581 44
580 638 147
581 580 44
581 582 45
582 581 45
583 577 39
583 597 54
583 686 500
584 568 44
584 585 61
584 595 27
584 600 60
585 584 61
586 573 93
586 552 82
586 606 129
587 588 116
588 587 116
588 599 94
588 625 87
589 590 3250
590 589 3250
590 742 950
590 783 1882
591 544 211
591 593 29
591 645 152
592 552 179
593 565 77
593 591 29
593 594 17
594 593 17
594 598 55
594 660 171
595 584 27
596 564 65
596 546 248
596 645 203
597 577 44
597 583 54
597 634 82
598 594 55
598 602 31
598 632 79
599 405 423
599 588 94
599 615 90
599 641 89
600 584 60
600 601 64
601 600 64
602 603 53
602 598 31
602 607 52
602 627 48
603 602 53
604 568 95
604 605 23
604 630 53
605 530 229
605 604 23
605 668 196
606 586 129
606 558 200
606 618 17
606 643 126
607 602 52
607 625 85
607 637 60
608 609 66
608 616 73
608 631 105
609 608 66
609 666 270
610 560 190
610 646 120
610 698 318
611 497 250
611 621 17
611 642 61
612 613 34
613 612 34
613 640 547
613 891 638
614 615 91
615 614 91
615 599 90
615 635 140
615 647 85
616 608 73
616 636 72
617 479 555
617 515 247
617 746 774
618 578 222
618 606 17
618 639 85
619 620 260
620 619 260
621 611 17
621 635 44
622 623 68
622 624 15
622 626 22
623 622 68
624 622 15
624 649 79
625 588 87
625 607 85
625 641 99
625 655 94
626 622 22
626 653 86
627 602 48
628 629 280
629 628 280
630 604 53
631 608 105
631 662 86
631 666 173
632 598 79
633 567 249
633 657 357
633 659 68
634 597 82
634 654 202
634 714 349
635 621 44
635 615 140
635 642 41
635 661 99
636 616 72
636 662 139
636 663 70
637 607 60
638 580 147
639 618 85
639 689 213
639 691 253
640 613 547
641 599 89
641 625 99
641 647 86
641 671 91
642 611 61
642 635 41
642 644 59
642 669 89
643 606 126
643 560 348
643 698 269
644 642 59
645 591 152
645 596 203
645 652 35
646 610 120
646 665 89
646 677 105
647 615 85
647 641 86
647 661 93
647 679 94
648 649 66
649 648 66
649 624 79
650 569 234
650 651 636
650 827 449
651 650 636
652 645 35
652 660 29
653 626 86
654 634 202
654 664 10
654 705 158
655 625 94
655 656 75
655 671 108
655 693 96
656 655 75
656 678 84
657 658 82
657 553 252
657 633 357
658 657 82
659 633 68
659 681 157
659 699 233
660 594 171
660 652 29
660 667 52
661 635 99
661 647 93
661 669 92
661 692 93
662 636 139
662 631 86
662 680 68
662 666 231
663 636 70
663 680 120
664 654 10
664 676 66
664 682 152
664 739 562
665 646 89
665 531 433
665 670 53
666 631 173
666 609 270
666 662 231
666 689 90
667 660 52
667 672 41
667 697 84
668 605 196
668 741 248
668 751 258
669 642 89
669 661 92
669 703 92
670 665 53
670 708 168
670 729 149
671 641 91
671 655 108
671 679 78
671 704 89
672 667 41
672 678 54
672 707 99
673 674 141
673 675 17
673 702 92
674 673 141
674 688 38
675 673 17
675 690 79
675 706 91
676 664 66
677 646 105
677 729 163
677 731 190
678 656 84
678 672 54
678 693 78
678 718 97
679 647 94
679 671 78
679 692 93
680 663 120
680 662 68
680 730 211
681 659 157
682 664 152
683 684 80
684 683 80
684 789 340
685 350 1336
685 696 43
686 583 500
686 694 23
686 695 32
687 688 80
688 687 80
688 674 38
688 702 89
688 723 97
689 666 90
689 639 213
689 730 139
689 737 206
690 675 79
690 701 67
690 728 90
691 639 253
691 717 116
691 768 267
692 661 93
692 679 93
692 703 89
692 735 94
693 655 96
693 678 78
693 704 115
693 736 97
694 686 23
694 695 40
694 705 179
695 694 40
695 686 32
695 839 460
696 685 43
696 740 119
696 815 630
697 667 84
697 713 70
698 643 269
698 610 318
698 731 118
699 700 42
699 659 233
699 828 232
700 699 42
701 690 67
702 688 89
702 673 92
702 706 17
702 745 96
703 669 92
703 692 89
703 712 25
704 671 89
704 693 115
704 711 77
704 757 103
705 654 158
705 694 179
705 721 37
706 702 17
706 675 91
706 728 79
706 753 96
707 672 99
707 718 61
708 670 168
708 709 301
708 758 109
709 708 301
710 711 7
711 710 7
711 704 77
711 719 16
712 703 25
712 733 97
712 747 69
713 697 70
713 765 95
714 634 349
714 794 147
714 828 479
715 511 544
715 716 133
715 725 36
716 715 133
717 691 116
717 738 54
717 752 224
718 678 97
718 707 61
718 732 20
718 736 82
719 711 16
719 735 97
719 766 88
720 721 101
721 720 101
721 705 37
721 888 294
722 723 37
723 722 37
723 688 97
723 745 91
723 749 54
724 725 110
725 724 110
725 715 36
725 785 115
726 727 365
727 726 365
728 706 79
728 690 90
728 743 76
728 772 96
729 677 163
729 670 149
729 805 184
730 680 211
730 689 139
730 746 40
730 795 256
731 698 118
731 677 190
731 863 375
732 718 20
733 712 97
733 734 33
733 762 65
734 733 33
734 750 100
734 769 67
735 692 94
735 719 97
735 747 70
735 776 81
736 693 97
736 718 82
736 756 96
736 820 143
737 689 206
737 768 66
737 795 116
738 717 54
738 806 190
738 902 489
739 664 562
739 808 119
740 696 119
741 579 477
741 668 248
741 751 335
741 824 246
742 590 950
743 728 76
743 744 92
743 792 93
744 743 92
745 723 91
745 702 96
745 753 18
745 774 57
746 617 774
746 730 40
746 837 326
747 712 69
747 735 70
747 759 93
747 788 75
748 749 143
748 761 118
749 748 143
749 723 54
749 771 45
749 774 94
750 734 100
750 764 541
751 668 258
751 741 335
751 791 75
752 717 224
752 781 112
752 871 272
753 745 18
753 706 96
753 772 79
753 779 57
754 755 33
754 765 65
754 840 151
755 754 33
755 852 178
756 736 96
756 757 29
756 809 103
757 704 103
757 756 29
757 766 53
757 819 99
758 708 109
758 793 117
758 851 248
759 747 93
759 762 13
759 778 31
760 761 123
760 767 161
761 760 123
761 748 118
761 864 159
762 733 65
762 759 13
762 769 40
763 764 564
764 763 564
764 750 541
764 996 394
765 713 95
765 754 65
765 775 66
765 842 125
766 719 88
766 757 53
766 776 101
766 825 96
767 760 161
767 831 125
768 737 66
768 691 267
768 777 25
769 734 67
769 762 40
769 773 15
770 771 91
771 770 91
771 749 45
771 796 54
771 797 98
772 753 79
772 728 96
772 792 73
772 830 105
773 769 15
773 780 41
773 856 128
774 749 94
774 745 57
774 779 17
774 797 46
775 765 66
776 735 81
776 766 101
776 788 69
776 834 96
777 768 25
777 1017 290
778 759 31
778 846 117
779 774 17
779 753 57
779 802 47
780 773 41
780 782 14
780 867 140
781 752 112
781 969 289
782 780 14
783 590 1882
784 785 135
784 790 39
785 784 135
785 725 115
785 879 158
786 787 101
786 824 356
787 786 101
787 789 4
787 880 156
788 747 75
788 776 69
788 841 88
789 684 340
789 787 4
789 942 349
790 784 39
790 798 124
790 845 87
791 751 75
791 917 338
791 935 294
792 772 73
792 743 93
792 799 30
792 855 104
793 758 117
793 805 41
793 929 257
794 714 147
794 807 23
794 826 120
795 730 256
795 737 116
795 814 69
796 771 54
796 829 50
797 771 98
797 774 46
797 802 13
797 829 110
797 853 80
798 790 124
799 792 30
800 801 428
801 800 428
802 797 13
802 779 47
802 830 80
802 853 81
803 804 58
804 803 58
804 810 142
804 811 56
805 729 184
805 793 41
805 863 114
806 738 190
807 794 23
807 808 13
807 818 11
808 807 13
808 739 119
808 810 21
809 756 103
809 813 51
809 819 66
809 870 93
810 808 21
810 804 142
810 816 10
811 804 56
811 812 72
811 854 58
812 811 72
813 809 51
813 820 36
813 866 82
814 795 69
814 837 41
814 858 119
815 696 630
816 810 10
816 817 19
816 854 195
817 816 19
817 818 13
817 868 80
818 807 11
818 817 13
818 823 6
819 757 99
819 809 66
819 825 36
819 921 159
820 813 36
820 736 143
820 847 138
821 822 14
821 857 118
821 878 91
822 821 14
823 818 6
823 844 107
823 850 42
824 786 356
824 741 246
825 766 96
825 819 36
825 834 91
826 794 120
826 833 46
826 844 35
827 650 449
828 699 232
828 714 479
828 905 156
828 940 488
829 796 50
829 797 110
829 859 44
830 802 80
830 772 105
830 855 69
831 767 125
831 832 60
831 864 91
832 831 60
833 826 46
834 776 96
834 825 91
834 838 40
835 574 1037
835 836 329
835 1016 452
836 835 329
837 746 326
837 814 41
837 871 92
838 834 40
838 841 46
838 909 115
839 695 460
839 957 292
839 1037 283
840 754 151
840 848 10
840 852 30
841 788 88
841 838 46
841 843 36
842 765 125
842 847 78
842 849 36
842 965 176
843 841 36
844 826 35
844 823 107
844 865 77
844 869 38
845 790 87
845 879 135
845 894 85
846 778 117
846 913 107
847 820 138
847 842 78
847 966 172
848 840 10
848 849 39
848 949 146
849 842 36
849 848 39
849 985 202
850 823 42
850 869 93
850 872 37
851 758 248
851 860 21
851 891 185
852 840 30
852 755 178
852 873 143
853 797 80
853 802 81
853 859 45
854 816 195
854 811 58
854 861 16
855 792 104
855 830 69
856 773 128
857 821 118
858 814 119
859 829 44
859 853 45
859 862 8
859 874 47
860 851 21
860 897 254
860 928 149
861 854 16
862 859 8
863 731 375
863 805 114
863 875 36
864 831 91
864 761 159
864 974 171
865 844 77
866 813 82
867 780 140
868 817 80
868 872 15
868 899 263
869 844 38
869 850 93
869 886 82
869 887 38
870 809 93
871 837 92
871 752 272
871 984 349
872 850 37
872 868 15
872 887 80
872 1175 403
873 852 143
873 571 686
873 934 158
874 859 47
874 895 101
874 1014 216
875 863 36
875 948 185
876 877 65
876 881 37
876 904 65
877 876 65
878 821 91
878 880 43
878 924 76
879 845 135
879 785 158
879 916 85
880 787 156
880 878 43
880 896 33
881 882 59
881 876 37
881 889 34
881 918 57
882 881 59
883 884 90
884 883 90
884 885 45
884 903 44
884 938 106
885 884 45
886 869 82
887 869 38
887 872 80
887 905 295
888 721 294
888 898 96
888 937 69
889 890 51
889 881 34
889 941 65
890 889 51
891 851 185
891 613 638
891 930 195
892 893 45
893 892 45
894 845 85
894 916 81
894 975 112
895 874 101
895 925 33
896 880 33
896 927 46
897 860 254
897 955 140
897 992 155
898 888 96
898 901 21
898 1003 141
899 868 263
899 906 107
899 1091 249
900 901 302
901 900 302
901 898 21
901 906 64
902 738 489
902 936 43
902 987 178
902 1004 249
903 884 44
903 943 50
903 947 71
904 876 65
904 933 42
904 941 80
905 828 156
905 887 295
905 952 261
906 901 64
906 899 107
906 973 76
907 908 188
907 961 64
908 907 188
909 838 115
909 913 125
909 946 35
910 911 48
911 910 48
911 944 80
911 1062 245
912 913 126
912 996 544
913 912 126
913 846 107
913 909 125
914 915 53
915 914 53
916 894 81
916 879 85
916 1160 346
917 791 338
917 989 132
918 881 57
919 920 99
920 919 99
920 960 72
921 819 159
921 946 190
922 923 202
923 922 202
924 878 76
925 895 33
925 974 123
926 927 155
927 926 155
927 896 46
927 1074 452
928 860 149
928 929 9
928 988 98
929 793 257
929 928 9
929 948 109
930 891 195
930 951 60
930 955 38
931 932 110
931 954 60
931 958 35
932 931 110
933 904 42
934 873 158
934 940 5
934 953 57
935 791 294
935 986 85
935 1009 198
936 902 43
936 1026 140
936 1296 450
937 888 69
938 884 106
938 939 44
938 967 43
939 938 44
940 934 5
940 828 488
940 945 9
941 889 65
941 904 80
941 958 44
942 789 349
942 956 45
942 1257 554
943 903 50
943 962 51
943 981 77
944 911 80
945 940 9
945 1025 151
946 909 35
946 921 190
946 1028 114
947 903 71
947 976 55
948 875 185
948 929 109
948 979 87
949 848 146
949 950 175
949 978 47
950 949 175
950 953 50
951 930 60
951 968 36
951 1007 132
952 905 261
952 1025 237
952 1055 152
953 950 50
953 934 57
953 978 201
954 931 60
955 897 140
955 930 38
955 968 42
956 942 45
957 839 292
957 1034 181
957 1039 180
958 931 35
958 941 44
958 983 92
959 960 58
960 959 58
960 920 72
960 989 51
961 907 64
961 967 41
961 990 95
961 1008 67
961 1044 125
962 943 51
962 976 25
962 1005 71
963 964 12
963 1072 145
964 963 12
964 966 114
964 1058 248
965 842 176
965 966 92
965 991 39
966 847 172
966 965 92
966 964 114
967 938 43
967 961 41
967 977 29
968 955 42
968 951 36
968 1015 127
969 970 73
969 781 289
970 969 73
970 971 247
970 1024 93
971 970 247
971 1090 239
972 973 86
973 972 86
973 906 76
973 998 38
974 864 171
974 925 123
974 1007 96
975 894 112
975 1073 157
976 962 25
976 947 55
976 999 44
977 967 29
977 999 39
977 1008 58
978 949 47
978 953 201
978 985 41
979 948 87
979 988 14
979 997 33
980 981 128
981 980 128
981 943 77
981 1005 53
981 1110 175
982 983 80
983 982 80
983 958 92
984 871 349
984 1004 197
984 1027 222
985 849 202
985 978 41
985 991 38
986 935 85
986 1018 46
987 902 178
987 997 13
987 1013 78
988 979 14
988 928 98
988 1067 136
988 1086 167
989 960 51
989 917 132
989 1045 107
990 961 95
990 1032 58
991 965 39
991 985 38
991 1070 102
992 897 155
992 1061 173
992 1086 192
993 994 80
994 993 80
994 995 24
994 1010 43
995 994 24
996 764 394
996 912 544
996 1208 268
997 987 13
997 979 33
997 1067 144
998 973 38
998 1002 96
998 1006 8
999 976 44
999 977 39
999 1031 57
999 1038 67
1000 1001 35
1001 1000 35
1001 1071 145
1001 1099 123
1002 998 96
1003 898 141
1003 1006 111
1003 1011 11
1004 984 197
1004 902 249
1004 1020 76
1004 1027 40
1005 981 53
1005 962 71
1005 1038 61
1006 998 8
1006 1003 111
1006 1050 68
1007 951 132
1007 974 96
1007 1015 15
1007 1169 280
1008 977 58
1008 961 67
1008 1031 42
1009 935 198
1009 1021 42
1009 1036 35
1010 994 43
1010 1023 43
1010 1041 41
1011 1003 11
1011 1012 82
1011 1140 165
1012 1011 82
1012 1076 122
1013 987 78
1013 1079 110
1014 874 216
1014 1069 102
1015 968 127
1015 1007 15
1015 1061 233
1015 1174 281
1016 835 452
1016 1017 164
1016 1024 19
1017 1016 164
1017 777 290
1018 986 46
1018 1019 67
1018 1029 19
1019 1018 67
1020 1004 76
1020 1022 17
1020 1026 157
1021 1009 42
1021 1036 36
1021 1228 507
1022 1020 17
1022 1035 131
1022 1048 41
1022 1049 75
1023 1010 43
1024 1016 19
1024 970 93
1024 1034 12
1024 1090 127
1025 945 151
1025 952 237
1025 1078 75
1026 1020 157
1026 936 140
1026 1035 11
1027 984 222
1027 1004 40
1027 1048 86
1028 946 114
1028 1030 80
1028 1040 13
1029 1018 19
1029 1046 42
1030 1028 80
1031 999 57
1031 1008 42
1031 1043 31
1031 1044 36
1032 990 58
1032 1033 552
1032 1093 81
1032 1102 96
1033 1032 552
1034 957 181
1034 1024 12
1034 1084 76
1034 1552 944
1035 1022 131
1035 1026 11
1035 1047 34
1036 1021 36
1036 1009 35
1036 1115 195
1037 839 283
1037 1042 56
1038 1005 61
1038 999 67
1039 957 180
1040 1028 13
1040 1058 194
1040 1265 361
1041 1010 41
1041 1045 21
1041 1124 149
1042 1037 56
1042 1080 63
1043 1031 31
1044 1031 36
1044 961 125
1044 1189 261
1045 1041 21
1045 989 107
1045 1071 37
1046 1029 42
1047 1035 34
1047 1049 7
1048 1027 86
1048 1022 41
1048 1049 51
1048 1079 62
1049 1022 75
1049 1047 7
1049 1048 51
1050 1006 68
1051 1052 66
1051 1056 42
1052 1051 66
1052 1085 59
1052 1092 49
1053 1054 60
1054 1053 60
1054 1083 49
1054 1087 42
1055 952 152
1056 1051 42
1056 1057 69
1056 1081 31
1056 1092 62
1057 1056 69
1058 1040 194
1058 964 248
1058 1072 117
1059 1060 80
1060 1059 80
1061 992 173
1061 1015 233
1061 1106 142
1061 1151 260
1062 911 245
1062 1096 32
1062 1107 70
1063 1064 76
1064 1063 76
1064 1077 35
1064 1094 38
1065 1066 57
1065 1076 129
1065 1108 45
1066 1065 57
1066 1068 67
1066 1105 34
1067 997 144
1067 988 136
1067 1098 33
1068 1066 67
1068 1075 48
1068 1101 27
1069 1014 102
1069 1131 104
1069 1235 242
1070 991 102
1070 1072 233
1071 1045 37
1071 1001 145
1071 1132 82
1072 1058 117
1072 963 145
1072 1070 233
1073 975 157
1073 1102 51
1074 927 452
1074 1228 344
1075 1068 48
1075 1080 237
1075 1100 17
1076 1012 122
1076 1065 129
1076 1111 41
1077 1064 35
1077 1087 18
1077 1234 198
1078 1025 75
1078 1154 430
1078 1183 189
1079 1048 62
1079 1013 110
1079 1136 93
1079 1608 639
1080 1075 237
1080 1042 63
1080 1100 209
1080 1113 37
1080 1135 102
1081 1056 31
1081 1082 73
1081 1107 30
1081 1112 63
1082 1081 73
1083 1054 49
1084 1034 76
1084 1129 90
1084 1153 117
1085 1052 59
1085 1134 83
1086 988 167
1086 992 192
1086 1098 12
1086 1151 103
1087 1054 42
1087 1077 18
1087 1109 55
1088 1089 42
1089 1088 42
1089 1091 68
1090 1024 127
1090 971 239
1090 1147 129
1091 899 249
1091 1089 68
1091 1097 66
1091 1180 129
1092 1052 49
1092 1056 62
1092 1112 32
1093 1032 81
1093 1121 55
1093 1127 68
1094 1064 38
1094 1095 81
1094 1114 38
1095 1094 81
1096 1062 32
1096 1109 29
1096 1117 71
1097 1091 66
1098 1067 33
1098 1086 12
1098 1143 116
1098 1390 459
1099 1001 123
1100 1075 17
1100 1080 209
1100 1101 55
1100 1120 39
1101 1068 27
1101 1100 55
1101 1105 70
1101 1137 56
1102 1032 96
1102 1073 51
1102 1121 70
1102 1163 98
1103 1104 33
1104 1103 33
1104 23752 123
1105 1066 34
1105 1101 70
1105 1108 46
1105 1141 54
1106 1061 142
1107 1081 30
1107 1062 70
1107 1117 30
1107 1128 63
1108 1065 45
1108 1105 46
1108 1116 109
1108 1185 106
1109 1096 29
1109 1087 55
1109 1156 82
1109 1191 111
1110 981 175
1110 1152 58
1110 1189 135
1111 1076 41
1111 1116 20
1111 1140 174
1112 1092 32
1112 1081 63
1112 1128 30
1113 1080 37
1113 1120 204
1113 1144 42
1114 1094 38
1114 1122 21
1114 1266 187
1115 1036 195
1115 1207 185
1116 1111 20
1116 1108 109
1116 1192 100
1117 1107 30
1117 1096 71
1117 1150 64
1117 1156 50
1118 1119 60
1119 1118 60
1119 1125 32
1119 1135 19
1120 1100 39
1120 1113 204
1120 1157 39
1121 1093 55
1121 1102 70
1121 1155 65
1121 1188 97
1122 1114 21
1122 1123 115
1122 1158 120
1123 1122 115
1124 1041 149
1124 1133 74
1125 1119 32
1125 1126 52
1125 1130 34
1126 1125 52
1127 1093 68
1127 1155 38
1127 1168 72
1128 1112 30
1128 1107 63
1128 1150 30
1129 1084 90
1129 1161 43
1130 1125 34
1131 1069 104
1131 1138 9
1131 1262 220
1132 1071 82
1132 1211 209
1133 1124 74
1133 1187 99
1134 1085 83
1134 1164 69
1134 1213 110
1135 1080 102
1135 1119 19
1135 1159 181
1135 1195 75
1136 1079 93
1136 1142 8
1136 1232 130
1136 1286 318
1137 1101 56
1137 1141 74
1137 1176 47
1138 1131 9
1138 1201 102
1139 1140 83
1139 1166 116
1139 1281 177
1140 1139 83
1140 1011 165
1140 1111 174
1141 1105 54
1141 1137 74
1141 1182 51
1142 1136 8
1142 1292 212
1142 1616 633
1143 1098 116
1144 1113 42
1144 1149 62
1144 1170 37
1145 1146 3
1145 1210 159
1145 1346 267
1146 1145 3
1147 1090 129
1147 1148 228
1147 1543 687
1148 1147 228
1149 1144 62
1149 1157 138
1149 1173 37
1150 1128 30
1150 1117 64
1150 1190 76
1151 1086 103
1151 1061 260
1151 1419 397
1152 1110 58
1152 1186 47
1152 1198 87
1153 1084 117
1153 1159 9
1153 1196 60
1154 1078 430
1154 1175 460
1154 1264 276
1155 1127 38
1155 1121 65
1155 1177 66
1155 1224 98
1156 1117 50
1156 1109 82
1156 1190 57
1156 1191 72
1157 1120 39
1157 1149 138
1157 1172 25
1158 1122 120
1159 1135 181
1159 1153 9
1159 1306 227
1160 916 346
1160 1163 64
1160 1240 116
1161 1129 43
1161 1162 30
1161 1171 50
1161 1219 69
1162 1161 30
1163 1102 98
1163 1160 64
1163 1188 66
1163 1239 117
1164 1165 104
1164 1134 69
1164 1193 128
1164 1215 73
1165 1164 104
1166 1139 116
1166 1180 126
1166 1218 59
1167 1168 82
1168 1167 82
1168 1127 72
1168 1177 11
1168 1197 41
1169 1007 280
1169 1174 10
1169 1235 147
1170 1144 37
1170 1173 60
1171 1161 50
1171 1196 97
1171 1259 113
1172 1157 25
1172 1176 58
1172 1184 12
1173 1149 37
1173 1170 60
1173 1179 70
1173 1209 42
1174 1015 281
1174 1169 10
1174 1216 83
1174 1242 153
1175 1154 460
1175 872 403
1175 1181 65
1176 1137 47
1176 1172 58
1176 1178 37
1177 1168 11
1177 1155 66
1177 1197 41
1177 1237 100
1178 1176 37
1178 1182 48
1178 1245 87
1179 1173 70
1179 1184 68
1179 1214 40
1180 1091 129
1180 1166 126
1180 1181 115
1180 1221 44
1181 1175 65
1181 1180 115
1181 1222 43
1182 1141 51
1182 1178 48
1182 1185 41
1182 1247 87
1183 1078 189
1183 1200 150
1183 1205 696
1183 1252 207
1184 1172 12
1184 1179 68
1184 1217 39
1185 1108 106
1185 1182 41
1185 1192 62
1185 1248 85
1186 1152 47
1186 1225 67
1186 1266 132
1187 1133 99
1187 1202 26
1188 1121 97
1188 1163 66
1188 1224 69
1188 1239 82
1189 1110 135
1189 1044 261
1189 1198 43
1189 1238 70
1190 1150 76
1190 1156 57
1190 1226 53
1190 1231 63
1191 1156 72
1191 1109 111
1191 1199 19
1192 1116 100
1192 1185 62
1192 1251 79
1193 1194 55
1193 1164 128
1194 1193 55
1195 1135 75
1195 1206 93
1195 1313 136
1196 1153 60
1196 1171 97
1196 1284 107
1197 1168 41
1197 1177 41
1197 1204 18
1198 1152 87
1198 1189 43
1198 1225 39
1199 1191 19
1199 1233 56
1199 1234 71
1200 1183 150
1201 1138 102
1201 1301 157
1202 1187 26
1202 1211 99
1202 1244 78
1203 1204 38
1204 1203 38
1204 1197 18
1204 1267 146
1204 1272 95
1205 1183 696
1206 1195 93
1206 1209 38
1206 1330 129
1207 1115 185
1207 1378 177
1208 996 268
1208 1223 21
1208 1311 695
1209 1173 42
1209 1206 38
1209 1212 37
1209 1307 115
1210 1145 159
1210 1223 146
1211 1202 99
1211 1132 209
1211 1227 231
1212 1209 37
1212 1214 33
1212 1309 115
1213 1134 110
1213 1231 36
1214 1179 40
1214 1212 33
1214 1217 69
1214 1243 46
1215 1164 73
1215 1269 95
1215 1335 139
1216 1174 83
1216 1258 96
1216 1401 238
1217 1184 39
1217 1214 69
1217 1241 40
1218 1166 59
1218 1221 132
1218 1337 128
1219 1161 69
1219 1220 84
1219 1250 46
1220 1219 84
1221 1180 44
1221 1218 132
1221 1222 124
1222 1181 43
1222 1221 124
1222 1246 42
1223 1208 21
1223 1210 146
1223 1368 151
1224 1155 98
1224 1188 69
1224 1237 62
1224 1274 82
1225 1186 67
1225 1198 39
1226 1190 53
1226 1233 29
1227 1211 231
1227 1229 84
1228 1074 344
1228 1021 507
1228 1236 45
1229 1227 84
1229 1230 37
1229 1255 126
1230 1229 37
1231 1213 36
1231 1190 63
1231 1268 85
1231 1269 63
1232 1136 130
1232 1292 81
1233 1226 29
1233 1199 56
1233 1268 53
1233 1273 71
1234 1199 71
1234 1077 198
1234 1273 59
1235 1169 147
1235 1069 242
1235 1242 14
1235 1262 58
1236 1228 45
1236 1402 303
1236 1558 456
1237 1177 100
1237 1224 62
1237 1272 67
1237 1312 86
1238 1189 70
1238 1267 36
1239 1188 82
1239 1163 117
1239 1274 65
1239 1302 80
1240 1160 116
1240 1302 87
1240 1345 150
1240 1377 139
1241 1217 40
1241 1245 99
1241 1249 7
1242 1174 153
1242 1235 14
1242 1271 55
1243 1214 46
1243 1249 63
1243 1278 35
1244 1202 78
1244 1349 101
1245 1178 87
1245 1241 99
1245 1247 37
1245 1288 45
1246 1222 42
1247 1182 87
1247 1245 37
1247 1248 38
1248 1185 85
1248 1247 38
1248 1251 56
1249 1241 7
1249 1243 63
1249 1283 35
1250 1219 46
1250 1259 44
1250 1315 66
1251 1192 79
1251 1248 56
1251 1322 80
1252 1183 207
1252 1264 74
1252 1342 130
1253 1254 54
1254 1253 54
1254 1258 21
1254 1263 12
1255 1229 126
1256 1257 44
1257 1256 44
1257 942 554
1257 1336 103
1257 1345 133
1258 1254 21
1258 1216 96
1258 1275 24
1259 1171 113
1259 1250 44
1259 1284 99
1260 1261 56
1261 1260 56
1261 1281 93
1261 1350 88
1262 1235 58
1262 1131 220
1262 1271 13
1262 1438 271
1263 1254 12
1263 1270 8
1264 1252 74
1264 1154 276
1265 1040 361
1265 1333 60
1266 1114 187
1266 1186 132
1266 1329 73
1267 1238 36
1267 1204 146
1267 1300 61
1267 1360 100
1268 1231 85
1268 1233 53
1268 1303 71
1268 1320 59
1269 1215 95
1269 1231 63
1269 1320 83
1270 1263 8
1270 1275 21
1270 1290 38
1271 1242 55
1271 1262 13
1271 1310 61
1272 1204 95
1272 1237 67
1272 1319 68
1272 1357 89
1273 1233 71
1273 1234 59
1273 1303 43
1273 1329 72
1274 1224 82
1274 1239 65
1274 1312 67
1274 1355 90
1275 1258 24
1275 1270 21
1275 1369 107
1276 1277 271
1277 1276 271
1277 1282 694
1277 1339 73
1278 1243 35
1278 1283 67
1278 1314 34
1279 1280 184
1280 1279 184
1281 1139 177
1281 1261 93
1281 1318 35
1282 1277 694
1283 1249 35
1283 1278 67
1283 1285 17
1283 1321 32
1284 1196 107
1284 1259 99
1284 1305 25
1285 1283 17
1285 1288 81
1285 1304 23
1286 1287 230
1286 1136 318
1286 1295 8
1287 1286 230
1288 1245 45
1288 1285 81
1288 1291 43
1288 1362 64
1289 1290 72
1290 1289 72
1290 1270 38
1290 1403 167
1291 1288 43
1292 1232 81
1292 1142 212
1292 1508 223
1293 1294 75
1293 1379 76
1294 1293 75
1294 1379 156
1295 1286 8
1295 1296 89
1295 1515 225
1296 1295 89
1296 936 450
1297 1298 187
1298 1297 187
1299 1300 98
1300 1299 98
1300 1267 61
1300 1351 78
1300 1404 98
1301 1201 157
1301 1338 42
1301 1392 137
1302 1239 80
1302 1240 87
1302 1355 61
1302 1377 74
1303 1268 71
1303 1273 43
1303 1356 74
1303 1361 61
1304 1285 23
1304 1362 91
1305 1284 25
1305 1308 135
1305 1344 32
1306 1159 227
1306 1313 12
1306 1317 5
1306 1425 118
1307 1209 115
1307 1309 33
1307 1331 14
1308 1305 135
1308 1317 60
1308 1358 43
1309 1212 115
1309 1307 33
1309 1314 35
1310 1271 61
1310 1340 47
1310 1606 508
1311 1208 695
1311 1343 364
1311 1368 568
1312 1237 86
1312 1274 67
1312 1357 69
1312 1418 97
1313 1195 136
1313 1306 12
1313 1330 111
1314 1278 34
1314 1309 35
1314 1321 69
1314 1359 39
1315 1250 66
1315 1316 21
1315 1324 39
1316 1315 21
1317 1306 5
1317 1308 60
1317 1371 45
1318 1281 35
1318 1334 10
1318 1337 122
1319 1272 68
1319 1360 73
1319 1410 86
1320 1269 83
1320 1268 59
1320 1347 39
1320 1361 70
1321 1283 32
1321 1314 69
1321 1348 29
1322 1251 80
1322 1400 80
1322 1427 143
1323 1324 36
1324 1323 36
1324 1315 39
1324 1344 102
1324 1364 37
1325 1326 42
1325 1350 47
1325 1427 106
1326 1325 42
1327 1328 53
1328 1327 53
1328 1369 53
1328 1421 109
1329 1273 72
1329 1266 73
1329 1356 38
1330 1206 129
1330 1313 111
1330 1331 40
1330 1397 62
1331 1307 14
1331 1330 40
1331 1354 25
1332 1333 167
1332 1346 238
1333 1332 167
1333 1265 60
1333 1503 159
1334 1318 10
1335 1215 139
1335 1338 49
1335 1341 49
1335 1409 140
1335 1432 84
1336 1257 103
1336 1363 127
1336 1367 147
1337 1218 128
1337 1318 122
1337 1461 110
1338 1301 42
1338 1335 49
1338 1341 4
1339 1277 73
1339 1388 43
1340 1310 47
1340 1408 105
1340 1411 60
1341 1338 4
1341 1335 49
1341 1366 36
1342 1252 130
1343 1311 364
1344 1305 32
1344 1324 102
1344 1372 126
1344 1381 31
1345 1240 150
1345 1257 133
1345 1363 52
1345 1373 24
1346 1145 267
1346 1332 238
1346 1527 247
1347 1320 39
1347 1409 57
1347 1413 69
1348 1321 29
1348 1370 13
1348 1470 148
1349 1244 101
1349 1378 51
1350 1261 88
1350 1325 47
1350 1399 80
1351 1300 78
1351 1395 57
1351 1450 102
1352 1353 57
1353 1352 57
1354 1331 25
1354 1359 67
1354 1398 34
1355 1274 90
1355 1302 61
1355 1418 71
1355 1452 91
1356 1303 74
1356 1329 38
1356 1422 67
1356 1453 104
1357 1272 89
1357 1312 69
1357 1410 67
1357 1449 93
1358 1308 43
1358 1371 72
1358 1372 8
1359 1314 39
1359 1354 67
1359 1370 71
1359 1417 43
1360 1267 100
1360 1319 73
1360 1404 62
1360 1437 80
1361 1320 70
1361 1303 61
1361 1413 48
1361 1422 70
1362 1288 64
1362 1304 91
1362 1400 55
1363 1345 52
1363 1336 127
1363 1374 48
1364 1324 37
1364 1365 24
1364 1391 102
1364 1424 45
1365 1364 24
1365 1384 81
1366 1341 36
1366 1396 31
1366 1405 64
1367 1336 147
1367 1402 83
1368 1223 151
1368 1311 568
1368 1527 289
1369 1275 107
1369 1328 53
1369 1439 84
1369 1443 97
1370 1348 13
1370 1359 71
1370 1420 41
1371 1317 45
1371 1358 72
1371 1423 42
1372 1358 8
1372 1344 126
1372 1416 35
1373 1345 24
1373 1374 5
1373 1377 65
1373 1380 6
1374 1373 5
1374 1363 48
1374 1380 7
1375 1376 145
1376 1375 145
1376 1414 68
1376 1446 104
1377 1302 74
1377 1240 139
1377 1373 65
1377 1415 30
1378 1207 177
1378 1349 51
1378 1501 119
1379 1293 76
1379 1294 156
1379 1387 28
1380 1373 6
1380 1374 7
1380 1415 49
1380 1622 240
1381 1344 31
1381 1391 8
1381 1416 130
1382 1383 106
1383 1382 106
1384 1365 81
1384 1393 22
1384 1424 97
1385 1386 33
1385 1493 113
1386 1385 33
1386 1522 129
1387 1379 28
1387 1540 144
1388 1339 43
1388 1389 108
1388 1465 69
1389 1388 108
1390 1098 459
1390 1426 39
1390 1589 349
1391 1381 8
1391 1364 102
1391 1442 48
1392 1301 137
1392 1434 44
1393 1384 22
1393 1430 83
1393 1496 97
1394 1395 57
1395 1394 57
1395 1351 57
1395 1453 94
1395 1476 94
1396 1366 31
1396 1432 79
1396 1433 60
1397 1330 62
1398 1354 34
1399 1350 80
1399 1461 142
1399 1490 122
1400 1322 80
1400 1362 55
1400 1463 66
1400 1487 130
1401 1216 238
1401 1408 7
1401 1421 53
1402 1236 303
1402 1367 83
1402 1633 257
1403 1290 167
1403 1419 16
1403 1429 19
1404 1300 98
1404 1360 62
1404 1450 69
1404 1473 81
1405 1366 64
1405 1433 34
1405 1434 50
1406 1407 61
1407 1406 61
1408 1401 7
1408 1340 105
1408 1454 44
1409 1335 140
1409 1347 57
1409 1467 90
1410 1319 86
1410 1357 67
1410 1437 65
1410 1489 95
1411 1340 60
1411 1412 56
1411 1435 32
1411 1454 107
1412 1411 56
1413 1347 69
1413 1361 48
1413 1459 68
1414 1376 68
1415 1377 30
1415 1380 49
1415 1452 68
1416 1372 35
1416 1381 130
1416 1423 71
1416 1458 40
1417 1359 43
1417 1420 73
1417 1425 151
1418 1312 97
1418 1355 71
1418 1449 67
1418 1481 84
1418 1554 138
1419 1151 397
1419 1403 16
1419 1426 9
1419 1429 13
1420 1370 41
1420 1417 73
1420 1484 114
1421 1328 109
1421 1401 53
1421 1439 62
1422 1361 70
1422 1356 67
1422 1459 48
1422 1483 73
1423 1371 42
1423 1416 71
1423 1428 88
1424 1364 45
1424 1384 97
1424 1442 105
1425 1417 151
1425 1306 118
1425 1428 5
1426 1390 39
1426 1419 9
1426 1661 315
1427 1325 106
1427 1322 143
1427 1460 55
1427 1487 88
1428 1425 5
1428 1423 88
1428 1557 155
1429 1419 13
1429 1403 19
1429 1542 148
1430 1393 83
1430 1431 70
1430 1444 62
1430 1507 82
1431 1430 70
1432 1396 79
1432 1335 84
1432 1491 62
1432 1514 162
1433 1405 34
1433 1396 60
1433 1488 104
1434 1392 44
1434 1405 50
1434 1438 6
1435 1411 32
1435 1436 61
1435 1468 35
1435 1480 112
1436 1435 61
1437 1360 80
1437 1410 65
1437 1473 67
1437 1518 93
1438 1262 271
1438 1434 6
1438 1595 303
1439 1369 84
1439 1421 62
1439 1555 109
1440 1441 250
1441 1440 250
1442 1391 48
1442 1424 105
1442 1458 133
1442 1512 69
1443 1369 97
1443 1542 119
1443 1569 160
1444 1430 62
1444 1445 42
1444 1477 89
1444 1497 53
1445 1444 42
1446 1376 104
1446 1451 99
1446 1556 103
1447 1448 51
1448 1447 51
1449 1357 93
1449 1418 67
1449 1489 66
1450 1351 102
1450 1404 69
1450 1476 67
1450 1524 82
1451 1446 99
1451 1457 161
1452 1355 91
1452 1415 68
1452 1481 64
1452 1632 182
1453 1356 104
1453 1395 94
1453 1541 95
1454 1408 44
1454 1411 107
1454 1480 35
1455 1456 50
1456 1455 50
1456 1462 15
1456 1465 190
1457 1451 161
1458 1416 40
1458 1442 133
1458 1538 74
1459 1413 68
1459 1422 48
1459 1505 64
1460 1427 55
1460 1490 58
1460 1535 94
1461 1337 110
1461 1399 142
1461 1466 21
1462 1456 15
1462 1464 34
1462 1544 76
1463 1400 66
1463 1470 14
1463 1536 121
1464 1462 34
1465 1388 69
1465 1456 190
1465 1475 72
1465 1691 312
1466 1461 21
1466 1492 27
1467 1409 90
1467 1514 59
1467 1551 93
1468 1435 35
1468 1469 96
1468 1504 35
1468 1523 118
1469 1468 96
1470 1463 14
1470 1348 148
1470 1484 17
1471 1472 44
1472 1471 44
1472 1479 44
1472 1510 59
1473 1404 81
1473 1437 67
1473 1524 72
1473 1561 92
1474 1475 142
1475 1474 142
1475 1465 72
1475 1556 390
1476 1395 94
1476 1450 67
1476 1532 85
1476 1559 83
1477 1444 89
1477 1478 63
1477 1521 102
1477 1539 52
1478 1477 63
1479 1472 44
1479 1482 16
1479 1528 56
1480 1454 35
1480 1435 112
1480 1509 27
1481 1418 84
1481 1452 64
1481 1529 81
1482 1479 16
1483 1422 73
1483 1505 30
1483 1587 112
1484 1470 17
1484 1420 114
1484 1570 97
1484 1582 115
1484 1611 217
1485 1486 122
1486 1485 122
1487 1427 88
1487 1400 130
1487 1535 58
1487 1536 55
1488 1433 104
1488 1491 22
1489 1410 95
1489 1449 66
1489 1518 65
1489 1568 80
1490 1399 122
1490 1460 58
1490 1510 35
1490 1537 51
1491 1488 22
1491 1432 62
1491 1574 131
1491 1595 137
1492 1466 27
1492 1506 61
1492 1614 268
1492 1755 271
1493 1385 113
1494 1495 87
1495 1494 87
1495 1504 22
1495 1533 34
1496 1393 97
1496 1507 65
1496 1547 42
1497 1444 53
1497 1539 90
1497 1560 59
1498 1499 49
1499 1498 49
1499 1500 6
1499 1511 32
1500 1499 6
1500 1512 96
1500 1565 88
1501 1378 119
1501 1502 43
1501 1558 371
1501 1580 77
1502 1501 43
1502 1522 81
1502 1580 93
1503 1333 159
1503 1610 183
1503 2271 1288
1504 1468 35
1504 1495 22
1504 1566 120
1505 1459 64
1505 1483 30
1505 1551 68
1506 1492 61
1506 1513 52
1506 1601 93
1507 1496 65
1507 1430 82
1507 1573 56
1508 1292 223
1508 1515 10
1509 1480 27
1509 1523 10
1509 1555 121
1510 1472 59
1510 1490 35
1510 1549 47
1511 1499 32
1511 1516 9
1511 1598 89
1512 1442 69
1512 1500 96
1512 1538 138
1512 1562 39
1513 1506 52
1513 1528 50
1513 1600 83
1514 1432 162
1514 1467 59
1514 1574 63
1515 1295 225
1515 1508 10
1515 1543 22
1516 1511 9
1516 1517 59
1516 1546 47
1517 1516 59
1518 1437 93
1518 1489 65
1518 1561 66
1518 1594 88
1519 1520 215
1520 1519 215
1520 1530 72
1520 1540 350
1520 1583 73
1521 1477 102
1521 1550 60
1521 1578 51
1522 1502 81
1522 1386 129
1522 1540 65
1523 1509 10
1523 1468 118
1523 1566 34
1524 1450 82
1524 1473 72
1524 1559 64
1524 1596 91
1525 1526 139
1526 1525 139
1527 1368 289
1527 1346 247
1527 1591 202
1528 1513 50
1528 1479 56
1528 1545 13
1529 1481 81
1529 1554 34
1529 1593 131
1530 1520 72
1530 1531 97
1530 1605 88
1531 1530 97
1531 1553 87
1531 1784 332
1532 1476 85
1532 1541 7
1532 1597 83
1533 1495 34
1533 1534 109
1533 1571 34
1534 1533 109
1535 1460 94
1535 1487 58
1535 1575 48
1535 1576 53
1536 1487 55
1536 1463 121
1536 1575 59
1536 1582 62
1537 1490 51
1537 1576 51
1537 1588 81
1538 1458 74
1538 1512 138
1538 1581 45
1539 1497 90
1539 1477 52
1539 1578 103
1539 1584 52
1540 1522 65
1540 1387 144
1540 1520 350
1541 1453 95
1541 1532 7
1541 1587 91
1542 1429 148
1542 1443 119
1542 1657 160
1543 1147 687
1543 1515 22
1543 1552 12
1543 1616 132
1544 1462 76
1544 1548 13
1544 1577 34
1545 1528 13
1545 1549 8
1545 1603 64
1546 1516 47
1546 1547 11
1546 1624 89
1547 1546 11
1547 1496 42
1547 1573 51
1548 1544 13
1549 1545 8
1549 1510 47
1549 1588 61
1550 1521 60
1550 1652 172
1551 1467 93
1551 1505 68
1551 1641 106
1552 1034 944
1552 1543 12
1552 1625 129
1552 1697 171
1553 1531 87
1553 1567 148
1553 1729 285
1554 1418 138
1554 1529 34
1554 1568 20
1554 1579 25
1555 1439 109
1555 1509 121
1555 1569 46
1556 1446 103
1556 1475 390
1556 1567 17
1557 1428 155
1557 1611 76
1557 1612 65
1558 1236 456
1558 1501 371
1558 2523 1179
1559 1476 83
1559 1524 64
1559 1597 83
1559 1637 90
1560 1497 59
1560 1584 90
1560 1590 39
1561 1473 92
1561 1518 66
1561 1596 74
1561 1635 89
1562 1512 39
1563 1564 120
1564 1563 120
1565 1500 88
1566 1523 34
1566 1504 120
1566 1615 62
1567 1556 17
1567 1553 148
1567 1638 101
1568 1489 80
1568 1554 20
1568 1594 66
1569 1443 160
1569 1555 46
1569 1657 125
1570 1484 97
1570 1607 62
1570 1662 126
1571 1533 34
1571 1572 111
1571 1585 26
1572 1571 111
1573 1547 51
1573 1507 56
1573 1590 59
1573 1658 93
1574 1491 131
1574 1514 63
1575 1535 48
1575 1536 59
1575 1617 70
1576 1537 51
1576 1535 53
1576 1629 82
1576 1650 107
1577 1544 34
1578 1539 103
1578 1521 51
1578 1592 69
1578 1628 58
1579 1554 25
1579 1656 84
1579 1659 147
1580 1501 77
1580 1502 93
1580 1776 227
1581 1538 45
1582 1536 62
1582 1484 115
1582 1617 55
1583 1520 73
1583 1799 288
1584 1560 90
1584 1539 52
1584 1628 104
1584 1634 50
1585 1571 26
1585 1586 63
1585 1618 34
1585 1684 191
1586 1585 63
1587 1483 112
1587 1541 91
1587 1641 96
1587 1663 81
1588 1549 61
1588 1537 81
1588 1629 52
1589 1390 349
1589 1608 32
1589 1930 415
1590 1573 59
1590 1560 39
1590 1634 90
1590 1674 89
1591 1527 202
1591 1795 801
1591 1795 896
1592 1578 69
1592 1604 20
1592 1651 58
1593 1529 131
1593 1632 84
1593 1659 64
1594 1518 88
1594 1568 66
1594 1635 64
1594 1656 64
1595 1438 303
1595 1491 137
1595 1606 12
1595 1685 99
1596 1524 91
1596 1561 74
1596 1637 66
1596 1680 91
1597 1532 83
1597 1559 83
1597 1663 101
1597 1675 90
1598 1599 74
1598 1511 89
1598 1624 55
1598 1682 89
1599 1598 74
1600 1513 83
1600 1601 50
1600 1603 60
1601 1506 93
1601 1600 50
1601 1602 31
1602 1601 31
1603 1600 60
1603 1545 64
1603 1702 107
1604 1592 20
1605 1530 88
1605 1642 62
1605 1648 41
1606 1310 508
1606 1595 12
1606 1640 116
1606 1687 91
1607 1570 62
1608 1079 639
1608 1589 32
1608 2414 1025
1609 1610 173
1610 1609 173
1610 1503 183
1610 1630 110
1611 1484 217
1611 1557 76
1611 1623 13
1611 1649 36
1612 1557 65
1612 1613 74
1612 1623 47
1613 1612 74
1614 1492 268
1615 1566 62
1615 1684 73
1615 1737 262
1616 1543 132
1616 1142 633
1616 1625 9
1616 2452 1254
1617 1575 70
1617 1582 55
1617 1650 55
1618 1585 34
1618 1619 61
1618 1639 45
1618 1647 27
1619 1618 61
1620 1621 170
1621 1620 170
1621 1622 35
1621 1676 81
1622 1380 240
1622 1621 35
1622 1632 40
1622 1690 66
1623 1611 13
1623 1612 47
1623 1670 64
1624 1598 55
1624 1546 89
1624 1658 62
1624 1703 89
1625 1552 129
1625 1616 9
1625 1719 171
1625 1741 164
1626 1627 64
1627 1626 64
1627 1636 9
1627 1653 109
1628 1584 104
1628 1578 58
1628 1651 63
1628 1671 52
1629 1588 52
1629 1576 82
1630 1610 110
1630 1631 177
1630 1643 91
1630 1744 133
1631 1630 177
1632 1452 182
1632 1622 40
1632 1593 84
1632 1689 63
1633 1402 257
1634 1590 90
1634 1584 50
1634 1671 104
1634 1708 90
1635 1561 89
1635 1594 64
1635 1680 84
1635 1707 92
1636 1627 9
1636 1652 53
1636 1683 60
1637 1559 90
1637 1596 66
1637 1675 86
1637 1709 93
1638 1567 101
1639 1618 45
1640 1606 116
1640 1681 198
1640 1686 53
1641 1551 106
1641 1587 96
1641 1678 76
1641 1704 83
1642 1605 62
1643 1630 91
1643 1644 190
1643 1664 94
1644 1643 190
1645 1646 49
1646 1645 49
1646 1666 157
1646 1672 83
1646 1774 159
1647 1618 27
1647 1654 7
1647 1667 43
1648 1605 41
1648 1726 135
1648 1753 143
1649 1611 36
1649 1660 18
1649 1660 18
1649 1679 53
1650 1576 107
1650 1617 55
1650 1702 209
1651 1628 63
1651 1592 58
1651 1653 9
1651 1696 57
1652 1636 53
1652 1550 172
1652 1697 56
1653 1651 9
1653 1627 109
1653 1683 94
1654 1647 7
1654 1655 60
1654 1681 36
1655 1654 60
1656 1594 64
1656 1579 84
1656 1693 47
1656 1710 140
1657 1542 160
1657 1569 125
1657 1715 93
1658 1624 62
1658 1573 93
1658 1674 59
1658 1728 89
1659 1579 147
1659 1593 64
1659 1689 111
1659 1705 63
1660 1649 18
1660 1649 18
1660 1662 9
1660 1662 9
1661 1426 315
1661 1720 95
1661 1930 460
1662 1570 126
1662 1660 9
1662 1660 9
1662 1724 94
1663 1587 81
1663 1597 101
1663 1704 93
1663 1727 90
1664 1643 94
1664 1665 118
1664 1694 87
1665 1664 118
1666 1646 157
1666 1716 164
1666 1764 116
1667 1647 43
1668 1669 13
1669 1668 13
1669 1723 165
1669 1772 195
1670 1623 64
1670 1679 10
1670 1716 78
1671 1634 104
1671 1628 52
1671 1696 58
1671 1742 91
1672 1646 83
1672 1673 90
1672 1682 27
1672 1711 46
1673 1672 90
1674 1658 59
1674 1590 89
1674 1708 93
1674 1745 90
1675 1597 90
1675 1637 86
1675 1727 101
1675 1740 89
1676 1621 81
1676 1677 122
1676 1701 32
1677 1676 122
1678 1641 76
1678 1722 102
1678 1736 84
1679 1649 53
1679 1670 10
1679 1735 96
1679 1812 154
1680 1596 91
1680 1635 84
1680 1709 67
1680 1751 97
1681 1654 36
1681 1640 198
1681 1714 102
1682 1672 27
1682 1598 89
1682 1703 54
1683 1653 94
1683 1636 60
1683 1732 61
1684 1615 73
1684 1585 191
1684 1730 57
1685 1595 99
1685 1687 16
1685 1722 45
1686 1640 53
1686 1688 109
1686 1699 40
1687 1606 91
1687 1685 16
1687 1688 33
1687 1722 54
1688 1686 109
1688 1687 33
1689 1659 111
1689 1632 63
1689 1731 52
1690 1622 66
1690 1721 42
1690 1761 96
1691 1465 312
1691 1692 27
1691 1700 11
1692 1691 27
1693 1656 47
1693 1707 28
1693 1725 71
1694 1664 87
1694 1695 182
1694 1698 4
1694 1706 166
1695 1694 182
1696 1671 58
1696 1651 57
1696 1732 104
1697 1652 56
1697 1552 171
1697 1741 103
1697 1766 86
1698 1694 4
1699 1686 40
1699 1767 92
1699 1796 159
1700 1691 11
1700 1830 155
1701 1676 32
1701 1761 99
1701 1794 141
1702 1603 107
1702 1650 209
1702 1755 204
1703 1682 54
1703 1624 89
1703 1728 62
1703 1770 83
1704 1641 83
1704 1663 93
1704 1736 74
1704 1771 90
1705 1659 63
1705 1710 6
1706 1694 166
1706 1780 560
1706 1790 138
1707 1635 92
1707 1693 28
1707 1718 18
1708 1674 93
1708 1634 90
1708 1742 103
1708 1786 91
1709 1637 93
1709 1680 67
1709 1740 83
1709 1778 95
1710 1656 140
1710 1705 6
1710 1731 132
1710 1747 56
1711 1672 46
1711 1717 49
1711 1770 71
1712 1713 132
1713 1712 132
1714 1681 102
1714 1730 50
1714 1823 154
1715 1657 93
1715 1737 45
1716 1670 78
1716 1666 164
1717 1711 49
1718 1707 18
1718 1751 62
1718 1777 83
1719 1625 171
1719 1819 130
1719 2251 843
1720 1661 95
1720 1964 359
1721 1690 42
1721 1763 47
1721 1769 58
1722 1687 54
1722 1685 45
1722 1678 102
1722 1734 65
1722 1746 40
1723 1669 165
1723 1758 49
1723 1765 106
1724 1662 94
1725 1693 71
1725 1747 62
1725 1777 78
1726 1648 135
1727 1663 90
1727 1675 101
1727 1771 92
1727 1788 83
1728 1703 62
1728 1658 89
1728 1745 59
1728 1810 95
1729 1553 285
1730 1684 57
1730 1714 50
1730 1754 53
1730 1820 121
1731 1689 52
1731 1710 132
1731 1797 73
1732 1696 104
1732 1683 61
1732 1766 87
1732 1814 91
1733 1734 29
1734 1733 29
1734 1722 65
1734 1749 55
1734 1781 58
1735 1679 96
1735 1762 48
1735 1779 72
1735 1837 110
1736 1678 84
1736 1704 74
1736 1752 20
1736 1793 103
1737 1715 45
1737 1615 262
1737 1807 97
1738 1739 81
1739 1738 81
1739 1773 33
1739 1789 178
1740 1675 89
1740 1709 83
1740 1788 93
1740 1826 98
1741 1697 103
1741 1625 164
1741 1775 84
1741 1804 68
1742 1708 103
1742 1671 91
1742 1756 26
1742 1831 95
1743 1744 165
1744 1743 165
1744 1630 133
1744 1773 166
1745 1728 59
1745 1674 90
1745 1786 95
1745 1835 96
1746 1722 40
1746 1781 63
1746 1793 52
1747 1725 62
1747 1710 56
1747 1797 148
1747 1798 68
1748 1749 33
1749 1748 33
1749 1734 55
1749 1767 47
1749 1845 113
1750 1751 6
1750 1778 61
1750 1848 149
1751 1750 6
1751 1680 97
1751 1718 62
1752 1736 20
1753 1648 143
1754 1730 53
1754 1792 50
1754 1808 73
1755 1492 271
1755 1702 204
1755 1899 254
1756 1742 26
1756 1785 66
1756 1849 97
1757 1758 32
1758 1757 32
1758 1723 49
1758 1805 111
1759 1760 103
1759 1794 175
1759 1941 227
1760 1759 103
1761 1690 96
1761 1701 99
1761 1763 47
1761 1821 60
1762 1735 48
1762 1768 36
1762 1854 109
1763 1721 47
1763 1761 47
1763 1769 34
1763 1828 68
1764 1666 116
1765 1723 106
1765 1800 80
1765 1805 47
1766 1732 87
1766 1697 86
1766 1803 42
1767 1699 92
1767 1749 47
1767 1782 58
1767 1869 124
1768 1762 36
1768 1822 262
1768 2107 353
1769 1721 58
1769 1763 34
1769 1834 68
1770 1711 71
1770 1703 83
1770 1787 18
1771 1704 90
1771 1727 92
1771 1813 76
1772 1669 195
1772 1800 133
1772 1809 61
1773 1744 166
1773 1739 33
1773 1818 171
1773 1868 102
1774 1646 159
1775 1741 84
1775 1819 94
1775 1842 78
1776 1580 227
1776 1949 180
1776 2094 411
1777 1718 83
1777 1725 78
1777 1811 60
1778 1709 95
1778 1750 61
1778 1826 85
1778 1843 84
1779 1735 72
1779 1825 47
1780 1706 560
1780 1838 437
1780 1996 247
1781 1734 58
1781 1746 63
1781 1824 44
1782 1783 63
1782 1767 58
1782 1802 34
1782 1856 91
1783 1782 63
1784 1531 332
1784 1806 39
1784 1806 908
1785 1756 66
1785 1814 64
1785 1861 93
1786 1745 95
1786 1708 91
1786 1817 56
1786 1872 94
1787 1770 18
1787 1810 51
1787 1822 99
1787 1857 80
1788 1727 83
1788 1740 93
1788 1840 98
1788 1873 100
1789 1739 178
1789 1790 68
1789 1818 25
1790 1789 68
1790 1706 138
1790 1791 4
1791 1790 4
1791 1876 93
1791 1898 284
1792 1754 50
1792 1807 89
1792 1827 48
1792 1841 71
1793 1746 52
1793 1736 103
1793 1824 63
1793 1858 85
1794 1701 141
1794 1759 175
1794 1821 106
1795 1591 801
1795 1815 730
1795 1591 896
1796 1699 159
1796 1823 48
1796 1832 57
1797 1747 148
1797 1731 73
1797 1982 196
1798 1747 68
1798 1811 16
1798 1839 108
1799 1583 288
1799 1816 95
1799 1925 145
1800 1765 80
1800 1772 133
1800 1838 48
1801 1802 55
1802 1801 55
1802 1782 34
1802 1832 52
1802 1864 92
1803 1766 42
1803 1844 102
1803 1846 51
1804 1741 68
1804 1842 86
1804 1844 46
1805 1758 111
1805 1765 47
1806 1784 39
1806 1862 64
1806 1784 908
1807 1737 97
1807 1792 89
1807 1945 198
1808 1754 73
1808 1841 52
1808 1847 62
1809 1772 61
1809 1838 157
1809 1922 177
1810 1787 51
1810 1728 95
1810 1835 59
1810 1857 56
1811 1777 60
1811 1798 16
1811 1836 37
1812 1679 154
1812 1825 33
1813 1771 76
1813 1858 99
1813 1880 88
1814 1785 64
1814 1732 91
1814 1846 89
1814 1887 93
1815 1795 730
1816 1799 95
1817 1786 56
1817 1831 47
1817 1893 91
1818 1773 171
1818 1789 25
1818 1908 105
1819 1775 94
1819 1719 130
1819 1879 77
1820 1730 121
1820 1823 71
1820 1833 29
1820 1847 49
1821 1761 60
1821 1794 106
1821 1828 54
1821 1852 43
1822 1768 262
1822 1787 99
1822 1857 133
1823 1714 154
1823 1796 48
1823 1820 71
1823 1829 16
1824 1781 44
1824 1793 63
1824 1845 58
1824 1882 81
1825 1812 33
1825 1779 47
1825 1837 41
1825 1883 71
1826 1740 98
1826 1778 85
1826 1873 99
1826 1892 88
1827 1792 48
1827 1874 68
1828 1763 68
1828 1821 54
1828 1834 43
1828 1865 44
1829 1823 16
1829 1833 67
1829 1859 54
1830 1700 155
1830 1911 116
1831 1817 47
1831 1742 95
1831 1849 51
1831 1912 91
1832 1796 57
1832 1802 52
1832 1859 46
1832 1896 92
1833 1820 29
1833 1829 67
1833 1897 91
1834 1769 68
1834 1828 43
1834 1938 119
1835 1810 59
1835 1745 96
1835 1872 97
1835 1881 54
1836 1811 37
1836 1848 22
1836 1886 134
1837 1825 41
1837 1735 110
1837 1875 42
1838 1800 48
1838 1809 157
1838 1780 437
1839 1798 108
1839 1878 49
1840 1788 98
1840 1880 73
1840 1921 99
1841 1792 71
1841 1808 52
1841 1874 45
1841 1891 74
1842 1804 86
1842 1775 78
1842 1871 31
1842 1879 94
1843 1778 84
1843 1860 41
1843 1895 70
1844 1803 102
1844 1804 46
1844 1871 87
1844 1894 54
1845 1749 113
1845 1824 58
1845 1869 47
1846 1814 89
1846 1803 51
1846 1870 46
1846 1928 89
1847 1808 62
1847 1820 49
1847 1863 23
1847 1891 51
1848 1750 149
1848 1836 22
1848 1905 61
1849 1831 51
1849 1756 97
1849 1861 31
1849 1944 95
1850 1851 47
1851 1850 47
1851 1866 53
1851 1927 76
1852 1821 43
1852 1853 61
1852 1865 53
1852 1923 71
1853 1852 61
1853 1907 71
1854 1762 109
1854 1855 53
1854 1875 53
1855 1854 53
1856 1782 91
1857 1822 133
1857 1787 80
1857 1810 56
1857 1881 55
1858 1793 85
1858 1813 99
1858 1882 65
1858 1932 87
1859 1829 54
1859 1832 46
1859 1897 49
1859 1937 99
1860 1843 41
1860 1877 47
1860 1892 48
1861 1849 31
1861 1785 93
1861 1887 68
1862 1806 64
1863 1847 23
1863 1900 53
1863 1929 92
1864 1802 92
1864 1896 47
1865 1828 44
1865 1852 53
1865 1935 70
1866 1851 53
1866 1867 60
1866 1884 94
1867 1866 60
1868 1773 102
1868 1901 36
1868 1908 173
1869 1767 124
1869 1845 47
1869 1959 155
1870 1846 46
1870 1894 54
1870 1950 86
1871 1844 87
1871 1842 31
1871 1920 56
1872 1835 97
1872 1786 94
1872 1893 53
1872 1919 54
1873 1788 100
1873 1826 99
1873 1921 95
1873 1948 88
1874 1827 68
1874 1841 45
1874 1931 84
1875 1837 42
1875 1854 53
1875 1883 49
1876 1791 93
1877 1860 47
1877 1895 41
1877 1918 44
1878 1839 49
1878 1904 33
1878 1953 106
1878 2001 208
1879 1842 94
1879 1819 77
1879 1902 59
1879 1962 88
1880 1813 88
1880 1840 73
1880 1932 98
1880 1958 91
1881 1857 55
1881 1835 54
1881 1913 93
1881 1961 84
1882 1824 81
1882 1858 65
1882 2034 276
1883 1825 71
1883 1875 49
1884 1866 94
1884 1885 44
1884 1917 129
1884 1940 51
1885 1884 44
1886 1836 134
1886 1953 69
1887 1861 68
1887 1814 93
1887 1928 91
1887 1981 94
1888 1889 172
1888 1890 56
1888 1909 51
1889 1888 172
1890 1888 56
1891 1841 74
1891 1847 51
1891 1900 14
1891 1931 48
1892 1826 88
1892 1860 48
1892 1918 71
1892 1948 102
1892 1951 62
1893 1872 53
1893 1817 91
1893 1912 51
1894 1870 54
1894 1844 54
1894 1920 89
1894 1973 85
1895 1877 41
1895 1843 70
1895 1905 40
1896 1832 92
1896 1864 47
1896 1906 15
1897 1833 91
1897 1859 49
1897 1929 50
1897 1965 90
1898 1791 284
1898 1936 67
1898 1947 47
1899 1755 254
1899 1922 77
1900 1891 14
1900 1863 53
1900 1943 48
1900 1970 88
1901 1868 36
1902 1879 59
1902 1903 46
1902 1914 14
1903 1902 46
1904 1878 33
1904 1983 75
1905 1895 40
1905 1848 61
1905 1934 78
1905 1952 45
1906 1896 15
1906 1937 48
1907 1853 71
1907 1923 61
1907 1968 55
1908 1868 173
1908 1818 105
1908 1956 200
1908 1963 51
1909 1910 76
1909 1888 51
1909 1954 83
1910 1909 76
1911 1830 116
1911 1924 65
1911 2035 351
1912 1893 51
1912 1831 91
1912 1933 45
1912 1955 45
1913 1881 93
1913 1919 5
1913 2011 87
1914 1902 14
1914 1992 76
1914 1994 76
1915 1916 72
1915 1971 112
1915 1971 78
1916 1915 72
1917 1884 129
1917 1963 174
1917 1972 51
1918 1892 71
1918 1877 44
1918 1952 82
1918 1977 60
1919 1913 5
1919 1872 54
1919 1955 104
1920 1894 89
1920 1871 56
1920 1962 93
1920 2017 94
1921 1840 99
1921 1873 95
1921 1958 77
1921 2005 85
1922 1809 177
1922 1899 77
1922 1979 65
1922 1989 81
1923 1852 71
1923 1907 61
1923 1935 53
1923 1980 53
1924 1911 65
1925 1799 145
1925 1966 49
1925 2019 151
1926 1927 314
1927 1926 314
1927 1851 76
1927 2010 149
1928 1887 91
1928 1846 89
1928 1950 44
1928 2029 96
1929 1863 92
1929 1897 50
1929 1970 51
1929 1995 78
1930 1589 415
1930 1661 460
1930 2301 496
1931 1874 84
1931 1891 48
1931 1943 15
1931 1945 24
1932 1858 87
1932 1880 98
1932 2016 89
1932 2054 200
1933 1912 45
1933 1944 20
1933 1975 41
1934 1905 78
1934 1953 56
1934 1985 47
1935 1865 70
1935 1923 53
1935 1938 12
1935 1993 54
1936 1898 67
1936 1976 42
1936 1996 114
1937 1859 99
1937 1906 48
1937 1959 39
1937 1965 50
1938 1834 119
1938 1935 12
1938 2044 92
1939 1940 107
1940 1939 107
1940 1884 51
1940 1972 130
1940 2010 63
1941 1759 227
1941 1942 540
1941 1997 60
1942 1941 540
1943 1931 15
1943 1900 48
1943 2008 78
1944 1933 20
1944 1849 95
1944 1981 77
1945 1807 198
1945 1931 24
1945 1957 22
1946 1947 49
1947 1946 49
1947 1898 47
1947 1976 60
1947 1990 43
1948 1873 88
1948 1892 102
1948 2005 96
1948 2012 67
1949 1776 180
1950 1928 44
1950 1870 86
1950 1973 53
1951 1892 62
1951 1977 75
1951 2002 49
1952 1918 82
1952 1905 45
1952 1985 78
1952 2014 61
1953 1934 56
1953 1886 69
1953 1878 106
1953 1967 32
1954 1909 83
1954 1984 49
1954 2182 298
1955 1919 104
1955 1912 45
1955 1975 43
1955 2020 56
1956 1908 200
1956 1986 83
1956 2018 50
1957 1945 22
1957 1988 44
1957 2025 77
1958 1880 91
1958 1921 77
1958 2016 92
1958 2050 87
1959 1937 39
1959 1869 155
1959 2034 61
1959 2066 160
1960 1961 61
1961 1960 61
1961 1881 84
1961 2011 99
1961 2030 61
1962 1920 93
1962 1879 88
1962 1994 60
1962 2065 94
1963 1917 174
1963 1908 51
1963 2018 204
1963 2022 51
1964 1720 359
1964 1978 18
1964 2004 34
1965 1897 90
1965 1937 50
1965 1995 52
1966 1925 49
1966 1974 10
1966 1987 37
1967 1953 32
1967 1983 36
1967 2021 48
1968 1907 55
1968 1969 44
1968 1980 59
1968 2037 58
1969 1968 44
1970 1900 88
1970 1929 51
1970 2008 46
1970 2027 65
1971 1915 112
1971 1915 78
1971 2019 47
1972 1940 130
1972 1917 51
1972 2022 174
1972 2033 49
1973 1950 53
1973 1894 85
1973 2017 91
1973 2069 95
1974 1966 10
1974 1984 7
1974 2013 46
1975 1955 43
1975 1933 41
1976 1947 60
1976 1936 42
1976 2009 26
1976 2051 117
1977 1951 75
1977 1918 60
1977 2014 76
1977 2039 52
1978 1964 18
1978 1998 18
1978 2036 65
1979 1922 65
1979 1989 16
1979 2041 119
1979 2108 123
1980 1923 53
1980 1968 59
1980 1993 53
1980 2048 60
1981 1944 77
1981 1887 94
1981 2029 92
1981 2081 92
1982 1797 196
1982 2028 42
1982 2038 45
1983 1967 36
1983 1904 75
1983 2001 43
1984 1974 7
1984 1954 49
1984 2040 53
1985 1952 78
1985 1934 47
1985 2021 89
1985 2047 62
1986 1956 83
1986 2046 52
1987 1966 37
1987 2003 67
1987 2013 21
1988 1957 44
1988 2015 35
1989 1922 81
1989 1979 16
1989 2061 78
1990 1991 54
1990 1947 43
1990 2009 58
1991 1990 54
1992 1914 76
1992 2026 30
1992 2043 48
1993 1935 54
1993 1980 53
1993 2063 60
1994 1962 60
1994 1914 76
1994 2026 55
1994 2095 92
1995 1929 78
1995 1965 52
1995 2027 52
1996 1936 114
1996 1780 247
1996 2111 154
1997 1941 60
1997 2024 99
1997 2172 181
1998 1978 18
1998 2004 25
1998 2032 35
1999 2000 23
2000 1999 23
2000 2049 83
2000 2071 68
2001 1983 43
2001 1878 208
2001 2028 70
2001 2055 50
2002 1951 49
2002 2012 11
2002 2039 75
2003 1987 67
2004 1964 34
2004 1998 25
2004 2301 367
2005 1921 85
2005 1948 96
2005 2050 79
2005 2112 108
2006 2007 138
2007 2006 138
2007 2184 170
2008 1943 78
2008 1970 46
2008 2015 9
2008 2064 66
2009 1990 58
2009 1976 26
2009 2114 141
2010 1927 149
2010 1940 63
2010 2033 136
2011 1961 99
2011 1913 87
2011 2056 103
2011 2072 59
2012 1948 67
2012 2002 11
2012 2057 42
2013 1987 21
2013 1974 46
2013 2045 32
2014 1977 76
2014 1952 61
2014 2047 81
2014 2067 52
2015 1988 35
2015 2008 9
2015 2068 66
2016 1932 89
2016 1958 92
2016 2052 52
2016 2103 87
2017 1973 91
2017 1920 94
2017 2065 92
2017 2116 91
2018 1963 204
2018 1956 50
2018 2046 79
2018 2076 52
2019 1971 47
2019 1925 151
2019 2138 154
2020 1955 56
2020 2056 34
2020 2081 136
2021 1985 89
2021 1967 48
2021 2055 79
2021 2089 64
2022 1972 174
2022 1963 51
2022 2076 203
2022 2084 57
2023 2024 20
2024 2023 20
2024 1997 99
2024 2037 51
2024 2101 68
2025 1957 77
2025 23757 583
2026 1994 55
2026 1992 30
2026 2043 41
2026 2118 90
2027 1970 65
2027 1995 52
2027 2064 45
2027 2066 47
2028 2001 70
2028 1982 42
2028 2038 23
2029 1981 92
2029 1928 96
2029 2069 91
2029 2124 90
2030 2031 57
2030 1961 61
2030 2053 56
2030 2132 93
2031 2030 57
2032 1998 35
2032 2157 158
2032 2236 281
2033 2010 136
2033 1972 49
2033 2084 168
2034 1959 61
2034 1882 276
2034 2126 136
2034 2130 102
2035 1911 351
2035 2154 339
2036 1978 65
2036 2629 602
2037 1968 58
2037 2024 51
2037 2048 57
2037 2060 21
2038 2028 23
2038 1982 45
2038 2044 20
2038 2096 53
2039 2002 75
2039 1977 52
2039 2067 74
2039 2092 50
2040 1984 53
2040 2193 201
2041 2042 157
2041 1979 119
2042 2041 157
2042 2100 56
2043 2026 41
2043 1992 48
2043 2166 139
2044 2038 20
2044 1938 92
2044 2063 46
2044 2367 252
2045 2013 32
2046 2018 79
2046 1986 52
2046 2102 46
2047 2014 81
2047 1985 62
2047 2089 89
2047 2106 52
2048 1980 60
2048 2037 57
2048 2063 51
2048 2083 29
2049 2000 83
2049 2109 61
2050 1958 87
2050 2005 79
2050 2103 87
2050 2159 116
2051 1976 117
2051 2114 53
2052 2016 52
2052 2082 48
2052 2133 83
2053 2030 56
2053 2072 47
2053 2150 94
2054 1932 200
2054 2093 61
2054 2139 86
2055 2021 79
2055 2001 50
2055 2096 94
2055 2129 64
2056 2011 103
2056 2020 34
2056 2074 42
2056 2123 60
2057 2012 42
2057 2085 28
2057 2092 76
2058 2059 50
2058 2070 31
2058 2122 60
2059 2058 50
2060 2037 21
2061 2062 140
2061 1989 78
2061 2078 67
2062 2061 140
2063 2044 46
2063 1993 60
2063 2048 51
2063 2073 38
2064 2008 66
2064 2027 45
2064 2068 10
2065 2017 92
2065 1962 94
2065 2095 61
2066 2027 47
2066 1959 160
2066 2105 55
2066 2126 64
2067 2039 74
2067 2014 52
2067 2106 81
2067 2128 52
2068 2015 66
2068 2064 10
2068 2105 36
2069 2029 91
2069 1973 95
2069 2116 99
2069 2169 92
2070 2058 31
2070 2086 31
2070 2135 61
2071 2000 68
2071 2087 12
2071 2109 72
2072 2053 47
2072 2011 59
2072 2123 102
2072 2311 190
2073 2063 38
2073 2083 20
2073 2185 103
2074 2056 42
2074 2075 23
2074 2137 61
2075 2074 23
2076 2022 203
2076 2018 52
2076 2102 87
2076 2198 109
2077 2078 165
2078 2077 165
2078 2061 67
2078 2099 61
2079 2080 60
2079 2163 128
2080 2079 60
2080 2097 73
2080 2199 107
2081 2020 136
2081 1981 92
2081 2124 94
2081 2179 98
2082 2052 48
2082 2110 48
2082 2161 84
2083 2073 20
2083 2048 29
2083 2113 42
2084 2033 168
2084 2022 57
2084 2198 216
2085 2057 28
2085 2112 39
2085 2117 30
2086 2070 31
2086 2107 40
2086 2149 60
2087 2071 12
2087 2088 99
2087 2205 103
2088 2087 99
2089 2047 89
2089 2021 64
2089 2129 85
2089 2144 52
2090 2091 27
2091 2090 27
2091 2115 63
2091 2298 165
2092 2057 76
2092 2039 50
2092 2128 76
2092 2143 49
2093 2054 61
2093 2131 37
2093 2186 171
2094 1776 411
2094 2138 43
2094 2298 289
2095 2065 61
2095 1994 92
2095 2118 52
2096 2055 94
2096 2038 53
2096 2156 63
2097 2080 73
2097 2104 37
2097 2190 87
2098 2099 201
2099 2098 201
2099 2078 61
2099 2174 192
2100 2042 56
2100 2108 197
2100 2170 196
2101 2024 68
2101 2125 47
2101 2172 121
2102 2076 87
2102 2046 46
2102 2104 10
2102 2173 66
2103 2016 87
2103 2050 87
2103 2133 52
2103 2164 70
2104 2102 10
2104 2097 37
2105 2068 36
2105 2066 55
2105 2145 50
2106 2067 81
2106 2047 52
2106 2144 91
2106 2153 50
2107 2086 40
2107 1768 353
2107 2120 34
2107 2162 58
2108 1979 123
2108 2100 197
2108 2170 68
2109 2049 61
2109 2071 72
2110 2082 48
2110 2139 55
2110 2191 88
2111 1996 154
2111 2189 102
2111 2194 79
2112 2005 108
2112 2085 39
2112 2159 79
2112 2167 53
2113 2083 42
2113 2140 26
2114 2009 141
2114 2051 53
2114 2127 19
2115 2091 63
2115 2119 69
2116 2069 99
2116 2017 91
2116 2136 93
2116 2216 97
2117 2085 30
2117 2143 80
2117 2167 46
2118 2095 52
2118 2026 90
2118 2141 49
2118 2155 42
2119 2115 69
2120 2107 34
2120 2134 33
2120 2181 62
2121 2122 47
2122 2121 47
2122 2058 60
2122 2135 33
2123 2072 102
2123 2056 60
2123 2137 37
2123 2362 190
2124 2081 94
2124 2029 90
2124 2169 91
2124 2230 98
2125 2101 47
2125 2140 39
2125 2206 78
2126 2066 64
2126 2034 136
2126 2160 56
2127 2114 19
2128 2092 76
2128 2067 52
2128 2153 82
2128 2168 40
2129 2089 85
2129 2055 64
2129 2156 93
2129 2178 52
2130 2034 102
2130 2217 157
2131 2093 37
2131 2214 77
2131 2218 135
2132 2030 93
2132 2150 48
2132 2225 89
2133 2052 83
2133 2103 52
2133 2161 51
2133 2203 68
2134 2120 33
2134 2146 31
2134 2204 66
2135 2122 33
2135 2070 61
2135 2149 32
2136 2116 93
2136 2155 114
2136 2285 118
2137 2123 37
2137 2074 61
2137 2179 92
2138 2094 43
2138 2019 154
2138 2193 157
2139 2054 86
2139 2110 55
2139 2246 92
2140 2113 26
2140 2125 39
2140 2185 54
2141 2118 49
2141 2142 80
2141 2166 50
2141 2188 49
2142 2141 80
2143 2117 80
2143 2092 49
2143 2168 75
2143 2187 46
2144 2106 91
2144 2089 52
2144 2178 82
2144 2196 50
2145 2105 50
2145 2151 4
2145 2151 12
2146 2134 31
2146 2158 32
2146 2233 73
2147 2148 46
2148 2147 46
2148 2152 59
2148 2154 12
2149 2135 32
2149 2086 60
2149 2162 37
2150 2132 48
2150 2053 94
2150 2264 96
2151 2145 4
2151 2145 12
2151 2157 28
2151 2160 13
2152 2148 59
2153 2128 82
2153 2106 50
2153 2196 88
2153 2268 88
2154 2035 339
2154 2148 12
2154 2208 40
2155 2136 114
2155 2118 42
2155 2188 51
2155 2346 149
2156 2129 93
2156 2096 63
2156 2221 52
2157 2032 158
2157 2151 28
2157 2253 82
2158 2146 32
2158 2177 35
2158 2255 73
2159 2050 116
2159 2112 79
2159 2165 4
2160 2151 13
2160 2126 56
2160 2213 74
2161 2082 84
2161 2133 51
2161 2191 46
2161 2238 69
2162 2149 37
2162 2107 58
2162 2171 6
2163 2079 128
2163 2183 18
2164 2103 70
2164 2203 60
2164 2224 58
2165 2159 4
2165 2224 84
2165 2263 82
2166 2141 50
2166 2043 139
2166 2234 64
2167 2112 53
2167 2117 46
2167 2257 64
2168 2143 75
2168 2128 40
2168 2222 49
2169 2124 91
2169 2069 92
2169 2216 94
2169 2291 95
2170 2108 68
2170 2100 196
2170 2243 58
2171 2162 6
2171 2204 69
2171 2211 41
2172 1997 181
2172 2101 121
2172 2490 245
2173 2102 66
2173 2190 75
2173 2231 48
2174 2099 192
2174 2184 17
2174 2406 206
2175 2176 146
2175 2180 268
2175 2205 45
2176 2175 146
2177 2158 35
2177 2237 63
2177 2270 73
2178 2144 82
2178 2129 52
2178 2221 95
2178 2247 52
2179 2137 92
2179 2081 98
2179 2230 94
2179 2254 53
2180 2175 268
2181 2120 62
2182 1954 298
2182 2195 35
2182 2324 108
2183 2163 18
2183 2199 91
2183 2239 39
2184 2007 170
2184 2174 17
2184 2197 10
2185 2073 103
2185 2140 54
2185 2289 72
2186 2093 171
2186 2229 59
2187 2143 46
2187 2222 79
2187 2275 62
2188 2155 51
2188 2141 49
2188 2234 40
2188 2377 143
2189 2111 102
2189 2192 24
2189 2296 74
2190 2173 75
2190 2097 87
2190 2199 78
2190 2276 58
2191 2110 88
2191 2161 46
2191 2246 62
2191 2274 68
2192 2189 24
2192 2194 18
2192 2296 107
2193 2138 157
2193 2040 201
2193 2262 61
2194 2111 79
2194 2192 18
2195 2182 35
2195 2205 113
2195 2295 67
2196 2153 88
2196 2144 50
2196 2247 81
2196 2307 81
2197 2184 10
2197 2331 160
2198 2084 216
2198 2076 109
2198 2231 78
2199 2080 107
2199 2183 91
2199 2190 78
2199 2259 38
2200 2201 90
2200 2202 85
2200 2294 71
2201 2200 90
2202 2200 85
2203 2133 68
2203 2164 60
2203 2238 41
2203 2282 57
2204 2171 69
2204 2134 66
2204 2212 5
2205 2087 103
2205 2175 45
2205 2195 113
2205 2395 156
2206 2125 78
2206 2207 25
2206 2261 39
2207 2206 25
2208 2154 40
2208 2327 109
2209 2210 47
2209 2215 22
2209 2427 144
2210 2209 47
2211 2171 41
2211 2347 128
2212 2204 5
2212 2372 135
2213 2160 74
2213 2217 19
2213 2223 11
2213 2253 56
2214 2131 77
2214 2316 106
2214 2318 70
2215 2209 22
2216 2169 94
2216 2116 97
2216 2285 96
2216 2355 101
2217 2130 157
2217 2213 19
2217 2223 10
2218 2131 135
2218 2250 28
2218 2316 77
2219 2220 188
2219 2220 59
2219 2271 103
2220 2219 188
2220 2219 59
2220 2235 474
2221 2178 95
2221 2156 52
2221 2303 54
2222 2187 79
2222 2168 49
2222 2268 82
2222 2319 61
2223 2213 11
2223 2217 10
2223 2241 9
2223 2269 56
2224 2164 58
2224 2165 84
2224 2282 69
2224 2290 47
2225 2132 89
2225 2228 4
2225 2256 26
2226 2227 93
2226 2235 304
2226 2487 290
2227 2226 93
2227 2408 294
2228 2225 4
2229 2186 59
2229 2241 11
2229 2260 22
2230 2179 94
2230 2124 98
2230 2291 92
2230 2353 93
2231 2198 78
2231 2173 48
2231 2276 98
2232 2233 31
2233 2232 31
2233 2146 73
2233 2255 29
2234 2188 40
2234 2166 64
2234 2407 128
2234 2476 190
2235 2220 474
2235 2226 304
2235 2445 170
2236 2032 281
2237 2177 63
2237 2304 46
2237 2364 134
2238 2161 69
2238 2203 41
2238 2274 47
2238 2315 55
2239 2183 39
2239 2240 23
2239 2242 36
2240 2239 23
2240 2244 23
2241 2223 9
2241 2229 11
2241 2260 14
2241 2280 56
2242 2239 36
2242 2259 51
2242 2281 28
2243 2170 58
2243 2252 4
2243 2323 114
2244 2240 23
2244 2245 62
2244 2258 18
2245 2244 62
2246 2139 92
2246 2191 62
2246 2329 67
2247 2196 81
2247 2178 52
2247 2303 98
2247 2351 78
2248 2249 21
2249 2248 21
2249 2265 23
2249 23755 101
2250 2218 28
2250 2321 86
2250 2334 71
2251 1719 843
2251 2320 66
2251 2474 255
2252 2243 4
2252 2278 54
2252 2365 82
2253 2157 82
2253 2213 56
2253 2269 14
2253 2288 33
2254 2179 53
2255 2233 29
2255 2158 73
2255 2270 37
2256 2225 26
2256 2264 15
2256 2302 82
2257 2167 64
2257 2263 18
2257 2275 63
2257 2341 61
2258 2244 18
2258 2266 30
2258 2328 52
2259 2199 38
2259 2242 51
2259 2325 46
2260 2241 14
2260 2229 22
2260 2297 48
2260 2321 45
2261 2206 39
2261 2277 11
2261 2293 56
2262 2193 61
2262 2679 367
2263 2165 82
2263 2257 18
2263 2460 141
2264 2256 15
2264 2150 96
2264 2286 38
2264 2354 69
2265 2249 23
2266 2258 30
2266 2267 93
2266 2283 43
2267 2266 93
2268 2222 82
2268 2153 88
2268 2307 83
2268 2348 59
2269 2253 14
2269 2223 56
2269 2280 8
2269 2288 25
2270 2255 37
2270 2177 73
2270 2372 72
2271 1503 1288
2271 2219 103
2271 2306 289
2272 2273 16
2273 2272 16
2273 2356 127
2273 2395 103
2274 2191 68
2274 2238 47
2274 2329 66
2274 2344 53
2275 2257 63
2275 2187 62
2275 2319 81
2275 2350 54
2276 2231 98
2276 2190 58
2276 2325 91
2277 2261 11
2278 2279 37
2278 2252 54
2278 2308 52
2278 2409 90
2279 2278 37
2280 2269 8
2280 2241 56
2280 2287 9
2280 2292 10
2281 2242 28
2281 2305 44
2281 2338 40
2282 2203 57
2282 2224 69
2282 2315 40
2282 2343 50
2283 2266 43
2283 2284 115
2283 2352 49
2284 2283 115
2285 2216 96
2285 2136 118
2285 2317 46
2285 2421 101
2286 2264 38
2286 2311 43
2286 2376 66
2287 2280 9
2287 2292 15
2287 2314 33
2288 2253 33
2288 2269 25
2288 2425 183
2289 2185 72
2289 2310 16
2289 2332 89
2290 2224 47
2290 2335 55
2290 2471 138
2291 2230 92
2291 2169 95
2291 2333 46
2291 2418 94
2292 2287 15
2292 2280 10
2292 2297 7
2293 2261 56
2293 2310 43
2293 2398 73
2294 2200 71
2294 2327 186
2294 2363 117
2295 2195 67
2295 2322 17
2295 2330 56
2296 2189 74
2296 2192 107
2296 2339 30
2297 2292 7
2297 2260 48
2297 2360 69
2298 2091 165
2298 2094 289
2298 2523 621
2299 2300 75
2299 2393 191
2300 2299 75
2300 2347 125
2301 1930 496
2301 2004 367
2301 2412 130
2302 2256 82
2303 2247 98
2303 2221 54
2303 2367 75
2303 2404 73
2304 2237 46
2304 2312 7
2304 2336 61
2305 2281 44
2305 2328 58
2305 2366 45
2306 2271 289
2306 2432 1118
2306 2505 207
2307 2268 83
2307 2196 81
2307 2351 86
2307 2389 59
2308 2309 52
2308 2278 52
2308 2381 129
2308 2439 94
2309 2308 52
2310 2289 16
2310 2293 43
2310 2349 30
2311 2286 43
2311 2072 190
2311 2362 85
2311 2402 63
2312 2313 33
2312 2304 7
2312 2326 10
2313 2312 33
2314 2287 33
2314 2360 106
2314 2378 96
2315 2238 55
2315 2282 40
2315 2344 46
2316 2218 77
2316 2214 106
2316 2396 67
2317 2285 46
2317 2346 53
2317 2447 100
2318 2214 70
2318 2345 26
2318 2396 93
2319 2275 81
2319 2222 61
2319 2348 78
2319 2391 55
2320 2251 66
2320 2474 192
2320 2566 236
2321 2260 45
2321 2250 86
2321 2358 34
2322 2295 17
2323 2243 114
2324 2182 108
2324 2369 32
2324 2374 87
2325 2276 91
2325 2259 46
2325 2338 21
2326 2312 10
2326 2340 11
2326 2361 62
2327 2208 109
2327 2294 186
2327 2457 133
2328 2305 58
2328 2258 52
2328 2368 79
2328 2422 63
2329 2246 67
2329 2274 66
2329 2392 49
2330 2295 56
2331 2197 160
2331 2339 36
2331 2512 139
2332 2289 89
2332 2367 73
2332 2385 41
2333 2291 46
2333 2355 45
2333 2441 80
2334 2250 71
2334 2400 75
2334 2423 71
2335 2290 55
2335 2343 13
2335 2491 126
2336 2304 61
2336 2337 14
2336 2361 20
2337 2336 14
2338 2325 21
2338 2281 40
2338 2366 49
2339 2296 30
2339 2331 36
2339 2342 14
2340 2326 11
2340 2359 15
2340 2384 95
2341 2257 61
2341 2350 31
2341 2456 84
2342 2339 14
2342 2352 71
2342 2517 136
2343 2282 50
2343 2335 13
2343 2373 35
2344 2274 53
2344 2315 46
2344 2392 63
2344 2417 54
2345 2318 26
2345 2394 41
2346 2317 53
2346 2155 149
2346 2377 55
2346 2470 100
2347 2300 125
2347 2211 128
2347 2426 66
2348 2319 78
2348 2268 59
2348 2389 86
2348 2433 57
2349 2310 30
2349 2385 88
2349 2415 44
2350 2341 31
2350 2275 54
2350 2391 80
2351 2307 86
2351 2247 78
2351 2397 86
2351 2437 56
2352 2283 49
2352 2342 71
2352 2368 15
2353 2230 93
2353 2418 99
2353 2424 49
2354 2264 69
2355 2333 45
2355 2216 101
2355 2421 97
2355 2478 95
2356 2273 127
2356 2357 62
2356 2401 38
2357 2356 62
2358 2321 34
2358 2382 28
2358 2479 105
2359 2340 15
2359 2384 20
2359 2399 62
2360 2314 106
2360 2297 69
2360 2382 19
2361 2326 62
2361 2336 20
2361 2375 19
2361 2399 24
2362 2311 85
2362 2123 190
2363 2294 117
2363 2480 349
2364 2237 134
2364 2442 59
2364 2459 139
2365 2252 82
2366 2338 49
2366 2305 45
2366 2422 62
2367 2303 75
2367 2044 252
2367 2332 73
2367 2436 43
2368 2328 79
2368 2352 15
2368 2435 88
2369 2324 32
2369 2370 19
2370 2369 19
2370 2371 20
2370 2383 40
2371 2370 20
2372 2212 135
2372 2270 72
2372 2426 39
2373 2343 35
2373 2403 35
2373 2468 69
2374 2324 87
2375 2361 19
2376 2286 66
2377 2346 55
2377 2188 143
2377 2407 36
2377 2493 98
2378 2314 96
2378 2390 10
2379 2380 23
2380 2379 23
2380 2386 21
2380 23756 120
2381 2308 129
2381 2429 78
2381 2488 85
2382 2360 19
2382 2358 28
2382 2629 253
2383 2370 40
2384 2340 95
2384 2359 20
2384 2454 50
2385 2332 41
2385 2349 88
2385 2436 94
2385 2581 163
2386 2380 21
2387 2388 18
2387 23755 25
2388 2387 18
2389 2348 86
2389 2307 59
2389 2437 87
2389 2469 57
2390 2378 10
2390 2440 65
2390 2684 313
2391 2350 80
2391 2319 55
2391 2433 77
2391 2475 65
2392 2329 49
2392 2344 63
2392 2483 71
2393 2299 191
2393 2420 81
2394 2345 41
2394 2405 11
2395 2205 156
2395 2273 103
2395 2401 12
2396 2316 67
2396 2318 93
2396 2464 72
2397 2351 86
2397 2404 16
2397 2449 40
2398 2293 73
2398 2415 37
2398 2581 184
2399 2359 62
2399 2361 24
2399 2485 75
2400 2334 75
2401 2395 12
2401 2356 38
2401 2413 13
2402 2311 63
2403 2373 35
2403 2417 22
2403 2477 62
2404 2397 16
2404 2303 73
2404 2463 45
2405 2394 11
2405 2464 73
2405 2472 69
2406 2174 206
2407 2377 36
2407 2234 128
2407 2438 45
2408 2227 294
2408 2416 58
2408 2518 92
2409 2278 90
2410 2411 73
2410 2434 67
2410 2461 60
2411 2410 73
2412 2301 130
2412 2414 36
2412 2425 201
2413 2401 13
2413 2461 53
2413 2508 84
2414 1608 1025
2414 2412 36
2414 2514 147
2415 2349 44
2415 2398 37
2415 2466 46
2416 2408 58
2417 2344 54
2417 2403 22
2417 2467 61
2418 2353 99
2418 2291 94
2418 2441 46
2419 2420 39
2420 2419 39
2420 2393 81
2420 2502 77
2421 2355 97
2421 2285 101
2421 2447 41
2421 2524 96
2422 2366 62
2422 2328 63
2422 2435 16
2423 2334 71
2423 2479 83
2423 2484 66
2424 2353 49
2424 2444 136
2425 2288 183
2425 2412 201
2425 2486 100
2426 2347 66
2426 2372 39
2427 2209 144
2427 2451 80
2427 2481 44
2428 2429 36
2429 2428 36
2429 2381 78
2429 2455 31
2430 2431 18
2431 2430 18
2431 2448 23
2431 23755 60
2432 2306 1118
2432 2732 1354
2432 2949 628
2433 2391 77
2433 2348 57
2433 2469 87
2433 2498 62
2434 2410 67
2435 2422 16
2435 2368 88
2435 2521 169
2436 2367 43
2436 2385 94
2436 2657 211
2437 2389 87
2437 2351 56
2437 2449 83
2437 2495 56
2438 2407 45
2438 2482 97
2438 2534 96
2439 2308 94
2440 2390 65
2440 2453 20
2440 2589 149
2441 2418 46
2441 2333 80
2441 2478 48
2442 2443 23
2442 2364 59
2442 2528 84
2442 2529 129
2443 2442 23
2444 2424 136
2444 2465 75
2444 2520 69
2445 2235 170
2445 2446 0
2446 2445 0
2446 2450 156
2446 2492 313
2446 2817 409
2447 2421 41
2447 2317 100
2447 2470 51
2447 2540 93
2448 2431 23
2449 2437 83
2449 2397 40
2449 2463 51
2449 2530 72
2450 2446 156
2450 2828 507
2451 2427 80
2452 1616 1254
2452 3016 973
2453 2440 20
2453 2638 251
2454 2384 50
2455 2429 31
2455 2503 67
2455 2535 71
2456 2341 84
2456 2460 5
2456 2475 62
2456 2531 64
2457 2458 136
2457 2327 133
2457 2481 76
2458 2457 136
2459 2364 139
2459 2462 68
2459 2529 76
2460 2263 141
2460 2456 5
2460 2471 82
2460 2522 56
2461 2410 60
2461 2413 53
2461 2494 46
2462 2459 68
2462 2465 45
2462 2570 117
2463 2449 51
2463 2404 45
2463 2511 46
2464 2405 73
2464 2396 72
2464 2484 42
2464 2527 72
2465 2462 45
2465 2444 75
2465 2553 81
2466 2415 46
2467 2417 61
2467 2504 43
2468 2373 69
2468 2477 35
2468 2513 47
2469 2433 87
2469 2389 57
2469 2495 88
2469 2537 64
2470 2447 51
2470 2346 100
2470 2493 54
2470 2561 90
2471 2290 138
2471 2460 82
2471 2491 53
2471 2545 72
2472 2405 69
2472 2473 30
2472 2527 77
2472 2536 70
2473 2472 30
2473 2483 35
2474 2320 192
2474 2251 255
2474 2489 16
2474 2538 96
2475 2456 62
2475 2391 65
2475 2498 78
2475 2539 60
2476 2234 190
2476 2757 339
2477 2403 62
2477 2468 35
2477 2504 75
2478 2441 48
2478 2355 95
2478 2516 38
2478 2524 91
2479 2358 105
2479 2423 83
2479 2541 66
2480 2363 349
2480 2499 69
2481 2427 44
2481 2457 76
2481 2508 90
2482 2438 97
2482 2562 90
2482 2646 181
2483 2473 35
2483 2392 71
2483 2515 37
2484 2423 66
2484 2464 42
2484 2541 88
2484 2547 72
2485 2399 75
2486 2425 100
2486 2514 177
2486 2615 218
2487 2226 290
2487 2492 61
2487 2510 119
2488 2381 85
2488 2739 377
2489 2474 16
2489 2664 158
2490 2172 245
2490 2509 110
2490 2581 350
2491 2335 126
2491 2471 53
2491 2513 53
2491 2569 70
2492 2446 313
2492 2487 61
2492 2837 387
2493 2470 54
2493 2377 98
2493 2534 80
2493 2557 65
2494 2461 46
2495 2469 88
2495 2437 56
2495 2530 90
2495 2560 61
2496 2497 20
2496 23756 21
2497 2496 20
2498 2475 78
2498 2433 62
2498 2537 86
2498 2568 63
2499 2480 69
2500 2501 131
2501 2500 131
2502 2420 77
2503 2455 67
2504 2467 43
2504 2477 75
2504 2556 48
2505 2306 207
2505 2543 173
2505 2663 142
2506 2507 50
2507 2506 50
2508 2413 84
2508 2481 90
2508 2610 94
2509 2490 110
2509 2628 131
2509 2754 420
2510 2487 119
2510 2518 84
2510 2582 64
2511 2463 46
2511 2554 41
2511 2563 49
2512 2331 139
2512 2517 45
2513 2468 47
2513 2491 53
2513 2556 112
2513 2579 62
2514 2414 147
2514 2486 177
2514 2589 112
2515 2483 37
2515 2536 25
2515 2555 43
2516 2478 38
2516 2571 87
2517 2342 136
2517 2512 45
2517 2552 165
2518 2408 92
2518 2519 21
2518 2510 84
2519 2518 21
2519 2551 133
2519 2583 62
2520 2444 69
2520 2553 105
2520 2604 87
2521 2435 169
2521 2580 115
2521 2598 218
2522 2460 56
2522 2531 9
2522 2545 73
2522 2698 170
2523 1558 1179
2523 2298 621
2523 2775 336
2524 2478 91
2524 2421 96
2524 2540 39
2524 2571 50
2525 2526 42
2526 2525 42
2526 2546 63
2526 2546 30
2527 2464 72
2527 2472 77
2527 2547 43
2527 2584 63
2528 2442 84
2529 2442 129
2529 2459 76
2529 2570 59
2530 2495 90
2530 2449 72
2530 2554 80
2530 2593 61
2531 2522 9
2531 2456 64
2531 2539 28
2531 2678 135
2532 2533 69
2532 2542 98
2532 2610 140
2533 2532 69
2534 2493 80
2534 2438 96
2534 2562 85
2534 2641 119
2535 2455 71
2536 2472 70
2536 2515 25
2536 2584 83
2536 2590 65
2537 2498 86
2537 2469 64
2537 2560 85
2537 2597 61
2538 2474 96
2538 2587 80
2538 2615 188
2539 2531 28
2539 2475 60
2539 2568 79
2540 2524 39
2540 2447 93
2540 2578 40
2541 2479 66
2541 2484 88
2541 2723 217
2541 23757 217
2542 2532 98
2543 2505 173
2543 2544 101
2543 2576 127
2543 2654 105
2544 2543 101
2545 2471 72
2545 2522 73
2545 2548 4
2546 2526 63
2546 2526 30
2546 2575 35
2547 2484 72
2547 2527 43
2547 2594 80
2547 2609 63
2548 2545 4
2548 2569 59
2548 2648 96
2549 2550 60
2549 2626 77
2550 2549 60
2551 2519 133
2551 2580 53
2551 2586 47
2552 2517 165
2553 2465 81
2553 2520 105
2553 2567 74
2554 2530 80
2554 2511 41
2554 2563 21
2554 2622 63
2555 2515 43
2555 2590 30
2555 2603 59
2556 2504 48
2556 2513 112
2556 2603 44
2557 2493 65
2558 2559 2497
2559 2558 2497
2560 2537 85
2560 2495 61
2560 2593 93
2560 2624 65
2561 2470 90
2562 2534 85
2562 2482 90
2562 2633 84
2562 2646 179
2563 2554 21
2563 2511 49
2563 2585 22
2564 2565 31
2565 2564 31
2565 23756 144
2565 23758 144
2566 2320 236
2566 2718 228
2566 2757 396
2567 2553 74
2567 2574 35
2567 2632 77
2568 2539 79
2568 2498 63
2568 2597 89
2568 2651 83
2569 2491 70
2569 2548 59
2569 2579 49
2570 2529 59
2570 2462 117
2570 2574 4
2571 2516 87
2571 2524 50
2571 2578 42
2572 2573 178
2573 2572 178
2574 2570 4
2574 2567 35
2574 2612 41
2575 2546 35
2575 2588 265
2575 2677 175
2576 2543 127
2576 2577 86
2576 2616 191
2576 2724 151
2577 2576 86
2578 2571 42
2578 2540 40
2578 2670 27
2579 2513 62
2579 2569 49
2579 2603 117
2580 2551 53
2580 2521 115
2580 2586 15
2581 2385 163
2581 2398 184
2581 2650 80
2581 2490 350
2582 2510 64
2582 2605 32
2582 2608 47
2583 2519 62
2583 2611 34
2583 2623 62
2584 2527 63
2584 2536 83
2584 2636 63
2585 2563 22
2585 2634 46
2585 2642 55
2586 2551 47
2586 2580 15
2586 2598 14
2587 2538 80
2587 2655 112
2587 2638 204
2588 2575 265
2589 2514 112
2589 2440 149
2589 2699 168
2590 2536 65
2590 2555 30
2590 2636 84
2590 2688 95
2591 2592 523
2592 2591 523
2593 2560 93
2593 2530 61
2593 2622 93
2593 2652 64
2594 2547 80
2595 2596 4
2596 2595 4
2596 2612 26
2596 2637 51
2597 2568 89
2597 2537 61
2597 2624 82
2597 2643 45
2598 2586 14
2598 2619 32
2598 2521 218
2599 2600 20
2599 2641 70
2599 2647 47
2600 2599 20
2601 2602 14
2602 2601 14
2602 2618 16
2602 23758 31
2603 2555 59
2603 2556 44
2603 2579 117
2604 2520 87
2604 2644 87
2604 2711 107
2605 2582 32
2605 2627 32
2605 2635 47
2606 2607 68
2607 2606 68
2608 2582 47
2608 2625 36
2608 2635 35
2609 2547 63
2609 2653 80
2609 2668 66
2610 2508 94
2610 2532 140
2610 2758 167
2611 2583 34
2611 2625 46
2611 2640 49
2612 2596 26
2612 2574 41
2612 2666 122
2613 2614 96
2614 2613 96
2615 2538 188
2615 2621 26
2615 2486 218
2616 2576 191
2616 2617 169
2616 2714 98
2617 2616 169
2618 2602 16
2619 2620 47
2619 2598 32
2619 2690 84
2620 2619 47
2621 2615 26
2621 2664 63
2622 2593 93
2622 2554 63
2622 2634 30
2622 2689 63
2623 2583 62
2623 2630 11
2623 2640 19
2624 2597 82
2624 2560 65
2624 2652 94
2624 2701 87
2625 2608 36
2625 2611 46
2625 2649 25
2626 2549 77
2626 2675 74
2627 2605 32
2627 2667 50
2627 2682 133
2628 2509 131
2628 2913 443
2629 2382 253
2629 2726 126
2629 2036 602
2630 2623 11
2630 2631 41
2630 2685 57
2631 2630 41
2632 2567 77
2633 2562 84
2634 2622 30
2634 2585 46
2634 2642 22
2634 2697 67
2635 2605 47
2635 2608 35
2635 2667 33
2635 2671 46
2636 2584 63
2636 2590 84
2636 2700 80
2637 2596 51
2637 2672 75
2638 2639 80
2638 2587 204
2638 2453 251
2639 2638 80
2639 2686 100
2640 2611 49
2640 2623 19
2640 2676 39
2641 2599 70
2641 2534 119
2641 2673 32
2641 2680 61
2642 2634 22
2642 2585 55
2642 2657 47
2642 2948 412
2643 2597 45
2643 2651 79
2643 2785 217
2644 2645 74
2644 2604 87
2644 2666 75
2645 2644 74
2646 2562 179
2646 2482 181
2646 2773 160
2647 2599 47
2647 2669 19
2647 2683 63
2648 2548 96
2648 2656 106
2648 2698 54
2649 2625 25
2649 2676 37
2649 2671 47
2650 2581 80
2651 2568 83
2651 2643 79
2651 2674 14
2651 2678 102
2652 2624 94
2652 2593 64
2652 2687 27
2652 2689 97
2653 2609 80
2654 2543 105
2655 2587 112
2655 2686 114
2655 2873 410
2656 2648 106
2656 2705 54
2657 2642 47
2657 2436 211
2657 2692 39
2658 2659 46
2659 2658 46
2660 2661 13
2660 2662 23
2660 2665 9
2660 2713 67
2661 2660 13
2661 23758 43
2662 2660 23
2662 2733 182
2663 2505 142
2663 2719 164
2663 2719 102
2664 2489 158
2664 2621 63
2664 2718 131
2665 2660 9
2666 2612 122
2666 2644 75
2666 2695 55
2667 2627 50
2667 2635 33
2667 2682 20
2668 2609 66
2668 2710 86
2668 2716 69
2669 2670 90
2669 2647 19
2669 2702 65
2670 2669 90
2670 2578 27
2671 2635 46
2671 2649 47
2671 2682 56
2672 2637 75
2672 2729 208
2673 2641 32
2673 2683 13
2673 2696 61
2674 2651 14
2675 2626 74
2675 2727 71
2676 2649 37
2676 2640 39
2676 2685 40
2677 2575 175
2677 2679 3
2678 2531 135
2678 2651 102
2678 2698 29
2678 2712 44
2679 2262 367
2679 2677 3
2679 2727 131
2679 3007 491
2680 2641 61
2680 2681 33
2680 2696 32
2680 2708 67
2681 2680 33
2682 2667 20
2682 2671 56
2682 2627 133
2683 2647 63
2683 2673 13
2683 2702 32
2684 2390 313
2684 2699 40
2684 2725 56
2685 2676 40
2685 2630 57
2685 2690 42
2686 2639 100
2686 2655 114
2686 2691 15
2687 2652 27
2688 2590 95
2688 2700 25
2688 2766 132
2689 2652 97
2689 2622 63
2689 2697 38
2690 2685 42
2690 2619 84
2690 2745 68
2691 2686 15
2691 2713 43
2691 2740 94
2692 2657 39
2692 2754 67
2692 2979 421
2693 2694 45
2693 2721 51
2694 2693 45
2695 2666 55
2696 2673 61
2696 2680 32
2696 2720 30
2696 2731 63
2697 2689 38
2697 2634 67
2697 2803 214
2698 2648 54
2698 2522 170
2698 2678 29
2698 2706 95
2698 2715 21
2699 2589 168
2699 2684 40
2699 2725 64
2699 2840 253
2700 2636 80
2700 2688 25
2700 2716 33
2701 2624 87
2701 2803 164
2702 2669 65
2702 2683 32
2702 2736 41
2703 2704 74
2704 2703 74
2704 2707 48
2704 2780 95
2705 2656 54
2705 2706 7
2705 2744 98
2706 2705 7
2706 2698 95
2706 2717 16
2707 2704 48
2707 2711 75
2707 2752 46
2708 2680 67
2708 2709 19
2708 2730 30
2709 2708 19
2709 2811 268
2710 2668 86
2711 2604 107
2711 2707 75
2711 2790 104
2712 2678 44
2712 2715 8
2712 2785 109
2713 2660 67
2713 2691 43
2713 2796 185
2714 2616 98
2715 2698 21
2715 2712 8
2715 2764 83
2715 2784 102
2716 2668 69
2716 2700 33
2716 2771 100
2717 2706 16
2717 2764 58
2717 2777 103
2718 2566 228
2718 2664 131
2718 2733 14
2718 2867 439
2719 2663 164
2719 2663 102
2719 2852 234
2720 2696 30
2721 2722 83
2721 2693 51
2721 2738 136
2721 2744 31
2722 2721 83
2723 2541 217
2723 23757 217
2723 2726 13
2723 2771 62
2724 2576 151
2725 2699 64
2725 2684 56
2725 2821 177
2726 2629 126
2726 2723 13
2726 2821 244
2726 2920 331
2727 2675 71
2727 2679 131
2727 2750 40
2728 2729 200
2729 2728 200
2729 2672 208
2729 2737 10
2730 2708 30
2730 2731 3
2730 2760 45
2731 2696 63
2731 2730 3
2732 2432 1354
2733 2718 14
2733 2662 182
2733 2788 150
2733 2796 93
2734 2735 70
2734 2747 78
2734 2748 26
2735 2734 70
2735 2746 15
2735 2751 59
2736 2702 41
2736 2753 18
2736 2786 125
2737 2729 10
2737 2763 78
2737 2783 66
2738 2721 136
2739 2488 377
2739 2792 81
2740 2691 94
2740 2781 91
2740 2826 249
2741 2742 81
2741 2743 109
2742 2741 81
2742 2772 152
2743 2741 109
2744 2721 31
2744 2705 98
2744 2766 70
2744 2777 58
2745 2690 68
2745 2834 427
2745 2839 155
2746 2735 15
2746 2748 59
2746 2751 44
2746 2768 28
2747 2734 78
2747 2748 52
2747 2769 76
2748 2747 52
2748 2734 26
2748 2746 59
2748 2769 27
2749 2750 215
2750 2749 215
2750 2727 40
2750 2808 621
2751 2746 44
2751 2735 59
2751 2768 55
2752 2707 46
2753 2736 18
2753 2765 21
2753 2774 40
2754 2692 67
2754 2509 420
2754 2925 272
2755 2756 8
2756 2755 8
2756 2767 53
2756 2842 149
2757 2476 339
2757 2566 396
2757 2818 126
2758 2610 167
2758 2759 804
2758 2787 42
2759 2758 804
2760 2730 45
2760 2770 19
2761 2762 63
2762 2761 63
2763 2737 78
2764 2717 58
2764 2715 83
2764 2798 97
2765 2753 21
2765 2799 64
2765 2799 109
2766 2688 132
2766 2744 70
2766 2835 176
2767 2756 53
2767 2776 46
2767 2860 173
2768 2746 28
2768 2769 60
2768 2751 55
2769 2747 76
2769 2748 27
2769 2768 60
2770 2760 19
2770 2797 58
2771 2723 62
2771 2716 100
2771 2835 133
2772 2742 152
2772 2987 402
2773 2646 160
2773 2811 83
2773 3147 662
2774 2753 40
2774 2793 40
2774 2799 47
2775 2523 336
2775 2911 239
2776 2767 46
2776 2780 42
2776 2845 129
2777 2744 58
2777 2717 103
2777 2798 38
2778 2779 88
2778 2779 69
2778 2787 331
2779 2778 88
2779 2778 69
2779 2795 84
2780 2704 95
2780 2776 42
2780 2862 127
2781 2740 91
2781 2782 95
2781 2870 269
2782 2781 95
2783 2737 66
2784 2715 102
2784 2815 76
2784 2866 174
2785 2712 109
2785 2643 217
2785 2888 188
2786 2736 125
2786 2797 17
2786 2800 45
2787 2758 42
2787 2778 331
2787 2789 9
2788 2733 150
2788 2812 54
2788 2836 170
2789 2787 9
2789 2885 174
2789 2922 319
2790 2711 104
2790 2801 28
2790 2841 84
2791 2792 9
2792 2791 9
2792 2739 81
2792 2909 340
2792 2926 236
2793 2794 87
2793 2774 40
2793 2804 34
2793 2806 39
2794 2793 87
2795 2779 84
2796 2733 93
2796 2713 185
2796 2816 67
2797 2786 17
2797 2770 58
2797 2861 116
2798 2777 38
2798 2764 97
2798 2814 42
2798 2848 113
2799 2774 47
2799 2765 64
2799 2765 109
2800 2786 45
2800 2825 77
2800 2830 54
2801 2802 94
2801 2790 28
2801 2824 44
2802 2801 94
2803 2701 164
2803 2697 214
2803 2888 189
2803 2948 227
2804 2793 34
2804 2825 44
2804 2829 57
2805 2806 99
2806 2805 99
2806 2793 39
2806 2842 83
2807 2808 165
2808 2807 165
2808 2823 60
2808 2750 621
2809 2810 82
2809 2813 46
2809 2831 37
2810 2809 82
2811 2709 268
2811 2773 83
2811 2957 315
2811 23759 315
2812 2788 54
2812 2876 169
2812 2904 141
2813 2809 46
2813 2824 74
2813 2849 55
2814 2798 42
2815 2784 76
2815 2878 143
2815 2895 121
2816 2796 67
2816 2826 14
2816 2904 159
2817 2446 409
2817 2828 59
2817 2832 201
2818 2757 126
2818 2867 73
2819 2820 118
2820 2819 118
2820 2864 104
2820 2896 313
2821 2725 177
2821 2726 244
2821 2840 26
2822 2823 176
2823 2822 176
2823 2808 60
2823 2872 139
2824 2813 74
2824 2801 44
2824 2827 6
2825 2804 44
2825 2800 77
2825 2843 40
2826 2816 14
2826 2740 249
2826 2847 43
2827 2824 6
2827 2844 25
2828 2450 507
2828 2817 59
2828 2852 1098
2829 2804 57
2829 2850 37
2829 2857 70
2830 2800 54
2830 2838 13
2830 2865 62
2831 2809 37
2831 2863 39
2831 2871 80
2832 2817 201
2832 2833 229
2832 2837 38
2833 2832 229
2834 2745 427
2834 2851 28
2835 2771 133
2835 2766 176
2835 2917 133
2836 2788 170
2836 2868 72
2836 2876 58
2837 2832 38
2837 2492 387
2837 2851 63
2838 2830 13
2839 2745 155
2839 2883 57
2839 2894 116
2840 2699 253
2840 2821 26
2840 3702 1342
2841 2790 84
2841 2846 38
2841 2907 87
2842 2756 149
2842 2806 83
2842 2857 25
2842 2860 31
2843 2825 40
2843 2865 31
2843 2877 74
2844 2827 25
2844 2869 38
2844 2902 71
2845 2776 129
2845 2862 59
2845 2897 69
2846 2841 38
2847 2826 43
2847 2870 36
2847 3032 397
2848 2798 113
2848 2917 137
2848 2951 167
2849 2813 55
2849 2869 56
2849 2875 58
2850 2829 37
2850 2877 41
2850 2884 71
2851 2837 63
2851 2834 28
2851 2894 159
2852 2719 234
2852 2828 1098
2852 2905 160
2852 3136 378
2853 2854 159
2854 2853 159
2854 2856 15
2854 2872 22
2855 2856 137
2856 2855 137
2856 2854 15
2857 2842 25
2857 2829 70
2857 2884 37
2858 2859 82
2859 2858 82
2860 2767 173
2860 2842 31
2860 2879 38
2860 2901 57
2861 2797 116
2861 2887 92
2861 2890 43
2862 2780 127
2862 2845 59
2862 2874 74
2862 2927 98
2863 2831 39
2864 2820 104
2865 2843 31
2865 2830 62
2865 2887 46
2866 2784 174
2866 2889 40
2867 2818 73
2867 2718 439
2867 2996 281
2868 2836 72
2868 23759 185
2869 2849 56
2869 2844 38
2869 2930 115
2870 2847 36
2870 2781 269
2870 3011 290
2871 2831 80
2871 2881 12
2871 2915 59
2872 2854 22
2872 2823 139
2872 2941 257
2873 2655 410
2873 2969 170
2873 3011 356
2874 2862 74
2874 2900 57
2875 2849 58
2876 2836 58
2876 2812 169
2876 2966 175
2877 2850 41
2877 2843 74
2877 2882 6
2878 2815 143
2878 2889 42
2878 2912 53
2879 2880 99
2879 2860 38
2879 2897 29
2879 2914 51
2880 2879 99
2881 2871 12
2881 2928 102
2882 2877 6
2882 2908 66
2882 2924 68
2883 2839 57
2883 2891 11
2883 2918 50
2884 2857 37
2884 2850 71
2884 2901 33
2884 2908 38
2885 2886 129
2885 2789 174
2885 2903 28
2886 2885 129
2887 2865 46
2887 2861 92
2887 2893 9
2888 2785 188
2888 2803 189
2888 2895 9
2888 3063 268
2889 2866 40
2889 2878 42
2889 2951 115
2890 2861 43
2890 2910 74
2890 2939 91
2891 2883 11
2891 2892 143
2891 2932 66
2892 2891 143
2893 2887 9
2893 2910 42
2893 2924 108
2894 2851 159
2894 2839 116
2894 2981 222
2895 2815 121
2895 2888 9
2895 2940 72
2896 2820 313
2897 2845 69
2897 2879 29
2897 2916 41
2897 2921 47
2898 2899 87
2899 2898 87
2900 2874 57
2900 2906 39
2900 2907 63
2901 2860 57
2901 2884 33
2901 2914 36
2901 2919 39
2902 2844 71
2902 2930 66
2902 2976 132
2903 2885 28
2903 2967 149
2903 2971 424
2904 2812 141
2904 2816 159
2904 2966 152
2905 2852 160
2905 2960 272
2905 3136 287
2906 2900 39
2907 2841 87
2907 2900 63
2908 2884 38
2908 2882 66
2908 2919 32
2908 2950 77
2909 2792 340
2910 2893 42
2910 2890 74
2911 2775 239
2911 2913 188
2911 2941 42
2912 2878 53
2912 2942 53
2912 2977 146
2913 2628 443
2913 2911 188
2913 2929 105
2914 2879 51
2914 2901 36
2914 2921 30
2914 2936 41
2915 2871 59
2915 2928 35
2916 2897 41
2916 2927 34
2916 2933 42
2917 2835 133
2917 2848 137
2917 2920 11
2917 3088 249
2918 2883 50
2918 2978 227
2919 2901 39
2919 2908 32
2919 2936 34
2919 2947 43
2920 2726 331
2920 2917 11
2920 3343 524
2921 2897 47
2921 2914 30
2921 2933 25
2922 2789 319
2922 2923 3
2923 2922 3
2924 2882 68
2924 2893 108
2924 2950 53
2925 2754 272
2925 2929 69
2926 2792 236
2926 3015 212
2927 2862 98
2927 2916 34
2927 2945 42
2928 2915 35
2928 2881 102
2928 2931 5
2929 2925 69
2929 2913 105
2929 2968 81
2930 2869 115
2930 2902 66
2930 2937 51
2930 2976 106
2931 2928 5
2931 2935 24
2931 2938 6
2932 2891 66
2933 2916 42
2933 2921 25
2933 2958 42
2934 2935 32
2935 2934 32
2935 2931 24
2935 2938 22
2935 2954 44
2936 2914 41
2936 2919 34
2936 2961 53
2937 2930 51
2937 2938 34
2938 2931 6
2938 2937 34
2938 2935 22
2938 2989 144
2939 2890 91
2939 2957 400
2939 3008 118
2940 2895 72
2940 2942 166
2940 3010 125
2941 2911 42
2941 2872 257
2941 3082 177
2942 2912 53
2942 2940 166
2942 3022 138
2943 2944 45
2943 2946 32
2943 2955 34
2944 2943 45
2945 2927 42
2945 2952 26
2945 2962 36
2946 2943 32
2947 2919 43
2948 2803 227
2948 2642 412
2948 3102 183
2949 2432 628
2949 2960 342
2950 2908 77
2950 2924 53
2950 2961 71
2951 2848 167
2951 2889 115
2951 2956 12
2952 2953 117
2952 2945 26
2952 2970 56
2953 2952 117
2954 2935 44
2955 2943 34
2956 2951 12
2956 2973 47
2956 2977 65
2957 2811 315
2957 23759 315
2957 2939 400
2957 3108 186
2958 2933 42
2958 2988 210
2958 2995 72
2959 2960 99
2960 2959 99
2960 2905 272
2960 2949 342
2961 2936 53
2961 2950 71
2962 2945 36
2962 2963 68
2962 2974 33
2962 2982 84
2963 2962 68
2964 2965 72
2965 2964 72
2965 2972 38
2965 2980 66
2966 2876 175
2966 2904 152
2966 2996 81
2967 2903 149
2967 2985 203
2967 2986 50
2968 2929 81
2968 2994 73
2969 2873 170
2969 3012 77
2969 3218 437
2970 2952 56
2970 2982 36
2970 3054 117
2971 2903 424
2971 2987 92
2971 3047 107
2972 2965 38
2973 2956 47
2974 2962 33
2974 2975 69
2974 2983 33
2974 2997 72
2975 2974 69
2976 2930 106
2976 2902 132
2976 3033 75
2977 2956 65
2977 2912 146
2977 3088 144
2978 2918 227
2978 2981 10
2979 2692 421
2979 3105 118
2980 2965 66
2981 2894 222
2981 2978 10
2981 3044 74
2982 2970 36
2982 2962 84
2982 3006 34
2983 2974 33
2983 2984 57
2983 3013 32
2983 3023 70
2984 2983 57
2985 2967 203
2986 2967 50
2986 3186 191
2986 3203 454
2987 2772 402
2987 2971 92
2987 3040 216
2988 2958 210
2988 3077 95
2989 2938 144
2990 2993 23
2990 2998 12
2991 2992 35
2991 2995 39
2992 2991 35
2992 3020 26
2993 2990 23
2993 3060 87
2994 2968 73
2994 3121 141
2994 3246 247
2995 2958 72
2995 2991 39
2995 3025 30
2996 2867 281
2996 2966 81
2996 3032 50
2997 2974 72
2997 3006 11
2997 3023 33
2998 2990 12
2998 3005 70
2998 3055 63
2999 3000 10
2999 3004 37
3000 2999 10
3000 3094 73
3000 3096 104
3001 3002 110
3002 3001 110
3002 3003 32
3002 3008 35
3002 3124 103
3003 3002 32
3003 3009 128
3003 3024 33
3004 2999 37
3004 3045 53
3004 3093 71
3005 2998 70
3005 3007 17
3005 3019 16
3006 2982 34
3006 2997 11
3006 3062 54
3007 3005 17
3007 2679 491
3007 3019 27
3008 2939 118
3008 3002 35
3008 3133 104
3009 3003 128
3009 3024 104
3009 3034 31
3010 2940 125
3010 3022 263
3010 3113 168
3011 2870 290
3011 2873 356
3011 3310 396
3012 2969 77
3012 3632 46
3013 2983 32
3013 3014 40
3013 3061 66
3014 3013 40
3015 2926 212
3016 2452 973
3016 3779 47
3017 3018 211
3017 3027 103
3017 3153 202
3018 3017 211
3019 3005 16
3019 3007 27
3019 3035 30
3020 2992 26
3020 3021 42
3020 3059 31
3021 3020 42
3021 3025 30
3022 2942 138
3022 3010 263
3022 3171 153
3023 2997 33
3023 2983 70
3023 3061 32
3024 3003 33
3024 3009 104
3024 3026 3
3024 3070 33
3025 2995 30
3025 3021 30
3025 3067 30
3026 3024 3
3027 3017 103
3028 3029 46
3028 3030 32
3028 3031 9
3029 3028 46
3030 3028 32
3031 3028 9
3031 3051 13
3032 2996 50
3032 2847 397
3032 3172 158
3033 2976 75
3033 3115 69
3034 3009 31
3034 3070 105
3034 3095 36
3035 3019 30
3035 3039 10
3035 3050 8
3036 3037 69
3036 3038 29
3036 3072 34
3037 3036 69
3038 3036 29
3039 3035 10
3039 3040 2
3040 3039 2
3040 2987 216
3040 3058 8
3041 3042 54
3041 3048 26
3041 3051 21
3042 3041 54
3043 3044 272
3044 3043 272
3044 2981 74
3044 3135 65
3045 3046 90
3045 3004 53
3045 3068 38
3045 3110 42
3046 3045 90
3047 2971 107
3047 3086 54
3047 3140 212
3048 3049 55
3048 3041 26
3048 3052 25
3049 3048 55
3050 3035 8
3050 3058 16
3050 3076 29
3051 3031 13
3051 3041 21
3051 3071 14
3052 3053 53
3052 3048 25
3052 3059 25
3052 3085 19
3053 3052 53
3054 2970 117
3054 3097 31
3054 3099 69
3055 2998 63
3055 3060 53
3055 3076 43
3056 3057 53
3057 3056 53
3058 3040 8
3058 3050 16
3058 3100 29
3059 3020 31
3059 3052 25
3059 3064 20
3059 3089 19
3060 2993 87
3060 3055 53
3060 3083 90
3061 3023 32
3061 3013 66
3061 3074 13
3062 3006 54
3062 3103 37
3062 3131 100
3063 2888 268
3063 3102 88
3064 3059 20
3064 3067 50
3065 3066 27
3065 3090 21
3066 3065 27
3066 3077 83
3066 3112 37
3067 3025 30
3067 3064 50
3067 3104 26
3068 3069 93
3068 3045 38
3068 3079 32
3069 3068 93
3070 3024 33
3070 3034 105
3070 3117 38
3071 3051 14
3072 3073 47
3072 3036 34
3072 3111 31
3073 3072 47
3074 3061 13
3074 3075 89
3074 3081 12
3075 3074 89
3076 3055 43
3076 3050 29
3076 3100 47
3077 2988 95
3077 3066 83
3077 3080 9
3078 3079 90
3079 3078 90
3079 3068 32
3079 3095 41
3080 3077 9
3080 3087 74
3080 3116 32
3081 3074 12
3082 2941 177
3082 3084 202
3082 3174 85
3083 3060 90
3083 3091 240
3083 3313 233
3084 3082 202
3085 3052 19
3086 3047 54
3086 3179 109
3087 3080 74
3087 3101 106
3087 3123 33
3088 2917 249
3088 2977 144
3088 3256 199
3089 3059 19
3090 3065 21
3090 3122 32
3090 3125 35
3091 3092 80
3091 3083 240
3091 3153 380
3092 3091 80
3093 3004 71
3093 3094 40
3093 3110 40
3094 3093 40
3094 3000 73
3094 3096 63
3095 3034 36
3095 3079 41
3095 3098 8
3096 3000 104
3096 3094 63
3096 3108 23
3097 3054 31
3097 3131 38
3097 3148 51
3098 3095 8
3098 3117 96
3098 3138 37
3099 3054 69
3099 3107 30
3099 3151 56
3100 3076 47
3100 3058 29
3100 3140 113
3101 3087 106
3101 3104 35
3101 3137 34
3102 3063 88
3102 2948 183
3102 3113 12
3102 3105 36
3103 3062 37
3103 3118 36
3103 3160 103
3104 3067 26
3104 3101 35
3104 3118 79
3104 3154 52
3105 2979 118
3105 3114 11
3105 3121 65
3105 3102 36
3106 3107 84
3107 3106 84
3107 3099 30
3107 3115 34
3107 3139 31
3108 3096 23
3108 2957 186
3108 3109 60
3108 3166 60
3109 3108 60
3109 3176 99
3110 3045 42
3110 3093 40
3110 3138 117
3111 3072 31
3112 3066 37
3112 3116 81
3112 3149 35
3113 3010 168
3113 3102 12
3113 3260 208
3113 3114 36
3114 3105 11
3114 3178 66
3114 3244 183
3114 3113 36
3115 3033 69
3115 3107 34
3115 3239 122
3116 3080 32
3116 3112 81
3116 3123 75
3116 3150 33
3117 3070 38
3117 3098 96
3117 3124 30
3118 3103 36
3118 3104 79
3118 3184 122
3119 3120 1111
3119 3187 324
3119 3385 565
3120 3119 1111
3121 3105 65
3121 2994 141
3121 3246 135
3122 3090 32
3122 3125 26
3122 3152 39
3123 3087 33
3123 3116 75
3123 3126 36
3123 3155 32
3124 3002 103
3124 3117 30
3124 3133 37
3124 3162 38
3125 3090 35
3125 3122 26
3125 3168 39
3126 3123 36
3126 3132 33
3126 3190 65
3127 3128 477
3128 3127 477
3128 3270 274
3128 3273 160
3129 3130 83
3130 3129 83
3131 3097 38
3131 3062 100
3131 3134 3
3132 3126 33
3132 3137 36
3132 3161 30
3133 3008 104
3133 3124 37
3133 3152 95
3134 3131 3
3134 3148 32
3134 3160 34
3135 3044 65
3135 3142 46
3136 2905 287
3136 2852 378
3136 3337 305
3137 3101 34
3137 3132 36
3138 3098 37
3138 3110 117
3138 3162 120
3138 3170 36
3139 3107 31
3140 3100 113
3140 3047 212
3140 3220 92
3141 3142 135
3141 3296 163
3142 3141 135
3142 3135 46
3142 3169 25
3143 3144 91
3144 3143 91
3145 3146 88
3146 3145 88
3147 2773 662
3147 3175 43
3147 3176 76
3148 3097 51
3148 3134 32
3148 3167 20
3148 3167 137
3149 3112 35
3149 3150 72
3149 3177 33
3150 3116 33
3150 3149 72
3150 3155 75
3150 3180 32
3151 3099 56
3151 3167 49
3151 3182 32
3152 3122 39
3152 3133 95
3152 3168 56
3153 3017 202
3153 3174 234
3153 3091 380
3154 3104 52
3154 3183 33
3154 3208 62
3155 3123 32
3155 3150 75
3155 3185 31
3156 3157 91
3157 3156 91
3158 3159 85
3158 3189 57
3159 3158 85
3160 3134 34
3160 3103 103
3160 3184 33
3161 3132 30
3162 3124 38
3162 3138 120
3162 3188 30
3162 3192 161
3163 3164 19
3163 3165 72
3163 3189 34
3164 3163 19
3165 3163 72
3166 3108 60
3166 3249 103
3166 3254 91
3167 3151 49
3167 3148 20
3167 3148 137
3168 3125 39
3168 3152 56
3168 3196 35
3169 3142 25
3169 3173 70
3169 3193 28
3170 3138 36
3170 3188 124
3170 3283 100
3171 3022 153
3171 3256 111
3172 3032 158
3172 3223 69
3173 3169 70
3174 3082 85
3174 3153 234
3174 3383 354
3175 3147 43
3175 3215 90
3175 3229 69
3176 3109 99
3176 3147 76
3176 3215 45
3177 3149 33
3177 3180 61
3177 3222 42
3178 3114 66
3178 3228 70
3178 3285 110
3179 3086 109
3179 3198 44
3179 3203 30
3180 3150 32
3180 3177 61
3180 3185 74
3180 3207 28
3181 3182 33
3182 3181 33
3182 3151 32
3182 3200 26
3182 3204 98
3183 3154 33
3183 3191 22
3183 3226 43
3184 3160 33
3184 3118 122
3184 3204 44
3185 3155 31
3185 3180 74
3185 3209 24
3186 2986 191
3187 3119 324
3188 3162 30
3188 3170 124
3188 3210 116
3189 3163 34
3189 3158 57
3189 3211 45
3189 3213 27
3190 3126 65
3191 3183 22
3191 3199 20
3191 3240 44
3192 3162 161
3192 3196 50
3192 3266 63
3193 3169 28
3193 3197 54
3193 3227 31
3194 3195 92
3194 3212 34
3194 3225 33
3195 3194 92
3196 3168 35
3196 3192 50
3196 3274 67
3197 3193 54
3198 3179 44
3198 3221 76
3198 3243 35
3199 3191 20
3199 3241 44
3199 3255 47
3200 3182 26
3200 3231 86
3200 3252 35
3201 3202 40
3201 3267 88
3201 3292 163
3202 3201 40
3203 3179 30
3203 2986 454
3203 3379 170
3204 3182 98
3204 3184 44
3205 3206 75
3206 3205 75
3206 3213 12
3207 3180 28
3208 3154 62
3208 3226 29
3209 3185 24
3210 3188 116
3211 3189 45
3212 3194 34
3212 3214 7
3212 3214 7
3212 3225 16
3213 3189 27
3213 3206 12
3213 3245 47
3213 3250 25
3214 3212 7
3214 3212 7
3214 3219 3
3214 3219 3
3215 3176 45
3215 3175 90
3215 3254 60
3216 3217 170
3217 3216 170
3218 2969 437
3219 3214 3
3219 3214 3
3219 3242 25
3219 3359 162
3220 3140 92
3220 3253 38
3220 3357 353
3221 3198 76
3222 3177 42
3223 3172 69
3223 3224 105
3223 3229 10
3223 3264 48
3224 3223 105
3225 3212 16
3225 3194 33
3225 3230 3
3225 3234 7
3225 3260 52
3226 3183 43
3226 3208 29
3226 3240 22
3227 3193 31
3227 3235 62
3227 3269 35
3228 3178 70
3228 3297 91
3228 3335 95
3229 3175 69
3229 3223 10
3229 3259 44
3229 3317 97
3230 3225 3
3230 3234 3
3231 3200 86
3232 3233 24
3232 3247 82
3232 3391 167
3233 3232 24
3233 3236 66
3233 3321 132
3234 3225 7
3234 3230 3
3234 3242 7
3234 3242 7
3235 3227 62
3236 3237 26
3236 3238 134
3236 3233 66
3237 3236 26
3237 3278 131
3237 3326 74
3238 3236 134
3239 3115 122
3239 3252 36
3239 3507 335
3240 3191 44
3240 3226 22
3240 3255 22
3241 3199 44
3241 3251 29
3241 3257 21
3242 3234 7
3242 3234 7
3242 3219 25
3242 3420 187
3243 3198 35
3243 3376 245
3244 3114 183
3244 3285 79
3244 3380 136
3245 3213 47
3246 3121 135
3246 2994 247
3246 3383 139
3247 3232 82
3247 3248 172
3247 3292 70
3248 3247 172
3249 3166 103
3249 3275 160
3249 3382 130
3250 3213 25
3250 3261 51
3250 3262 22
3251 3241 29
3251 3255 23
3251 3271 19
3252 3239 36
3252 3200 35
3252 3277 85
3252 3415 169
3253 3220 38
3254 3166 91
3254 3215 60
3254 3286 29
3255 3251 23
3255 3199 47
3255 3240 22
3255 3309 43
3256 3088 199
3256 3171 111
3256 3516 395
3257 3241 21
3257 3271 38
3257 3288 29
3258 3259 37
3259 3258 37
3259 3229 44
3259 3311 53
3259 3372 130
3260 3225 52
3260 3113 208
3260 3516 292
3261 3250 51
3262 3250 22
3262 3263 77
3262 3350 69
3263 3262 77
3264 3223 48
3264 3265 145
3264 3310 48
3265 3264 145
3266 3192 63
3267 3201 88
3267 3268 217
3267 3272 11
3268 3267 217
3269 3227 35
3269 3276 36
3269 3427 169
3270 3128 274
3270 3364 111
3271 3257 38
3271 3251 19
3271 3302 24
3272 3267 11
3272 3287 40
3272 3316 49
3273 3128 160
3273 3345 155
3274 3196 67
3275 3249 160
3275 3283 46
3275 3342 55
3276 3269 36
3277 3252 85
3278 3237 131
3278 3281 25
3278 3440 169
3279 3280 17
3280 3279 17
3280 3327 49
3280 3423 232
3281 3282 198
3281 3278 25
3281 3284 24
3282 3281 198
3283 3170 100
3283 3275 46
3283 3304 126
3284 3281 24
3284 3290 17
3284 3298 260
3285 3178 110
3285 3244 79
3285 3335 89
3285 3392 104
3286 3254 29
3286 3372 75
3286 3382 132
3287 3272 40
3287 3303 45
3287 3316 28
3288 3289 39
3288 3257 29
3288 3299 46
3288 3312 26
3289 3288 39
3290 3291 70
3290 3284 17
3290 3298 52
3291 3290 70
3292 3247 70
3292 3201 163
3292 3303 112
3293 3294 49
3293 3361 140
3294 3293 49
3294 3295 139
3294 3333 47
3294 3390 138
3295 3294 139
3296 3141 163
3296 3351 79
3296 3425 206
3297 3228 91
3297 3367 72
3297 3378 81
3298 3290 52
3298 3300 16
3298 3284 260
3299 3288 46
3299 3302 3
3299 3322 24
3300 3301 93
3300 3298 16
3300 3307 65
3301 3300 93
3302 3299 3
3302 3271 24
3302 3309 33
3303 3287 45
3303 3292 112
3303 3377 67
3304 3283 126
3305 3306 31
3305 3316 82
3305 3365 47
3306 3305 31
3307 3308 63
3307 3300 65
3307 3344 146
3308 3307 63
3309 3302 33
3309 3255 43
3309 3336 23
3310 3264 48
3310 3011 396
3310 3317 10
3310 3361 53
3311 3259 53
3311 3358 48
3311 3406 144
3312 3288 26
3312 3315 5
3312 3322 59
3313 3083 233
3313 3338 38
3313 3356 35
3314 3315 60
3315 3314 60
3315 3312 5
3315 3339 20
3316 3287 28
3316 3272 49
3316 3305 82
3316 3369 39
3317 3229 97
3317 3310 10
3317 3358 45
3317 3457 196
3318 3319 72
3318 3394 81
3319 3318 72
3319 3348 78
3319 3405 84
3320 3321 28
3321 3320 28
3321 3233 132
3321 3374 38
3322 3312 59
3322 3299 24
3322 3355 22
3323 3324 146
3324 3323 146
3324 3325 66
3324 3363 48
3325 3324 66
3326 3237 74
3327 3280 49
3327 3387 71
3327 3464 231
3328 3329 41
3328 3330 57
3328 3351 34
3329 3328 41
3330 3328 57
3331 3332 84
3331 3344 98
3331 3349 217
3332 3331 84
3332 3352 56
3332 3373 32
3333 3294 47
3333 3334 100
3333 3370 37
3333 3375 51
3334 3333 100
3335 3228 95
3335 3285 89
3335 3378 87
3336 3309 23
3336 3381 69
3337 3136 305
3337 3349 182
3337 3384 45
3338 3313 38
3338 3356 30
3338 3357 43
3339 3315 20
3339 3355 58
3339 3381 70
3340 3341 569
3341 3340 569
3341 3403 116
3341 3486 896
3342 3275 55
3343 2920 524
3343 3404 95
3343 3497 244
3344 3331 98
3344 3307 146
3344 3373 148
3344 3512 227
3345 3273 155
3345 3346 52
3345 3456 123
3346 3345 52
3346 3347 35
3346 3364 96
3346 3437 106
3347 3346 35
3348 3319 78
3348 3350 33
3348 3419 81
3349 3331 217
3349 3337 182
3349 3389 43
3350 3262 69
3350 3348 33
3350 3354 45
3351 3296 79
3351 3328 34
3351 3368 19
3352 3332 56
3352 3388 41
3352 3389 74
3353 3354 51
3354 3353 51
3354 3350 45
3354 3393 43
3355 3339 58
3355 3322 22
3355 3381 26
3356 3313 35
3356 3338 30
3356 3569 276
3357 3220 353
3357 3338 43
3357 3401 83
3358 3311 48
3358 3317 45
3358 3436 153
3358 3453 147
3359 3360 26
3359 3219 162
3359 3420 120
3360 3359 26
3361 3310 53
3361 3293 140
3361 3390 46
3362 3363 135
3363 3362 135
3363 3324 48
3363 3387 49
3364 3346 96
3364 3270 111
3364 3393 52
3365 3305 47
3365 3366 61
3365 3369 75
3365 3397 41
3366 3365 61
3367 3297 72
3367 3435 93
3368 3351 19
3368 3408 56
3369 3316 39
3369 3365 75
3369 3402 42
3370 3333 37
3370 3371 98
3370 3399 49
3371 3370 98
3372 3286 75
3372 3259 130
3372 3406 57
3372 3412 120
3373 3332 32
3373 3344 148
3373 3388 51
3374 3321 38
3375 3333 51
3375 3396 47
3375 3459 130
3376 3243 245
3376 3433 79
3377 3303 67
3378 3297 81
3378 3335 87
3378 3407 46
3379 3203 170
3379 3410 87
3379 3413 67
3380 3244 136
3380 3386 12
3380 3447 108
3381 3339 70
3381 3355 26
3381 3336 69
3382 3249 130
3382 3286 132
3382 3412 51
3382 3455 144
3383 3246 139
3383 3174 354
3383 3386 10
3383 3630 374
3384 3337 45
3384 3394 78
3384 3434 214
3385 3119 565
3386 3380 12
3386 3383 10
3386 3395 11
3386 3699 454
3387 3327 71
3387 3363 49
3387 3432 101
3388 3352 41
3388 3373 51
3388 3411 75
3389 3349 43
3389 3352 74
3389 3411 36
3390 3361 46
3390 3294 138
3390 3417 48
3391 3232 167
3392 3285 104
3392 3447 75
3392 3450 171
3393 3364 52
3393 3354 43
3393 3424 46
3394 3318 81
3394 3384 78
3394 3405 76
3394 3474 95
3395 3386 11
3395 3471 100
3395 3475 103
3396 3375 47
3396 3417 38
3396 3476 128
3397 3365 41
3397 3398 30
3397 3402 86
3397 3425 42
3398 3397 30
3399 3370 49
3399 3400 157
3399 3423 47
3400 3399 157
3401 3357 83
3402 3369 42
3402 3397 86
3402 3465 90
3403 3341 116
3404 3343 95
3404 3416 25
3404 3461 100
3405 3319 84
3405 3394 76
3405 3419 74
3405 3484 91
3406 3372 57
3406 3311 144
3406 3436 43
3407 3378 46
3407 3435 80
3407 3450 52
3408 3368 56
3408 3409 70
3408 3495 97
3409 3408 70
3410 3379 87
3411 3389 36
3411 3388 75
3411 3426 51
3411 3505 108
3412 3382 51
3412 3372 120
3412 3479 150
3412 3510 144
3413 3379 67
3413 3414 5
3414 3413 5
3414 3418 208
3414 3466 137
3415 3252 169
3416 3404 25
3416 3469 88
3416 3546 212
3417 3390 48
3417 3396 38
3417 3460 59
3418 3414 208
3418 3647 353
3419 3348 81
3419 3405 74
3419 3424 84
3419 3489 78
3420 3359 120
3420 3242 187
3420 3470 59
3421 3422 1338
3422 3421 1338
3423 3399 47
3423 3280 232
3423 3459 50
3423 3464 48
3424 3393 46
3424 3419 84
3424 3496 73
3425 3397 42
3425 3296 206
3425 3463 104
3426 3411 51
3426 3434 10
3426 3508 89
3427 3269 169
3427 3454 86
3427 3495 131
3428 3429 151
3429 3428 151
3430 3431 47
3431 3430 47
3431 3452 118
3431 3467 175
3432 3387 101
3433 3376 79
3433 3443 18
3433 3527 114
3434 3384 214
3434 3426 10
3434 3451 29
3435 3367 93
3435 3407 80
3435 3480 55
3436 3406 43
3436 3358 153
3436 3542 143
3437 3346 106
3437 3456 45
3437 3472 36
3438 3439 83
3439 3438 83
3439 3441 29
3439 3444 31
3439 3488 50
3440 3278 169
3440 3441 41
3440 3458 16
3441 3440 41
3441 3442 97
3441 3439 29
3441 3483 47
3442 3441 97
3443 3433 18
3444 3439 31
3444 3445 77
3444 3446 44
3444 3492 54
3445 3444 77
3446 3444 44
3447 3392 75
3447 3380 108
3447 3481 45
3448 3449 55
3449 3448 55
3449 3519 230
3450 3407 52
3450 3392 171
3450 3539 128
3451 3434 29
3451 3462 39
3452 3431 118
3452 3455 37
3452 3606 272
3453 3358 147
3453 3482 48
3453 3514 132
3454 3427 86
3455 3452 37
3455 3382 144
3456 3345 123
3456 3437 45
3457 3317 196
3457 3482 50
3457 3697 421
3458 3440 16
3458 3473 45
3459 3375 130
3459 3423 50
3459 3476 44
3460 3417 59
3460 3498 66
3461 3404 100
3461 3469 32
3461 3506 83
3462 3451 39
3462 3468 60
3462 3536 99
3463 3425 104
3463 3465 34
3464 3423 48
3464 3327 231
3464 3493 45
3464 3525 137
3465 3402 90
3465 3463 34
3465 3520 111
3466 3414 137
3467 3431 175
3468 3462 60
3468 3474 84
3468 3529 80
3469 3416 88
3469 3461 32
3469 3576 201
3470 3420 59
3471 3395 100
3472 3437 36
3472 3485 44
3472 3499 36
3473 3458 45
3473 3511 60
3474 3394 95
3474 3468 84
3474 3484 80
3474 3524 68
3475 3395 103
3475 3481 24
3475 3590 163
3476 3396 128
3476 3459 44
3476 3498 43
3477 3478 170
3478 3477 170
3479 3412 150
3480 3435 55
3480 3548 93
3480 3559 138
3481 3447 45
3481 3475 24
3481 3532 137
3481 3615 202
3482 3453 48
3482 3457 50
3482 3509 68
3482 3549 143
3483 3441 47
3484 3405 91
3484 3474 80
3484 3489 76
3484 3531 64
3485 3472 44
3486 3487 154
3486 3341 896
3486 3562 202
3487 3486 154
3488 3439 50
3489 3419 78
3489 3484 76
3489 3496 80
3489 3553 85
3490 3491 254
3491 3490 254
3492 3444 54
3493 3464 45
3493 3494 52
3493 3517 50
3493 3557 137
3494 3493 52
3495 3408 97
3495 3427 131
3495 3626 202
3496 3424 73
3496 3489 80
3496 3499 126
3496 3558 90
3497 3343 244
3497 3546 96
3498 3460 66
3498 3476 43
3498 3525 48
3499 3472 36
3499 3496 126
3499 3579 115
3500 3501 629
3501 3500 629
3502 3503 104
3503 3502 104
3503 3504 81
3503 3598 151
3504 3503 81
3505 3411 108
3506 3461 83
3506 3521 44
3506 3602 214
3507 3239 335
3507 3515 151
3507 3594 288
3507 3720 429
3508 3426 89
3509 3482 68
3510 3412 144
3511 3473 60
3511 3512 356
3511 3513 12
3512 3344 227
3512 3511 356
3512 3533 49
3512 3561 80
3513 3511 12
3513 3547 39
3514 3453 132
3514 3542 57
3514 3549 48
3515 3507 151
3516 3256 395
3516 3260 292
3516 3521 13
3516 3548 50
3517 3493 50
3517 3518 123
3517 3552 52
3517 3580 138
3518 3517 123
3519 3449 230
3519 3555 42
3520 3465 111
3520 3566 75
3520 3643 439
3521 3506 44
3521 3516 13
3521 3530 9
3522 3523 25
3522 3528 4
3523 3522 25
3523 3526 4
3524 3474 68
3524 3531 71
3524 3540 15
3525 3498 48
3525 3464 137
3525 3557 49
3526 3523 4
3526 3528 26
3527 3433 114
3527 3535 92
3527 3556 42
3528 3522 4
3528 3526 26
3529 3468 80
3529 3536 65
3529 3537 73
3529 3575 66
3530 3521 9
3530 3657 231
3530 3718 340
3531 3484 64
3531 3524 71
3531 3551 25
3532 3481 137
3532 3539 12
3532 3615 150
3533 3512 49
3533 3561 142
3533 3589 105
3534 3535 356
3535 3534 356
3535 3541 12
3535 3527 92
3536 3529 65
3536 3462 99
3536 3573 60
3537 3529 73
3537 3538 7
3537 3538 5
3537 3554 19
3538 3537 7
3538 3537 5
3538 3540 7
3538 3554 24
3539 3450 128
3539 3532 12
3539 3559 59
3540 3524 15
3540 3538 7
3540 3551 81
3540 3571 53
3541 3535 12
3542 3436 143
3542 3514 57
3542 3584 68
3543 3544 221
3544 3543 221
3544 3545 117
3544 3598 148
3545 3544 117
3546 3497 96
3546 3416 212
3546 3576 85
3547 3513 39
3547 3550 97
3547 3578 125
3548 3516 50
3548 3480 93
3548 3693 258
3549 3514 48
3549 3482 143
3549 3581 56
3550 3547 97
3550 3560 18
3550 3560 18
3551 3531 25
3551 3540 81
3551 3553 80
3551 3600 87
3552 3517 52
3552 3599 139
3552 3638 166
3553 3489 85
3553 3551 80
3553 3558 81
3553 3601 94
3554 3537 19
3554 3538 24
3555 3519 42
3555 3563 163
3555 3569 106
3556 3527 42
3556 3563 117
3556 3568 89
3557 3525 49
3557 3493 137
3557 3580 47
3558 3496 90
3558 3553 81
3558 3579 154
3558 3603 82
3559 3480 138
3559 3539 59
3559 3659 170
3560 3550 18
3560 3550 18
3560 3565 3
3560 3565 2
3561 3512 80
3561 3570 88
3561 3533 142
3562 3486 202
3562 3564 1
3562 3564 7
3562 3661 233
3563 3556 117
3563 3555 163
3563 3587 116
3564 3562 1
3564 3562 7
3564 3579 89
3565 3560 3
3565 3560 2
3565 3574 37
3565 3574 36
3566 3520 75
3566 3567 100
3566 3583 32
3567 3566 100
3568 3556 89
3568 3585 75
3569 3356 276
3569 3555 106
3569 3669 289
3569 3710 566
3570 3561 88
3570 3572 35
3570 3624 84
3571 3540 53
3571 3575 83
3571 3596 44
3572 3570 35
3572 3573 165
3572 3616 70
3573 3536 60
3573 3572 165
3573 3575 77
3574 3565 37
3574 3565 36
3574 3577 6
3574 3577 6
3575 3571 83
3575 3529 66
3575 3573 77
3576 3546 85
3576 3469 201
3576 3595 70
3577 3574 6
3577 3574 6
3577 3588 24
3577 3588 25
3578 3547 125
3578 3641 110
3579 3564 89
3579 3499 115
3579 3558 154
3579 3733 267
3580 3557 47
3580 3517 138
3580 3599 50
3581 3549 56
3581 3582 52
3581 3584 55
3582 3581 52
3583 3566 32
3583 3593 73
3583 3592 70
3584 3542 68
3584 3581 55
3584 3688 166
3585 3568 75
3585 3586 318
3585 3597 57
3586 3585 318
3587 3563 116
3588 3577 24
3588 3577 25
3588 3623 60
3588 3623 62
3589 3533 105
3589 3614 84
3590 3475 163
3590 3636 107
3590 3680 134
3591 3592 106
3592 3591 106
3592 3583 70
3592 3671 135
3593 3583 73
3594 3507 288
3595 3576 70
3595 3602 31
3595 3657 119
3596 3571 44
3596 3600 76
3596 3634 59
3597 3585 57
3598 3503 151
3598 3544 148
3598 3644 283
3598 3656 398
3599 3580 50
3599 3552 139
3599 3692 151
3600 3551 87
3600 3596 76
3600 3601 86
3600 3649 71
3601 3553 94
3601 3600 86
3601 3603 83
3601 3662 74
3602 3595 31
3602 3506 214
3603 3558 82
3603 3601 83
3603 3660 69
3604 3605 155
3604 3633 40
3604 3655 102
3605 3604 155
3606 3452 272
3606 3609 3
3606 3756 363
3607 3608 118
3607 3617 134
3608 3607 118
3608 3635 51
3608 3679 101
3609 3606 3
3610 3611 38
3610 3627 38
3610 3651 58
3611 3610 38
3612 3613 26
3613 3612 26
3613 23760 12
3614 3589 84
3614 3653 53
3615 3532 150
3615 3481 202
3615 3659 78
3616 3572 70
3616 3624 61
3616 3640 38
3617 3607 134
3617 3642 59
3617 3645 49
3618 3619 71
3619 3618 71
3619 3620 48
3619 3669 85
3620 3619 48
3621 3622 28
3622 3621 28
3622 23762 10
3623 3588 60
3623 3588 62
3623 3625 50
3624 3616 61
3624 3570 84
3624 3668 77
3625 3623 50
3625 3667 61
3626 3495 202
3626 3648 62
3626 3650 48
3627 3610 38
3628 3629 44
3629 3628 44
3630 3383 374
3630 3681 109
3630 3698 85
3631 3632 851
3631 3722 191
3631 3867 735
3632 3631 851
3632 3012 46
3633 3604 40
3634 3596 59
3634 3649 69
3634 3708 85
3635 3608 51
3635 3682 55
3635 3689 69
3636 3590 107
3636 3637 35
3636 3670 40
3637 3636 35
3637 3711 157
3638 3552 166
3638 3675 55
3638 3730 142
3639 3640 97
3640 3639 97
3640 3616 38
3640 3654 74
3640 3666 26
3641 3578 110
3641 3643 26
3642 3617 59
3642 3679 57
3642 3684 50
3643 3641 26
3643 3520 439
3643 3646 85
3644 3598 283
3645 3617 49
3645 3684 61
3645 3688 56
3646 3643 85
3646 3664 133
3647 3418 353
3647 3655 32
3647 3717 96
3647 3748 407
3648 3626 62
3648 3912 525
3649 3600 71
3649 3634 69
3649 3662 82
3650 3626 48
3650 3663 69
3650 3677 35
3651 3610 58
3651 3652 9
3651 3658 70
3652 3651 9
3653 3614 53
3653 3667 51
3653 3668 237
3653 3690 45
3654 3640 74
3655 3647 32
3655 3604 102
3655 3656 10
3656 3655 10
3656 3598 398
3656 3717 92
3657 3595 119
3657 3530 231
3657 3732 152
3658 3651 70
3658 3661 57
3658 3695 45
3659 3559 170
3659 3615 78
3659 3693 73
3660 3603 69
3660 3662 90
3660 3733 191
3661 3562 233
3661 3658 57
3661 3824 490
3662 3601 74
3662 3649 82
3662 3660 90
3663 3650 69
3664 3646 133
3664 3687 30
3665 3666 23
3666 3665 23
3666 3640 26
3666 3683 71
3666 3707 54
3667 3653 51
3667 3625 61
3667 3678 72
3667 3686 22
3668 3624 77
3668 3653 237
3669 3569 289
3669 3619 85
3669 3672 12
3670 3636 40
3670 3691 43
3670 3701 45
3671 3592 135
3671 3685 79
3671 3694 99
3672 3669 12
3672 3673 6
3672 3706 62
3673 3672 6
3673 3674 275
3673 3894 498
3674 3673 275
3675 3676 113
3675 3638 55
3675 3692 43
3675 3736 140
3676 3675 113
3677 3650 35
3678 3667 72
3678 3703 56
3679 3642 57
3679 3608 101
3679 3696 52
3679 3704 50
3680 3590 134
3681 3630 109
3682 3635 55
3682 3712 57
3682 3715 72
3683 3666 71
3684 3645 61
3684 3642 50
3684 3704 58
3685 3671 79
3686 3667 22
3686 3690 56
3687 3664 30
3687 3703 27
3688 3584 166
3688 3645 56
3688 3700 32
3689 3635 69
3689 3696 15
3689 3712 53
3690 3653 45
3690 3686 56
3691 3670 43
3691 3701 32
3691 3749 157
3692 3599 151
3692 3675 43
3692 3697 13
3692 3745 137
3693 3548 258
3693 3659 73
3693 3714 32
3694 3671 99
3695 3658 45
3696 3679 52
3696 3689 15
3696 3719 55
3697 3457 421
3697 3692 13
3697 3715 50
3697 3754 137
3698 3630 85
3698 3818 267
3699 3386 454
3699 3711 47
3699 3825 279
3700 3688 32
3700 3725 68
3700 3747 169
3701 3691 32
3701 3670 45
3701 3749 217
3702 2840 1342
3702 3732 80
3702 5254 2470
3703 3678 56
3703 3687 27
3703 3868 699
3704 3684 58
3704 3679 50
3704 3719 49
3704 3731 56
3705 3706 139
3706 3705 139
3706 3672 62
3706 3738 90
3707 3666 54
3708 3634 85
3708 5881 4699
3709 3710 159
3710 3709 159
3710 3569 566
3710 3792 254
3711 3637 157
3711 3699 47
3711 3713 3
3712 3689 53
3712 3682 57
3712 3735 69
3713 3711 3
3713 3716 60
3713 3858 328
3714 3693 32
3714 3761 109
3715 3682 72
3715 3697 50
3715 3734 47
3715 3744 114
3716 3713 60
3716 3739 53
3717 3647 96
3717 3656 92
3717 3790 166
3718 3530 340
3718 3769 209
3718 3785 155
3719 3704 49
3719 3696 55
3719 3735 54
3720 3721 140
3720 3507 429
3720 3764 90
3721 3720 140
3721 3741 385
3721 3762 251
3722 3631 191
3722 3723 0
3722 3724 1
3722 3795 550
3723 3722 0
3723 3724 1
3724 3722 1
3724 3723 1
3724 3890 401
3725 3700 68
3725 3731 15
3725 3775 209
3726 3727 9
3726 3742 243
3726 3767 251
3727 3726 9
3728 3729 62
3729 3728 62
3730 3638 142
3730 3736 48
3730 3740 45
3731 3725 15
3731 3704 56
3731 3763 117
3732 3702 80
3732 3657 152
3732 3769 101
3733 3579 267
3733 3660 191
3733 3824 825
3734 3715 47
3734 3746 45
3734 3773 158
3735 3719 54
3735 3712 69
3735 3744 38
3736 3675 140
3736 3730 48
3736 3745 46
3737 3738 92
3738 3737 92
3738 3706 90
3739 3716 53
3739 3798 181
3739 3829 198
3740 3730 45
3740 3760 44
3740 3771 100
3741 3721 385
3741 3752 33
3741 3766 52
3742 3743 35
3742 3726 243
3742 3786 102
3743 3742 35
3744 3735 38
3744 3715 114
3744 3765 56
3745 3692 137
3745 3736 46
3745 3754 14
3745 3771 50
3746 3734 45
3746 3768 45
3746 3789 149
3747 3700 169
3747 3775 72
3747 3781 184
3748 3647 407
3748 3750 78
3748 3753 67
3748 3830 179
3749 3691 157
3749 3761 32
3749 3701 217
3750 3748 78
3750 3751 133
3750 3831 175
3751 3750 133
3752 3741 33
3752 3755 56
3752 3782 97
3753 3748 67
3754 3697 137
3754 3745 14
3754 3768 50
3754 3780 75
3755 3752 56
3756 3606 363
3756 3864 559
3757 3758 62
3758 3757 62
3758 3759 299
3758 3792 92
3759 3758 299
3760 3740 44
3760 3774 46
3760 3787 110
3761 3714 109
3761 3749 32
3761 3852 213
3762 3721 251
3762 3770 21
3762 3777 157
3763 3731 117
3763 3765 12
3763 3812 257
3764 3720 90
3764 3772 133
3764 3828 325
3765 3763 12
3765 3744 56
3765 3773 44
3766 3741 52
3766 3770 10
3766 3782 59
3767 3726 251
3768 3746 45
3768 3754 50
3768 3788 53
3768 3801 144
3769 3732 101
3769 3718 209
3769 3793 64
3770 3766 10
3770 3762 21
3770 3794 69
3771 3745 50
3771 3740 100
3771 3787 45
3772 3764 133
3773 3765 44
3773 3734 158
3773 3776 26
3774 3760 46
3774 3791 47
3774 3807 122
3775 3747 72
3775 3725 209
3775 3796 113
3775 3812 88
3776 3773 26
3776 3789 21
3776 3808 154
3777 3762 157
3778 3779 1209
3778 3891 231
3779 3778 1209
3779 3016 47
3780 3754 75
3780 3834 113
3781 3747 184
3781 3833 233
3781 4026 844
3782 3752 97
3782 3766 59
3782 3794 31
3783 3784 31
3784 3783 31
3784 3806 52
3785 3718 155
3785 3814 189
3785 3850 140
3786 3742 102
3787 3771 45
3787 3760 110
3787 3807 47
3788 3768 53
3788 3802 46
3788 3823 128
3789 3776 21
3789 3746 149
3789 3801 50
3790 3717 166
3790 3831 317
3790 3915 270
3791 3774 47
3791 3811 47
3791 3813 88
3792 3758 92
3792 3710 254
3792 3818 145
3793 3769 64
3793 3814 51
3793 4124 579
3794 3782 31
3794 3770 69
3794 3816 52
3795 3722 550
3795 3817 81
3795 3870 154
3796 3775 113
3797 3798 157
3798 3797 157
3798 3739 181
3798 3852 113
3799 3800 83
3800 3799 83
3801 3789 50
3801 3768 144
3801 3823 54
3802 3788 46
3802 3826 45
3802 3840 112
3803 3804 501
3804 3803 501
3804 3846 97
3805 3806 100
3806 3805 100
3806 3784 52
3806 3938 282
3807 3787 47
3807 3774 122
3807 3827 45
3808 3776 154
3808 3841 69
3809 3810 39
3809 3828 60
3809 3861 158
3810 3809 39
3811 3791 47
3811 3832 49
3811 3839 98
3812 3775 88
3812 3763 257
3812 3859 115
3813 3791 88
3813 3827 46
3813 3839 50
3814 3793 51
3814 3785 189
3814 3892 155
3815 3816 11
3815 3819 21
3815 3822 64
3816 3815 11
3816 3794 52
3816 3819 9
3817 3795 81
3817 3856 129
3817 3879 123
3818 3698 267
3818 3792 145
3818 3825 15
3818 3875 123
3819 3815 21
3819 3816 9
3819 3842 41
3820 3821 257
3820 3962 256
3821 3820 257
3822 3815 64
3823 3801 54
3823 3788 128
3823 3840 39
3823 3855 121
3824 3661 490
3824 3733 825
3824 3981 602
3825 3699 279
3825 3818 15
3825 3851 50
3826 3802 45
3826 3848 48
3826 3853 93
3827 3807 45
3827 3813 46
3827 3911 185
3828 3764 325
3828 3809 60
3828 3861 179
3828 3901 239
3829 3739 198
3829 3835 49
3829 3869 86
3830 3748 179
3830 3838 20
3830 3940 344
3831 3750 175
3831 3790 317
3831 3838 166
3831 4078 440
3832 3811 49
3832 3849 49
3832 3860 111
3833 3781 233
3834 3780 113
3834 3848 57
3834 3854 46
3835 3829 49
3836 3837 463
3837 3836 463
3837 3861 127
3837 3864 217
3838 3830 20
3838 3843 13
3838 3831 166
3839 3813 50
3839 3811 98
3839 3860 50
3840 3823 39
3840 3802 112
3840 3853 44
3841 3808 69
3841 3857 35
3841 3859 114
3842 3819 41
3842 3847 19
3842 3874 140
3843 3838 13
3843 3909 185
3844 3845 15
3844 3847 33
3844 3862 87
3845 3844 15
3846 3804 97
3846 3849 13
3847 3844 33
3847 3842 19
3847 3907 124
3848 3826 48
3848 3834 57
3848 3872 70
3849 3832 49
3849 3846 13
3849 3867 50
3849 3887 121
3850 3785 140
3850 3865 79
3850 3982 225
3851 3825 50
3851 3858 61
3851 3897 108
3852 3761 213
3852 3798 113
3852 3866 33
3853 3840 44
3853 3826 93
3853 3872 54
3854 3834 46
3854 3873 47
3854 3889 110
3855 3823 121
3855 3863 78
3855 3943 167
3856 3817 129
3856 3876 81
3856 3888 66
3857 3841 35
3857 3863 24
3857 3871 170
3858 3713 328
3858 3851 61
3858 3869 93
3858 3904 100
3859 3812 115
3859 3841 114
3859 3903 111
3860 3839 50
3860 3832 111
3860 3887 48
3861 3809 158
3861 3837 127
3861 3828 179
3862 3844 87
3862 3907 124
3863 3857 24
3863 3855 78
3863 3871 12
3864 3837 217
3864 3756 559
3864 3902 92
3865 3850 79
3865 3886 64
3865 4001 230
3866 3852 33
3866 3955 215
3866 3987 193
3867 3849 50
3867 3631 735
3867 3900 134
3868 3703 699
3869 3829 86
3869 3858 93
3869 3885 97
3869 3960 155
3870 3795 154
3870 3879 66
3870 3958 140
3871 3863 12
3871 3857 170
3871 3903 90
3872 3853 54
3872 3848 70
3872 3889 42
3873 3854 47
3873 3895 45
3873 3899 93
3874 3842 140
3875 3818 123
3875 3939 106
3876 3856 81
3876 3933 175
3876 3934 97
3877 3878 9
3877 3881 32
3877 3935 123
3878 3877 9
3878 3880 33
3879 3817 123
3879 3870 66
3879 3888 116
3879 3908 63
3880 3878 33
3880 3893 27
3880 3915 148
3881 3877 32
3881 3922 93
3882 3883 142
3882 3906 57
3883 3882 142
3883 3896 60
3884 3885 92
3885 3884 92
3885 3869 97
3885 3955 118
3886 3865 64
3886 3892 60
3886 4015 226
3887 3860 48
3887 3849 121
3887 3900 44
3888 3856 66
3888 3879 116
3888 3921 61
3889 3872 42
3889 3854 110
3889 3899 43
3890 3724 401
3890 3898 26
3891 3778 231
3891 4541 1057
3892 3814 155
3892 3886 60
3892 4037 238
3893 3880 27
3894 3673 498
3894 3905 43
3894 3940 75
3895 3873 45
3895 3910 36
3895 3916 73
3896 3883 60
3896 3905 20
3896 3906 182
3897 3851 108
3897 3917 34
3897 3952 146
3898 3890 26
3898 3954 568
3898 4054 246
3899 3889 43
3899 3873 93
3899 3916 41
3900 3887 44
3900 3867 134
3900 3918 47
3901 3828 239
3902 3864 92
3902 3945 84
3902 4005 180
3903 3859 111
3903 3871 90
3903 3914 28
3904 3858 100
3905 3896 20
3905 3894 43
3905 3906 208
3906 3882 57
3906 3896 182
3906 3932 29
3906 3905 208
3907 3862 124
3907 3847 124
3907 3986 126
3908 3879 63
3908 3921 117
3908 3961 71
3909 3843 185
3909 3947 143
3909 3988 141
3910 3895 36
3910 3946 65
3911 3827 185
3911 3918 8
3912 3648 525
3912 3913 613
3912 3963 73
3913 3912 613
3914 3903 28
3914 3927 222
3915 3790 270
3915 3880 148
3915 3975 103
3916 3899 41
3916 3895 73
3916 3946 45
3916 3974 105
3917 3897 34
3917 3976 138
3917 3999 127
3918 3911 8
3918 3900 47
3918 3924 2
3919 3920 78
3920 3919 78
3920 3937 56
3920 3953 58
3921 3888 61
3921 3908 117
3921 3973 71
3922 3881 93
3922 3923 21
3922 3935 20
3923 3922 21
3924 3918 2
3924 3933 10
3925 3926 260
3925 3936 17
3926 3925 260
3926 3991 121
3927 3928 208
3927 3914 222
3928 3927 208
3929 3930 47
3930 3929 47
3930 3931 144
3930 3959 72
3931 3930 144
3932 3906 29
3933 3924 10
3933 3876 175
3933 3989 90
3934 3876 97
3935 3877 123
3935 3922 20
3935 3941 18
3936 3925 17
3936 3942 15
3936 3979 146
3937 3920 56
3937 3943 46
3937 3966 48
3938 3806 282
3938 3949 71
3939 3875 106
3939 3979 93
3939 4019 136
3940 3894 75
3940 3830 344
3940 3947 10
3940 3969 95
3941 3935 18
3942 3936 15
3942 4021 159
3942 4036 175
3943 3855 167
3943 3937 46
3943 3985 198
3943 3998 96
3944 3945 101
3945 3944 101
3945 3902 84
3946 3916 45
3946 3910 65
3946 4014 159
3946 4025 160
3947 3940 10
3947 3909 143
3947 3977 49
3947 3983 108
3948 3949 236
3949 3948 236
3949 3938 71
3949 3964 215
3950 3951 210
3951 3950 210
3952 3897 146
3952 3960 27
3952 3976 40
3953 3920 58
3953 3966 81
3953 3974 40
3954 3898 568
3954 3958 40
3954 3997 78
3955 3866 215
3955 3885 118
3955 3960 107
3956 3957 174
3957 3956 174
3958 3870 140
3958 3954 40
3958 3961 60
3958 4002 78
3959 3930 72
3959 3964 70
3959 3975 288
3960 3869 155
3960 3952 27
3960 3955 107
3961 3908 71
3961 3958 60
3961 3970 55
3961 4007 78
3962 3820 256
3962 4066 912
3962 4239 392
3963 3912 73
3964 3965 19
3964 3959 70
3964 3949 215
3965 3964 19
3965 4020 133
3966 3937 48
3966 3953 81
3967 3968 42
3967 3994 70
3967 4009 279
3968 3967 42
3968 3969 8
3968 3983 35
3969 3968 8
3969 3940 95
3970 3961 55
3970 3973 63
3970 4010 78
3971 3972 1600
3972 3971 1600
3973 3921 71
3973 3970 63
3973 3978 57
3973 4012 79
3974 3953 40
3974 3916 105
3974 3998 156
3975 3915 103
3975 3980 7
3975 3959 288
3975 4078 354
3976 3952 40
3976 3917 138
3976 4091 227
3977 3947 49
3977 3988 200
3977 4274 429
3978 3973 57
3978 3984 66
3978 4023 79
3979 3939 93
3979 3936 146
3979 3993 44
3980 3975 7
3980 4011 114
3980 4174 353
3981 3824 602
3981 4055 1398
3981 4288 947
3982 3850 225
3982 3990 13
3982 3992 23
3983 3968 35
3983 3947 108
3983 3994 41
3984 3978 66
3984 3989 85
3984 4029 80
3985 3943 198
3985 4000 45
3985 4008 84
3986 3907 126
3986 4004 81
3986 4284 1129
3987 3866 193
3987 4072 142
3987 4343 556
3988 3909 141
3988 3977 200
3988 4183 322
3989 3933 90
3989 3984 85
3989 4032 87
3990 3982 13
3990 4353 573
3991 3926 121
3991 4061 117
3991 4064 119
3992 3982 23
3992 4001 64
3992 4013 44
3993 3979 44
3993 4035 53
3994 3967 70
3994 3983 41
3994 4006 28
3995 3996 112
3996 3995 112
3996 4008 21
3996 4046 167
3997 3954 78
3997 4002 40
3997 4059 95
3998 3943 96
3998 3974 156
3998 4049 158
3998 4060 97
3999 3917 127
3999 4018 29
3999 4057 126
4000 3985 45
4000 4024 43
4000 4030 84
4001 3865 230
4001 3992 64
4001 4015 59
4002 3958 78
4002 3997 40
4002 4007 61
4002 4065 95
4003 4004 30
4003 4039 70
4003 4125 456
4004 4003 30
4004 3986 81
4005 3902 180
4005 4045 728
4006 3994 28
4006 4044 77
4006 4062 161
4007 3961 78
4007 4002 61
4007 4010 55
4007 4073 96
4008 3996 21
4008 3985 84
4008 4030 44
4008 4069 157
4009 3967 279
4009 4017 29
4010 3970 78
4010 4007 55
4010 4012 64
4010 4079 96
4011 3980 114
4012 3973 79
4012 4010 64
4012 4023 57
4012 4086 97
4013 3992 44
4013 4068 172
4013 4075 83
4014 3946 159
4014 4028 12
4014 4033 28
4015 3886 226
4015 4001 59
4015 4037 55
4016 4017 149
4017 4016 149
4017 4009 29
4017 4061 140
4018 3999 29
4018 4096 77
4019 3939 136
4019 23764 33
4020 3965 133
4020 4048 93
4021 4022 122
4021 3942 159
4021 4038 72
4022 4021 122
4022 23764 38
4023 3978 79
4023 4012 57
4023 4029 63
4023 4089 92
4024 4000 43
4024 4049 44
4024 4053 83
4025 3946 160
4025 4031 31
4025 4041 19
4026 3781 844
4026 4027 64
4026 4045 40
4027 4026 64
4028 4014 12
4028 4031 118
4028 4033 18
4028 4056 51
4029 3984 80
4029 4023 63
4029 4032 56
4029 4051 38
4030 4008 44
4030 4000 84
4030 4053 43
4030 4085 128
4031 4025 31
4031 4028 118
4031 4034 11
4032 3989 87
4032 4029 56
4032 4033 12
4032 4097 96
4033 4028 18
4033 4014 28
4033 4032 12
4033 4056 44
4033 4229 271
4034 4031 11
4034 4041 22
4034 4052 102
4035 4036 20
4035 3993 53
4036 4035 20
4036 3942 175
4036 4093 219
4037 3892 238
4037 4015 55
4037 4068 52
4038 4021 72
4038 4058 46
4039 4003 70
4039 4040 82
4039 4279 501
4040 4039 82
4041 4025 19
4041 4034 22
4041 4060 182
4042 4043 33
4042 4047 121
4042 4081 103
4043 4042 33
4044 4006 77
4044 4050 16
4045 4026 40
4045 4005 728
4046 3996 167
4046 4069 54
4046 4088 97
4047 4042 121
4047 4048 29
4047 4081 49
4048 4020 93
4048 4047 29
4048 4173 185
4049 4024 44
4049 3998 158
4049 4077 45
4049 4084 84
4050 4044 16
4050 4074 56
4050 4080 42
4051 4029 38
4052 4034 102
4052 4063 69
4052 4104 72
4053 4030 43
4053 4024 83
4053 4084 44
4053 4102 120
4054 3898 246
4054 4103 70
4054 4127 608
4055 3981 1398
4055 4106 403
4056 4028 51
4056 4033 44
4056 4166 153
4057 3999 126
4057 4058 79
4057 4082 29
4058 4057 79
4058 4038 46
4059 3997 95
4059 4065 41
4059 4127 97
4060 3998 97
4060 4041 182
4060 4076 71
4061 3991 117
4061 4017 140
4061 4064 5
4061 4071 9
4062 4006 161
4062 4067 25
4062 4083 27
4063 4052 69
4064 3991 119
4064 4061 5
4064 4070 6
4064 4154 230
4065 4002 95
4065 4059 41
4065 4073 62
4065 4132 97
4066 3962 912
4066 4129 885
4066 4297 421
4067 4062 25
4067 4071 203
4067 4083 27
4068 4037 52
4068 4013 172
4068 4148 116
4069 4008 157
4069 4046 54
4070 4064 6
4070 4090 26
4070 4118 113
4071 4061 9
4071 4067 203
4071 4090 24
4072 3987 142
4072 4075 45
4072 4123 91
4073 4007 96
4073 4065 62
4073 4079 55
4073 4139 96
4074 4050 56
4075 4013 83
4075 4072 45
4075 4141 96
4076 4060 71
4077 4049 45
4077 4100 43
4077 4108 82
4078 3831 440
4078 3975 354
4078 4112 64
4078 4183 259
4079 4010 96
4079 4073 55
4079 4086 65
4079 4150 96
4080 4050 42
4080 4098 51
4080 4101 41
4081 4047 49
4081 4042 103
4081 4092 27
4082 4057 29
4082 4109 57
4083 4067 27
4083 4062 27
4083 4227 210
4084 4053 44
4084 4049 84
4084 4108 46
4084 4117 97
4085 4030 128
4086 4012 97
4086 4079 65
4086 4087 2
4086 4113 47
4087 4086 2
4087 4089 56
4088 4046 97
4088 4133 100
4088 4222 347
4089 4023 92
4089 4087 56
4089 4097 98
4090 4070 26
4090 4071 24
4090 4107 27
4090 4107 27
4091 3976 227
4092 4081 27
4093 4036 219
4093 4094 23
4093 4099 9
4093 4153 178
4094 4093 23
4094 4095 72
4094 4099 29
4095 4094 72
4095 4096 30
4095 4119 47
4095 4130 58
4096 4095 30
4096 4018 77
4097 4032 96
4097 4089 98
4097 4162 110
4098 4080 51
4099 4093 9
4099 4094 29
4099 4111 27
4099 4116 33
4100 4077 43
4100 4131 82
4101 4080 41
4101 4114 41
4102 4053 120
4103 4054 70
4103 4212 139
4103 4224 161
4104 4052 72
4104 4105 95
4104 4110 39
4105 4104 95
4106 4055 403
4106 4288 1067
4106 4428 1548
4107 4090 27
4107 4090 27
4107 4250 215
4108 4084 46
4108 4077 82
4108 4131 42
4108 4152 100
4109 4082 57
4109 4123 187
4109 4144 126
4110 4104 39
4110 4115 48
4110 4128 27
4111 4099 27
4111 4116 16
4111 4157 152
4112 4078 64
4112 4120 34
4112 4182 100
4113 4086 47
4113 4126 41
4113 4136 28
4114 4101 41
4115 4110 48
4116 4111 16
4116 4099 33
4116 4140 28
4117 4084 97
4118 4070 113
4118 4201 181
4118 4232 168
4119 4095 47
4119 4130 15
4119 4207 127
4120 4121 65
4120 4112 34
4120 4160 80
4121 4120 65
4122 4123 14
4122 4141 63
4123 4122 14
4123 4072 91
4123 4109 187
4123 4164 65
4124 3793 579
4124 4148 39
4124 4169 65
4125 4003 456
4126 4113 41
4126 4136 34
4126 4150 45
4127 4059 97
4127 4054 608
4127 4132 37
4127 4205 88
4128 4110 27
4129 4066 885
4130 4095 58
4130 4119 15
4130 4176 85
4130 4200 97
4131 4108 42
4131 4100 82
4131 4181 108
4132 4065 97
4132 4127 37
4132 4139 63
4132 4184 66
4133 4088 100
4134 4135 12
4135 4134 12
4135 4147 14
4135 23765 54
4136 4113 28
4136 4126 34
4136 4162 119
4137 4138 14
4137 23765 25
4138 4137 14
4139 4073 96
4139 4132 63
4139 4150 50
4139 4161 35
4140 4116 28
4140 4163 41
4140 4238 216
4141 4075 96
4141 4122 63
4141 4149 7
4142 4143 16
4142 23766 25
4143 4142 16
4144 4109 126
4144 4186 176
4145 4146 22
4146 4145 22
4146 4151 7
4146 4224 97
4146 4159 131
4146 4172 131
4146 23766 131
4147 4135 14
4147 23767 97
4148 4124 39
4148 4068 116
4148 4165 67
4149 4141 7
4149 4165 82
4149 4194 70
4150 4126 45
4150 4079 96
4150 4139 50
4150 4161 61
4151 4146 7
4152 4108 100
4153 4093 178
4153 23881 99
4154 4064 230
4154 4170 42
4155 4156 310
4156 4155 310
4157 4111 152
4157 4164 44
4157 4211 76
4158 4159 22
4159 4158 22
4159 4146 131
4159 4172 131
4159 23766 131
4160 4120 80
4161 4150 61
4161 4139 35
4161 4338 266
4162 4097 110
4162 4136 119
4162 4372 336
4163 4140 41
4163 4176 13
4163 4248 159
4164 4123 65
4164 4157 44
4164 4168 6
4165 4148 67
4165 4149 82
4165 4185 39
4166 4056 153
4166 4167 53
4166 4208 42
4167 4166 53
4168 4164 6
4168 4194 66
4168 4211 39
4169 4124 65
4169 4187 74
4169 4241 78
4170 4154 42
4170 4202 69
4170 4283 212
4171 4172 30
4171 4210 40
4171 4210 37
4171 4212 84
4172 4171 30
4172 4146 131
4172 4159 131
4172 23766 131
4173 4048 185
4173 4189 16
4173 4195 28
4174 3980 353
4174 4175 309
4174 4188 17
4175 4174 309
4176 4163 13
4176 4130 85
4176 4193 17
4177 4178 402
4177 4179 38
4177 4214 34
4178 4177 402
4179 4177 38
4179 4180 392
4179 4215 33
4180 4179 392
4181 4131 108
4182 4112 100
4182 4199 62
4182 4213 104
4183 3988 322
4183 4078 259
4183 4228 82
4184 4132 66
4185 4165 39
4185 4186 68
4185 4187 185
4185 4233 185
4186 4185 68
4186 4144 176
4187 4169 74
4187 4185 185
4187 4233 185
4188 4174 17
4188 4190 0
4188 4190 4
4188 4189 254
4189 4173 16
4189 4188 254
4189 4235 54
4190 4188 0
4190 4188 4
4190 4217 28
4190 4223 35
4191 4192 99
4192 4191 99
4193 4176 17
4193 4243 86
4193 4255 97
4194 4149 70
4194 4198 115
4194 4168 66
4195 4173 28
4195 4196 601
4195 4218 23
4196 4195 601
4197 4198 50
4197 23881 76
4198 4197 50
4198 4194 115
4198 4241 132
4198 4270 196
4199 4182 62
4199 4206 21
4200 4130 97
4200 4216 20
4200 4219 30
4201 4118 181
4201 4236 71
4201 4336 238
4202 4170 69
4202 4221 63
4202 4242 68
4203 4204 179
4203 23764 55
4204 4203 179
4204 4240 86
4204 4314 222
4205 4127 88
4205 4304 214
4206 4199 21
4206 4244 48
4206 4266 230
4207 4119 127
4207 4253 67
4207 4363 222
4208 4166 42
4208 4209 68
4208 4231 27
4209 4208 68
4210 4171 40
4210 4171 37
4210 4233 45
4210 4247 49
4211 4168 39
4211 4157 76
4211 4246 47
4212 4171 84
4212 4103 139
4212 4245 46
4213 4182 104
4213 4260 73
4213 4285 152
4214 4177 34
4214 4215 45
4214 4476 538
4215 4179 33
4215 4214 45
4215 4443 465
4216 4200 20
4216 4219 33
4216 4243 53
4217 4190 28
4217 4223 38
4217 4313 203
4218 4195 23
4218 4235 29
4218 4254 95
4219 4216 33
4219 4200 30
4219 4253 67
4220 4221 212
4221 4220 212
4221 4202 63
4221 4230 23
4222 4088 347
4223 4190 35
4223 4217 38
4223 4266 114
4224 4146 97
4224 4103 161
4224 4247 39
4224 4267 99
4225 4226 108
4226 4225 108
4227 4083 210
4227 4257 76
4227 4276 71
4228 4183 82
4228 4274 122
4228 4316 182
4229 4033 271
4229 4231 155
4229 4256 36
4230 4221 23
4230 4242 15
4231 4208 27
4231 4229 155
4231 4234 7
4232 4118 168
4232 4281 72
4232 4336 260
4233 4210 45
4233 4247 52
4233 4185 185
4233 4187 185
4234 4231 7
4234 4262 106
4234 4264 34
4235 4189 54
4235 4218 29
4235 4331 159
4236 4201 71
4236 4311 175
4236 4314 152
4237 4238 32
4238 4237 32
4238 4140 216
4238 4269 45
4239 3962 392
4239 4275 113
4239 4298 110
4240 4204 86
4240 4249 23
4241 4169 78
4241 4198 132
4241 4277 49
4242 4230 15
4242 4202 68
4242 4249 26
4243 4193 86
4243 4216 53
4243 4286 127
4244 4206 48
4244 4259 19
4244 4265 37
4245 4212 46
4245 4270 165
4245 4324 151
4246 4211 47
4246 4258 15
4246 4269 40
4247 4224 39
4247 4210 49
4247 4233 52
4247 4267 94
4248 4163 159
4248 4299 108
4249 4240 23
4249 4242 26
4250 4107 215
4250 4257 143
4250 4281 100
4251 4252 59
4251 4341 197
4252 4251 59
4252 4268 58
4252 4347 181
4253 4219 67
4253 4207 67
4253 4283 64
4254 4218 95
4255 4193 97
4255 4286 74
4256 4229 36
4256 4264 175
4256 4345 171
4257 4227 76
4257 4250 143
4257 4278 89
4258 4246 15
4258 4263 33
4258 4343 164
4259 4244 19
4259 4272 21
4259 4321 136
4260 4261 160
4260 4213 73
4260 4290 72
4261 4260 160
4262 4234 106
4263 4258 33
4263 4277 265
4263 23882 265
4263 4353 186
4264 4234 34
4264 4256 175
4264 4302 87
4265 4244 37
4266 4206 230
4266 4223 114
4267 4224 99
4267 4247 94
4267 4304 325
4267 23768 325
4268 4252 58
4268 4342 149
4269 4246 40
4269 4238 45
4269 4309 101
4270 4271 136
4270 4245 165
4270 4198 196
4271 4270 136
4271 4280 14
4271 4282 117
4271 4324 274
4272 4259 21
4272 4273 8
4272 4321 115
4272 4321 115
4273 4272 8
4274 3977 429
4274 4228 122
4274 4325 294
4274 4340 140
4275 4239 113
4276 4227 71
4276 4303 78
4277 4241 49
4277 4263 265
4277 23882 265
4277 4312 91
4278 4257 89
4278 4305 73
4279 4039 501
4280 4271 14
4280 4289 113
4280 4327 254
4280 4392 219
4281 4232 72
4281 4250 100
4281 4296 142
4282 4271 117
4282 4287 64
4282 4289 19
4282 4351 145
4283 4253 64
4283 4170 212
4283 4352 134
4284 3986 1129
4285 4213 152
4286 4255 74
4286 4243 127
4286 4299 65
4287 4282 64
4287 4293 16
4287 4301 99
4287 23768 29
4288 4106 1067
4288 3981 947
4288 4444 667
4289 4282 19
4289 4280 113
4289 4351 131
4289 4397 201
4290 4260 72
4290 4339 167
4291 4292 17
4292 4291 17
4293 4287 16
4293 4350 93
4294 4295 6
4294 4300 11
4295 4294 6
4295 4310 40
4295 4313 124
4296 4281 142
4297 4066 421
4298 4239 110
4299 4248 108
4299 4286 65
4299 4309 41
4300 4294 11
4300 4315 41
4300 4373 281
4301 4287 99
4301 4328 110
4301 4350 116
4302 4264 87
4302 4306 141
4302 4330 38
4303 4276 78
4303 4325 32
4304 4205 214
4304 4267 325
4304 23768 325
4304 4322 80
4305 4278 73
4305 4326 31
4306 4302 141
4306 4337 43
4307 4308 198
4307 4384 174
4308 4307 198
4309 4269 101
4309 4299 41
4310 4295 40
4310 4315 20
4310 4346 89
4311 4236 175
4311 4362 159
4311 4408 184
4312 4277 91
4312 4342 54
4312 4594 454
4313 4295 124
4313 4217 203
4313 4333 25
4314 4236 152
4314 4356 63
4314 4204 222
4315 4300 41
4315 4310 20
4315 4361 91
4316 4228 182
4316 4339 33
4317 4318 1039
4318 4317 1039
4319 4320 38
4320 4319 38
4321 4259 136
4321 4272 115
4321 4272 115
4321 4349 50
4322 4323 128
4322 4304 80
4322 4338 57
4323 4322 128
4324 4271 274
4324 4245 151
4324 4369 87
4325 4303 32
4325 4326 10
4325 4274 294
4325 4364 66
4326 4305 31
4326 4325 10
4326 4329 4
4326 4360 145
4327 4280 254
4327 4375 86
4328 4301 110
4328 4344 85
4328 4396 132
4329 4326 4
4329 4364 63
4330 4302 38
4330 4334 47
4330 4357 44
4330 4365 145
4331 4235 159
4331 4332 343
4331 4391 141
4332 4331 343
4333 4313 25
4333 4346 43
4333 4488 210
4334 4330 47
4334 4335 41
4334 4368 73
4335 4334 41
4335 4337 66
4335 4366 60
4336 4201 238
4336 4232 260
4336 4371 180
4336 4438 245
4337 4335 66
4337 4306 43
4337 4358 42
4338 4161 266
4338 4322 57
4338 4344 16
4338 4372 230
4339 4316 33
4339 4290 167
4339 4340 164
4339 4400 139
4340 4274 140
4340 4339 164
4340 4414 164
4341 4251 197
4341 4347 62
4341 4355 61
4342 4312 54
4342 4268 149
4342 4354 21
4343 4258 164
4343 4519 334
4343 3987 556
4344 4338 16
4344 4328 85
4344 4382 231
4344 4403 131
4345 4256 171
4345 4358 63
4345 4367 47
4346 4310 89
4346 4333 43
4346 4348 32
4347 4252 181
4347 4341 62
4347 4354 65
4348 4346 32
4348 4391 79
4349 4321 50
4349 4387 76
4350 4301 116
4350 4293 93
4350 4376 47
4351 4282 145
4351 4289 131
4351 4402 110
4352 4283 134
4352 4398 189
4352 4407 118
4353 4263 186
4353 4521 316
4353 3990 573
4354 4342 21
4354 4347 65
4354 4532 322
4355 4341 61
4356 4314 63
4356 4371 37
4357 4330 44
4357 4379 42
4357 4389 131
4358 4337 42
4358 4345 63
4358 4366 78
4359 4360 78
4360 4359 78
4360 4326 145
4360 4431 194
4360 4438 367
4361 4315 91
4361 4378 271
4362 4311 159
4362 4363 59
4362 4370 28
4363 4362 59
4363 4207 222
4364 4329 63
4364 4325 66
4364 4404 88
4365 4330 145
4365 4377 23
4366 4335 60
4366 4358 78
4366 4368 40
4367 4345 47
4367 4386 30
4367 4388 138
4368 4334 73
4368 4366 40
4368 4374 20
4369 4324 87
4369 4375 24
4369 4448 181
4370 4362 28
4370 4447 192
4371 4356 37
4371 4336 180
4371 4485 256
4372 4162 336
4372 4338 230
4372 4382 12
4373 4300 281
4373 4378 11
4373 4387 25
4374 4368 20
4374 4379 30
4375 4327 86
4375 4369 24
4375 4392 200
4376 4350 47
4376 4383 24
4376 4409 86
4377 4365 23
4377 4389 18
4377 4393 80
4378 4373 11
4378 4390 27
4378 4361 271
4379 4357 42
4379 4374 30
4379 4395 41
4379 4399 116
4380 4381 41
4381 4380 41
4382 4372 12
4382 4344 231
4382 4386 22
4382 4480 222
4383 4376 24
4383 4396 139
4383 4412 86
4384 4385 182
4384 4307 174
4385 4384 182
4386 4367 30
4386 4382 22
4386 4410 79
4387 4349 76
4387 4373 25
4387 4390 5
4388 4367 138
4388 4395 84
4388 4422 111
4389 4377 18
4389 4357 131
4389 4394 21
4390 4387 5
4390 4378 27
4390 4427 125
4391 4348 79
4391 4331 141
4391 4606 449
4392 4280 219
4392 4375 200
4392 4397 108
4393 4377 80
4394 4389 21
4394 4399 16
4394 4405 82
4395 4379 41
4395 4388 84
4395 4457 122
4396 4328 132
4396 4383 139
4396 4403 74
4397 4289 201
4397 4392 108
4397 4402 96
4398 4352 189
4399 4394 16
4399 4379 116
4399 4406 23
4400 4339 139
4400 4401 70
4400 4445 108
4401 4400 70
4402 4351 110
4402 4397 96
4402 4497 172
4403 4344 131
4403 4396 74
4403 4424 174
4403 4437 91
4404 4364 88
4404 4417 51
4405 4394 82
4406 4399 23
4406 4418 84
4407 4352 118
4407 4411 19
4408 4311 184
4408 4413 27
4409 4376 86
4409 4412 26
4409 4465 115
4410 4386 79
4410 4421 25
4410 4422 159
4411 4407 19
4411 4413 17
4411 4419 31
4412 4383 86
4412 4409 26
4412 4437 201
4412 4468 114
4413 4411 17
4413 4408 27
4413 4426 33
4414 4340 164
4414 4430 88
4414 4506 154
4415 4416 584
4416 4415 584
4416 4454 442
4417 4404 51
4417 4420 9
4418 4406 84
4419 4411 31
4419 4426 18
4419 4446 75
4420 4417 9
4420 4423 6
4420 4425 10
4421 4410 25
4421 4435 99
4421 4436 39
4422 4388 111
4422 4410 159
4423 4420 6
4423 4425 7
4423 4453 129
4424 4403 174
4425 4420 10
4425 4423 7
4425 4464 77
4426 4419 18
4426 4413 33
4426 4441 60
4427 4390 125
4427 4472 107
4427 4512 419
4428 4106 1548
4428 4686 3308
4428 6205 4075
4429 4430 168
4430 4429 168
4430 4414 88
4430 4453 78
4431 4360 194
4431 4442 35
4431 4449 28
4432 4433 53
4432 4434 300
4432 4454 191
4432 4757 432
4433 4432 53
4433 4489 239
4434 4432 300
4435 4421 99
4435 4458 68
4435 4460 44
4436 4421 39
4436 4460 95
4436 4469 63
4437 4403 91
4437 4412 201
4437 4480 236
4437 4510 105
4438 4336 245
4438 4360 367
4438 4481 92
4438 4590 189
4439 4440 254
4440 4439 254
4441 4426 60
4441 4537 123
4442 4431 35
4442 4449 28
4442 4487 86
4443 4215 465
4443 4459 1126
4443 5102 1189
4444 4288 667
4445 4400 108
4445 4452 250
4445 4512 110
4446 4419 75
4446 4523 103
4447 4370 192
4447 4491 68
4447 4538 251
4448 4369 181
4448 4494 63
4448 4541 116
4449 4431 28
4449 4442 28
4449 4461 40
4450 4451 37
4450 4456 54
4450 4467 54
4451 4450 37
4451 4455 11
4451 4463 32
4452 4445 250
4453 4423 129
4453 4430 78
4453 4578 147
4454 4416 442
4454 4432 191
4455 4451 11
4455 4470 40
4455 4483 69
4456 4450 54
4456 4462 28
4456 4467 23
4457 4458 63
4457 4395 122
4458 4457 63
4458 4435 68
4458 4463 11
4459 4443 1126
4460 4435 44
4460 4436 95
4460 4474 67
4460 4505 60
4461 4449 40
4461 4482 74
4461 4526 92
4462 4456 28
4462 4466 27
4462 4522 89
4463 4451 32
4463 4458 11
4463 4474 20
4464 4425 77
4464 4487 60
4465 4409 115
4465 4468 29
4465 4484 25
4466 4462 27
4466 4471 25
4466 4531 89
4467 4456 23
4467 4450 54
4467 4483 24
4468 4412 114
4468 4465 29
4468 4495 25
4468 4510 188
4469 4436 63
4469 4505 94
4469 4536 75
4470 4455 40
4470 4490 23
4470 4504 53
4471 4466 25
4471 4475 10
4471 4542 87
4472 4427 107
4472 4473 108
4472 4508 37
4473 4472 108
4474 4463 20
4474 4460 67
4474 4490 32
4474 4540 71
4475 4471 10
4475 4486 66
4476 4214 538
4476 4477 174
4476 4964 900
4477 4476 174
4477 4479 52
4477 4498 15
4478 4479 113
4479 4478 113
4479 4477 52
4479 4515 42
4480 4382 222
4480 4437 236
4480 4615 154
4481 4438 92
4481 4492 19
4481 4502 20
4482 4461 74
4482 4511 59
4482 4559 123
4483 4467 24
4483 4455 69
4483 4504 25
4484 4465 25
4484 4495 30
4484 4546 61
4485 4371 256
4485 4493 18
4485 4496 12
4486 4475 66
4486 4503 31
4486 4516 132
4487 4442 86
4487 4464 60
4487 4701 224
4488 4489 152
4488 4333 210
4489 4488 152
4489 4433 239
4489 4742 293
4490 4470 23
4490 4474 32
4490 4514 52
4491 4447 68
4491 4507 19
4491 4520 35
4492 4481 19
4492 4493 9
4492 4502 15
4493 4485 18
4493 4492 9
4493 4496 9
4494 4448 63
4494 4529 47
4494 4555 64
4495 4468 25
4495 4484 30
4495 4530 184
4495 4546 82
4496 4485 12
4496 4493 9
4496 4507 20
4496 4539 51
4497 4402 172
4497 4621 134
4498 4477 15
4498 4499 51
4498 4582 321
4499 4498 51
4500 4501 103
4500 4567 442
4500 4838 643
4501 4500 103
4502 4492 15
4502 4481 20
4502 4513 19
4503 4486 31
4503 4509 22
4503 4524 26
4504 4483 25
4504 4470 53
4504 4514 20
4505 4460 60
4505 4469 94
4505 4518 23
4506 4414 154
4506 4535 82
4506 4568 67
4507 4491 19
4507 4496 20
4507 4520 19
4507 4549 50
4508 4472 37
4508 4606 106
4509 4503 22
4509 4517 25
4509 4562 54
4510 4437 105
4510 4468 188
4510 4530 23
4511 4482 59
4511 4575 152
4511 4585 72
4512 4445 110
4512 4427 419
4512 4568 213
4513 4502 19
4513 4539 21
4513 4552 32
4514 4504 20
4514 4490 52
4514 4522 37
4515 4479 42
4516 4486 132
4516 4528 32
4516 4553 33
4517 4509 25
4517 4527 24
4517 4563 45
4518 4505 23
4518 4540 80
4518 4565 44
4519 4343 334
4519 4712 197
4520 4491 35
4520 4507 19
4520 4533 13
4521 4353 316
4521 4809 372
4522 4462 89
4522 4531 24
4522 4514 37
4523 4446 103
4523 4577 54
4524 4503 26
4524 4525 25
4524 4561 34
4525 4524 25
4525 4551 34
4525 4580 100
4526 4461 92
4527 4517 24
4527 4534 24
4527 4571 43
4528 4516 32
4528 4547 25
4528 4595 74
4529 4494 47
4529 4555 44
4529 4602 322
4530 4510 23
4530 4495 184
4530 4579 49
4531 4466 89
4531 4522 24
4531 4542 26
4532 4354 322
4532 4594 63
4532 4710 184
4533 4520 13
4533 4564 29
4534 4527 24
4534 4548 25
4534 4573 39
4535 4506 82
4536 4469 75
4536 4565 96
4536 4623 96
4537 4441 123
4537 4554 16
4538 4447 251
4538 4554 28
4539 4496 51
4539 4513 21
4539 4552 14
4540 4474 71
4540 4518 80
4540 4566 119
4540 4570 30
4541 4448 116
4541 3891 1057
4541 5190 927
4542 4471 87
4542 4531 26
4542 4574 33
4543 4544 30
4543 4550 107
4544 4543 30
4544 4545 35
4544 4572 75
4545 4544 35
4545 4560 31
4546 4495 82
4546 4484 61
4546 4556 11
4547 4528 25
4547 4569 28
4547 4605 65
4548 4534 25
4548 4553 16
4548 4586 39
4549 4507 50
4549 4604 66
4550 4543 107
4550 4587 39
4551 4525 34
4552 4539 14
4552 4513 32
4552 4633 91
4553 4516 33
4553 4548 16
4553 4593 39
4554 4537 16
4554 4538 28
4554 4592 41
4555 4529 44
4555 4494 64
4555 4647 96
4556 4546 11
4556 4596 202
4556 4628 76
4557 4558 135
4558 4557 135
4558 4576 23
4558 4582 66
4559 4482 123
4560 4545 31
4560 4591 35
4560 4597 112
4561 4524 34
4562 4509 54
4563 4517 45
4564 4533 29
4564 4583 34
4565 4518 44
4565 4536 96
4565 4570 82
4565 4650 114
4566 4540 119
4566 4574 45
4566 4603 41
4567 4500 442
4568 4506 67
4568 4512 213
4568 4601 218
4568 4609 106
4569 4547 28
4569 4589 27
4569 4611 52
4570 4540 30
4570 4565 82
4570 4584 12
4571 4527 43
4572 4544 75
4572 4587 32
4572 4597 29
4573 4534 39
4574 4542 33
4574 4566 45
4574 4580 23
4575 4511 152
4575 4590 36
4575 4642 71
4576 4558 23
4577 4523 54
4577 4632 57
4577 4643 72
4578 4453 147
4578 4644 73
4578 4649 74
4579 4530 49
4579 4591 33
4579 4596 24
4580 4525 100
4580 4574 23
4580 4588 44
4581 4582 112
4582 4581 112
4582 4558 66
4582 4498 321
4583 4564 34
4583 4616 84
4583 4604 134
4584 4570 12
4584 4603 115
4584 4612 37
4585 4511 72
4586 4548 39
4587 4550 39
4587 4572 32
4588 4580 44
4588 4622 157
4588 4629 42
4589 4569 27
4589 4614 39
4589 4619 39
4589 4620 84
4590 4438 189
4590 4575 36
4590 4598 32
4591 4560 35
4591 4579 33
4591 4636 113
4592 4554 41
4592 4663 82
4592 4720 151
4593 4553 39
4593 4595 26
4593 4622 39
4594 4312 454
4594 4532 63
4594 4833 357
4595 4528 74
4595 4593 26
4595 4599 11
4596 4579 24
4596 4556 202
4596 4600 5
4597 4572 29
4597 4560 112
4597 4636 35
4598 4590 32
4598 4633 73
4598 4660 68
4599 4595 11
4599 4605 13
4599 4627 27
4600 4596 5
4600 4635 75
4600 4637 32
4601 4568 218
4601 4788 292
4602 4529 322
4602 4621 84
4602 4698 95
4603 4566 41
4603 4584 115
4603 4610 48
4604 4549 66
4604 4583 134
4604 4641 37
4605 4547 65
4605 4599 13
4605 4611 25
4606 4508 106
4606 4391 449
4606 4801 325
4607 4608 132
4608 4607 132
4608 4657 178
4608 4674 289
4609 4568 106
4609 4644 79
4609 4666 58
4610 4603 48
4610 4613 18
4610 4681 66
4611 4569 52
4611 4605 25
4611 4619 24
4612 4584 37
4612 4625 65
4612 4665 46
4613 4610 18
4613 4624 42
4613 4687 78
4614 4589 39
4614 4631 11
4615 4480 154
4615 4623 15
4615 4693 76
4616 4583 84
4616 4626 11
4616 4630 8
4617 4618 77
4617 4651 77
4617 4700 78
4618 4617 77
4618 4664 64
4619 4589 39
4619 4611 24
4620 4589 84
4620 4645 26
4620 4648 70
4621 4497 134
4621 4602 84
4621 4628 14
4621 4741 135
4622 4593 39
4622 4588 157
4622 4634 21
4623 4536 96
4623 4615 15
4623 4650 89
4623 4825 314
4624 4613 42
4624 4629 6
4625 4612 65
4625 4640 69
4625 4667 38
4626 4616 11
4626 4630 7
4626 4669 78
4627 4599 27
4627 4656 78
4627 4670 42
4628 4556 76
4628 4621 14
4628 4677 186
4628 4774 212
4629 4588 42
4629 4624 6
4629 4690 61
4630 4626 7
4630 4616 8
4630 4798 284
4631 4614 11
4631 4645 48
4631 4656 40
4632 4577 57
4632 4643 19
4632 4712 186
4633 4552 91
4633 4598 73
4633 4641 14
4633 4699 71
4634 4622 21
4635 4600 75
4635 4659 32
4635 4693 155
4636 4597 35
4636 4591 113
4637 4600 32
4637 4659 76
4637 4677 47
4638 4639 31
4638 4646 61
4638 4675 67
4639 4638 31
4640 4625 69
4640 4678 39
4641 4604 37
4641 4633 14
4641 4702 69
4642 4575 71
4643 4632 19
4643 4577 72
4643 4672 30
4644 4578 73
4644 4609 79
4644 4649 10
4644 4719 84
4645 4620 26
4645 4631 48
4645 4658 23
4645 4739 114
4646 4638 61
4646 4675 27
4646 4723 131
4647 4555 96
4647 4664 51
4647 4711 69
4648 4620 70
4648 4676 28
4649 4578 74
4649 4644 10
4649 4671 62
4649 4719 87
4650 4565 114
4650 4623 89
4650 4654 13
4651 4617 77
4651 4680 79
4651 4721 81
4652 4653 50
4652 4666 23
4652 4775 260
4653 4652 50
4653 4655 73
4654 4650 13
4654 4684 110
4654 4695 41
4655 4653 73
4656 4631 40
4656 4627 78
4656 4696 64
4657 4608 178
4657 4716 22
4658 4645 23
4658 4668 24
4658 4668 24
4658 4697 46
4659 4635 32
4659 4637 76
4659 4703 43
4660 4598 68
4661 4662 55
4662 4661 55
4662 4673 49
4662 4679 17
4663 4592 82
4663 4685 27
4664 4618 64
4664 4647 51
4664 4700 76
4665 4612 46
4665 4667 62
4665 4684 20
4666 4609 58
4666 4652 23
4666 4717 60
4667 4625 38
4667 4665 62
4667 4678 72
4668 4658 24
4668 4658 24
4668 4676 24
4668 4697 40
4669 4626 78
4669 4685 36
4670 4627 42
4670 4696 43
4671 4649 62
4671 4701 86
4671 4771 170
4672 4643 30
4672 4752 130
4672 4731 115
4673 4662 49
4674 4608 289
4675 4646 27
4675 4638 67
4675 4705 64
4675 4715 48
4676 4648 28
4676 4668 24
4676 4706 46
4677 4637 47
4677 4628 186
4677 4703 77
4677 4707 39
4678 4640 39
4678 4667 72
4678 4681 32
4678 4708 40
4679 4662 17
4679 4688 8
4679 4694 54
4680 4651 79
4680 4692 35
4680 4740 80
4681 4610 66
4681 4678 32
4681 4687 29
4681 4727 54
4682 4683 3075
4683 4682 3075
4683 4686 51
4683 4743 1916
4684 4665 20
4684 4654 110
4684 4704 25
4685 4663 27
4685 4669 36
4685 4718 72
4685 4753 37
4686 4683 51
4686 4428 3308
4686 5821 1773
4687 4613 78
4687 4681 29
4687 4691 30
4688 4679 8
4688 4689 53
4688 4709 31
4689 4688 53
4690 4629 61
4690 4691 6
4690 4750 107
4691 4690 6
4691 4687 30
4692 4680 35
4692 4698 13
4692 4746 80
4693 4615 76
4693 4635 155
4693 4772 143
4694 4679 54
4695 4654 41
4695 4737 62
4695 4738 141
4696 4656 64
4696 4670 43
4696 4728 57
4697 4658 46
4697 4668 40
4697 4747 77
4698 4602 95
4698 4692 13
4698 4754 90
4699 4633 71
4699 4702 13
4699 4799 186
4700 4617 78
4700 4664 76
4700 4721 77
4700 4724 36
4701 4487 224
4701 4671 86
4701 4785 378
4702 4641 69
4702 4699 13
4702 4778 139
4703 4659 43
4703 4677 77
4703 4730 46
4704 4684 25
4704 4713 31
4704 4738 44
4705 4675 64
4706 4676 46
4706 4751 75
4707 4677 39
4707 4730 78
4707 4733 40
4708 4678 40
4708 4727 44
4708 4732 35
4709 4688 31
4709 4729 50
4710 4532 184
4710 4722 136
4711 4647 69
4711 4786 138
4711 4941 389
4712 4519 197
4712 4632 186
4712 4816 190
4713 4714 36
4713 4704 31
4713 4732 67
4714 4713 36
4715 4675 48
4715 4716 112
4715 4742 115
4716 4715 112
4716 4657 22
4717 4666 60
4717 4744 58
4717 4795 235
4718 4685 72
4718 4731 43
4718 4766 100
4719 4649 87
4719 4644 84
4719 4744 47
4720 4592 151
4720 4761 44
4721 4651 81
4721 4700 77
4721 4740 77
4721 4748 45
4722 4710 136
4723 4646 131
4724 4700 36
4725 4726 528
4726 4725 528
4727 4681 54
4727 4708 44
4727 4745 34
4728 4696 57
4728 4729 96
4728 4739 118
4729 4728 96
4729 4709 50
4729 4750 145
4730 4703 46
4730 4707 78
4730 4749 32
4731 4718 43
4731 4672 115
4732 4708 35
4732 4713 67
4732 4745 47
4733 4707 40
4733 4734 150
4733 4749 80
4733 4797 135
4734 4733 150
4735 4736 165
4735 4787 121
4736 4735 165
4737 4695 62
4738 4704 44
4738 4695 141
4738 4782 112
4739 4645 114
4739 4728 118
4739 4747 41
4740 4680 80
4740 4721 77
4740 4746 39
4741 4621 135
4741 4765 66
4741 4783 97
4742 4489 293
4742 4715 115
4742 4773 70
4742 4801 399
4743 4683 1916
4744 4719 47
4744 4717 58
4744 4771 88
4744 4806 141
4745 4727 34
4745 4732 47
4745 4750 53
4746 4692 80
4746 4740 39
4746 4754 38
4747 4697 77
4747 4739 41
4747 4751 43
4748 4721 45
4749 4730 32
4749 4733 80
4749 4772 160
4750 4729 145
4750 4690 107
4750 4745 53
4751 4706 75
4751 4747 43
4751 4755 17
4752 4672 130
4752 4753 97
4752 4834 558
4752 4865 558
4752 4883 558
4753 4752 97
4753 4685 37
4754 4698 90
4754 4746 38
4754 4765 47
4754 4784 55
4755 4756 133
4755 4751 17
4755 4758 18
4756 4755 133
4757 4432 432
4757 4760 340
4757 4773 427
4758 4759 99
4758 4755 18
4758 4763 20
4759 4758 99
4760 4757 340
4761 4762 70
4761 4720 44
4762 4761 70
4762 4816 184
4762 23769 184
4763 4764 131
4763 4758 20
4763 4768 24
4764 4763 131
4765 4741 66
4765 4754 47
4765 4783 100
4766 4718 100
4766 4789 203
4766 4808 99
4767 4768 66
4768 4767 66
4768 4763 24
4768 4770 22
4769 4770 73
4770 4769 73
4770 4768 22
4770 4780 22
4771 4671 170
4771 4744 88
4771 4827 124
4771 4842 234
4772 4693 143
4772 4749 160
4772 4800 55
4773 4742 70
4773 4757 427
4773 4855 154
4774 4628 212
4774 4793 79
4775 4652 260
4776 4777 42
4776 4804 325
4776 4917 422
4777 4776 42
4777 4781 733
4777 4844 499
4778 4702 139
4778 4798 127
4778 4813 73
4779 4780 78
4780 4779 78
4780 4770 22
4780 4804 112
4781 4777 733
4782 4738 112
4782 4901 265
4783 4741 97
4783 4765 100
4783 4802 87
4784 4754 55
4784 4807 55
4784 4822 202
4785 4701 378
4785 4787 8
4785 4815 55
4786 4711 138
4786 4794 56
4786 4812 49
4787 4735 121
4787 4785 8
4787 4790 16
4788 4601 292
4788 4870 150
4788 4906 199
4789 4766 203
4789 4845 192
4790 4787 16
4790 4791 13
4790 4792 2
4791 4790 13
4791 4796 9
4791 4811 107
4792 4790 2
4792 4796 15
4793 4774 79
4793 4797 12
4794 4786 56
4794 4805 70
4794 4879 156
4795 4717 235
4796 4791 9
4796 4792 15
4796 4820 106
4797 4733 135
4797 4793 12
4797 4817 79
4798 4630 284
4798 4778 127
4798 4810 81
4799 4699 186
4799 4811 27
4800 4772 55
4800 4817 198
4800 4836 85
4801 4606 325
4801 4742 399
4801 4853 101
4802 4783 87
4802 4803 6
4803 4802 6
4803 4822 37
4803 4824 79
4804 4780 112
4804 4776 325
4804 4933 310
4805 4794 70
4805 4821 78
4805 4830 60
4806 4744 141
4806 4905 156
4806 4908 159
4807 4784 55
4807 4831 58
4807 4850 202
4808 4766 99
4808 4810 7
4808 4814 11
4809 4521 372
4809 4846 65
4809 4857 189
4810 4798 81
4810 4808 7
4810 4814 7
4811 4799 27
4811 4791 107
4811 4813 14
4811 4820 12
4812 4786 49
4812 4865 202
4812 4902 144
4813 4778 73
4813 4811 14
4813 4878 114
4814 4808 11
4814 4810 7
4814 4829 37
4815 4785 55
4816 4712 190
4816 4762 184
4816 4845 52
4817 4797 79
4817 4800 198
4817 4826 34
4818 4819 380
4819 4818 380
4819 4887 148
4820 4811 12
4820 4796 106
4820 4956 216
4821 4805 78
4821 4823 18
4821 4861 68
4822 4803 37
4822 4784 202
4822 4850 54
4823 4821 18
4824 4803 79
4824 4828 31
4824 4869 83
4825 4623 314
4825 4914 152
4825 4916 193
4826 4817 34
4826 4847 228
4826 4912 228
4827 4771 124
4827 4987 261
4828 4824 31
4828 4907 228
4828 4924 228
4829 4814 37
4829 4835 16
4829 4837 19
4830 4805 60
4830 4861 75
4830 4882 76
4831 4807 58
4831 4832 39
4831 4841 34
4832 4831 39
4832 4873 73
4833 4594 357
4833 4834 194
4833 5022 254
4834 4833 194
4834 4752 558
4834 4865 558
4834 4883 558
4835 4829 16
4835 4837 10
4835 4848 9
4836 4800 85
4836 4847 121
4836 4894 86
4837 4835 10
4837 4829 19
4837 4843 3
4838 4500 643
4839 4840 35
4840 4839 35
4840 4855 26
4840 4860 29
4841 4831 34
4841 4863 81
4841 4893 83
4842 4771 234
4842 4876 123
4842 4923 178
4843 4837 3
4843 4852 10
4843 4859 19
4844 4777 499
4844 4903 417
4844 5015 266
4845 4816 52
4845 4789 192
4845 4846 13
4845 4968 181
4846 4809 65
4846 4845 13
4846 4888 64
4847 4836 121
4847 4826 228
4847 4912 228
4848 4835 9
4848 4849 1
4848 4877 94
4849 4848 1
4849 4851 5
4850 4822 54
4850 4807 202
4850 4866 79
4850 4885 59
4851 4849 5
4851 4852 7
4851 4868 43
4852 4843 10
4852 4851 7
4852 4859 17
4853 4801 101
4853 4854 6
4853 4858 162
4853 4862 29
4854 4853 6
4854 4862 21
4855 4773 154
4855 4840 26
4855 4860 4
4855 4872 385
4856 4857 26
4856 23769 170
4857 4856 26
4857 4809 189
4857 4948 139
4858 4853 162
4858 4864 96
4859 4852 17
4859 4843 19
4859 4900 88
4860 4855 4
4860 4840 29
4860 4889 77
4860 5088 350
4861 4821 68
4861 4830 75
4861 4873 80
4861 4904 77
4862 4854 21
4862 4853 29
4862 4872 91
4863 4841 81
4863 4885 81
4863 4918 83
4864 4858 96
4864 4867 5
4865 4812 202
4865 4752 558
4865 4834 558
4865 4883 558
4866 4850 79
4866 4869 59
4866 4909 60
4867 4864 5
4867 4871 3
4867 4870 105
4868 4851 43
4868 4899 46
4869 4824 83
4869 4866 59
4869 4898 46
4870 4788 150
4870 4874 15
4870 4867 105
4871 4867 3
4871 4886 24
4871 4892 55
4872 4862 91
4872 4855 385
4872 4886 239
4872 23770 70
4873 4832 73
4873 4861 80
4873 4893 78
4873 4926 77
4874 4870 15
4874 4910 36
4875 4876 127
4876 4875 127
4876 4842 123
4876 4884 21
4877 4848 94
4877 4895 29
4877 4958 291
4878 4813 114
4878 4900 167
4878 4976 137
4879 4794 156
4880 4881 98
4881 4880 98
4882 4830 76
4882 4883 29
4882 4890 15
4882 4904 75
4883 4882 29
4883 4752 558
4883 4834 558
4883 4865 558
4884 4876 21
4884 4919 48
4884 4940 220
4885 4850 59
4885 4863 81
4885 4909 83
4885 4938 84
4886 4871 24
4886 4892 39
4886 4910 82
4886 4872 239
4887 4819 148
4887 4942 221
4887 5033 434
4888 4846 64
4888 4948 186
4888 4960 100
4889 4860 77
4889 4920 41
4889 4921 103
4890 4882 15
4890 4891 26
4890 4913 74
4890 4943 76
4891 4890 26
4891 4922 379
4891 23769 379
4892 4871 55
4892 4886 39
4892 4906 96
4893 4841 83
4893 4873 78
4893 4918 81
4893 4947 76
4894 4836 86
4894 4907 151
4894 4955 94
4895 4877 29
4895 4899 51
4895 4915 62
4896 4897 180
4897 4896 180
4898 4869 46
4898 4932 48
4898 4939 65
4899 4895 51
4899 4868 46
4899 5013 170
4900 4859 88
4900 4878 167
4901 4782 265
4901 4916 39
4901 4934 49
4902 4812 144
4902 4922 124
4902 4941 64
4902 4966 90
4903 4844 417
4904 4861 77
4904 4882 75
4904 4913 15
4904 4926 84
4905 4806 156
4905 4908 31
4905 5032 168
4906 4788 199
4906 4892 96
4906 4977 136
4907 4894 151
4907 4828 228
4907 4924 228
4908 4905 31
4908 4806 159
4908 5003 140
4909 4866 60
4909 4885 83
4909 4932 84
4909 4963 84
4910 4886 82
4910 5043 245
4910 4874 36
4911 4912 37
4911 4916 18
4912 4911 37
4912 4826 228
4912 4847 228
4913 4904 15
4913 4890 74
4913 4935 85
4913 4965 77
4914 4825 152
4914 4925 161
4914 5656 1023
4915 4895 62
4915 4959 156
4915 5053 194
4916 4901 39
4916 4825 193
4916 4911 18
4916 4934 41
4917 4776 422
4917 4933 182
4917 4995 206
4918 4863 83
4918 4893 81
4918 4938 83
4918 4967 78
4919 4884 48
4919 4923 78
4919 5008 124
4920 4889 41
4920 4975 129
4920 4981 92
4921 4889 103
4921 4927 206
4921 4952 157
4922 4902 124
4922 4891 379
4922 23769 379
4923 4919 78
4923 4842 178
4923 4973 80
4924 4925 58
4924 4828 228
4924 4907 228
4925 4924 58
4925 4914 161
4925 4931 13
4926 4873 77
4926 4904 84
4926 4935 14
4926 4947 76
4927 4921 206
4928 4929 119
4928 4930 49
4928 4949 78
4929 4928 119
4930 4928 49
4931 4925 13
4931 4953 44
4932 4898 48
4932 4909 84
4932 4939 43
4932 4983 85
4933 4917 182
4933 4804 310
4933 5171 412
4934 4901 49
4934 4916 41
4934 4946 18
4935 4926 14
4935 4913 85
4935 4954 76
4935 4984 79
4936 4937 22
4936 4945 48
4936 4987 78
4937 4936 22
4938 4885 84
4938 4918 83
4938 4963 82
4938 4986 76
4939 4898 65
4939 4932 43
4939 4951 14
4940 4884 220
4940 4974 82
4940 5008 258
4941 4902 64
4941 4711 389
4941 5092 213
4942 4887 221
4942 4985 250
4943 4890 76
4943 4944 46
4943 4965 71
4944 4943 46
4944 4966 64
4945 4936 48
4946 4934 18
4946 5104 240
4947 4893 76
4947 4926 76
4947 4954 16
4947 4967 84
4948 4857 139
4948 4888 186
4948 5054 129
4949 4950 70
4949 23770 70
4949 4928 78
4949 5056 148
4950 4949 70
4950 23770 70
4950 5043 249
4951 4939 14
4951 4955 16
4951 5001 75
4952 4921 157
4953 4931 44
4953 4957 240
4953 5029 95
4954 4947 16
4954 4935 76
4954 4979 83
4954 5009 78
4955 4894 94
4955 4951 16
4955 5644 945
4956 4820 216
4956 4974 24
4957 4953 240
4957 4989 53
4958 4877 291
4958 4978 30
4959 4915 156
4959 4978 64
4959 5084 193
4960 4888 100
4960 4968 20
4960 5150 280
4961 4962 185
4962 4961 185
4962 4994 55
4963 4909 84
4963 4938 82
4963 4983 85
4963 5017 75
4964 4476 900
4964 5083 1027
4964 5188 345
4965 4913 77
4965 4943 71
4965 4984 85
4966 4944 64
4966 4902 90
4966 5092 187
4967 4918 78
4967 4947 84
4967 4979 14
4967 4986 78
4968 4960 20
4968 4845 181
4968 4978 15
4968 4980 16
4969 4970 36
4969 4970 36
4969 4982 90
4970 4969 36
4970 4969 36
4970 4982 54
4970 4993 105
4970 5010 55
4970 5010 55
4971 4972 81
4972 4971 81
4973 4923 80
4974 4956 24
4974 4940 82
4974 4976 15
4974 5012 47
4975 4920 129
4976 4878 137
4976 4974 15
4976 4988 24
4977 4906 136
4977 5039 141
4978 4968 15
4978 4958 30
4978 4959 64
4978 4980 10
4979 4967 14
4979 4954 83
4979 4998 78
4979 5041 78
4980 4968 16
4980 4978 10
4980 5119 204
4981 4920 92
4982 4969 90
4982 4970 54
4982 4993 51
4983 4932 85
4983 4963 85
4983 5001 53
4983 5051 74
4984 4935 79
4984 4965 85
4984 5009 76
4984 5016 33
4985 4942 250
4985 4994 96
4986 4938 76
4986 4967 78
4986 4998 15
4986 5017 78
4987 4936 78
4987 4827 261
4987 5057 81
4988 4976 24
4988 5002 14
4988 5007 22
4989 4957 53
4989 5010 55
4989 5072 107
4990 4991 42
4991 4990 42
4991 4995 76
4991 4997 27
4991 5058 70
4992 4993 50
4993 4992 50
4993 4982 51
4993 4970 105
4993 5018 64
4993 5018 64
4993 5052 61
4994 4962 55
4994 5011 100
4994 4985 96
4995 4991 76
4995 4996 56
4995 4917 206
4995 5049 57
4996 4995 56
4997 4991 27
4997 5000 5
4997 5042 43
4998 4986 15
4998 4979 78
4998 5034 79
4998 5067 78
4999 5000 47
5000 4999 47
5000 4997 5
5000 5004 20
5001 4951 75
5001 4983 53
5001 5065 74
5002 4988 14
5002 5007 13
5002 5012 15
5002 5055 55
5003 4908 140
5003 5032 86
5003 5126 191
5004 5000 20
5004 5006 2
5004 5045 42
5005 5006 54
5006 5005 54
5006 5004 2
5006 5015 29
5007 4988 22
5007 5002 13
5007 5019 23
5007 5037 33
5008 4919 124
5008 4940 258
5008 5044 37
5009 4954 78
5009 4984 76
5009 5041 84
5009 5061 56
5010 4970 55
5010 4970 55
5010 4989 55
5010 5052 109
5010 5062 58
5011 4994 100
5011 5020 761
5011 5064 98
5012 5002 15
5012 4974 47
5012 5038 27
5013 4899 170
5013 5014 39
5013 5036 51
5013 5144 209
5014 5013 39
5014 5035 35
5015 4844 266
5015 5006 29
5015 5030 80
5015 5071 80
5016 4984 33
5017 4963 75
5017 4986 78
5017 5034 15
5017 5051 89
5018 4993 64
5018 4993 64
5018 5029 21
5019 5007 23
5019 5021 43
5019 5037 26
5020 5011 761
5021 5019 43
5021 5035 68
5021 5078 86
5022 4833 254
5022 5054 37
5022 5163 219
5023 5024 44
5023 5031 4
5023 5040 228
5024 5023 44
5025 5026 58
5025 5027 14
5025 5031 82
5026 5025 58
5027 5025 14
5027 5028 50
5027 5030 4
5028 5027 50
5029 4953 95
5029 5018 21
5029 5075 78
5030 5027 4
5030 5015 80
5030 5077 82
5031 5023 4
5031 5025 82
5031 5098 136
5032 4905 168
5032 5003 86
5032 5050 79
5032 5101 128
5033 4887 434
5033 5069 1150
5033 5164 1856
5034 5017 15
5034 4998 79
5034 5060 89
5034 5076 79
5035 5014 35
5035 5021 68
5035 5094 103
5036 5013 51
5036 5053 54
5036 5135 166
5037 5019 26
5037 5007 33
5037 5055 23
5038 5012 27
5038 5044 340
5038 5251 298
5039 4977 141
5039 5063 30
5040 5023 228
5041 4979 78
5041 5009 84
5041 5067 79
5041 5080 74
5042 4997 43
5043 4910 245
5043 4950 249
5043 5180 258
5044 5008 37
5044 5048 233
5044 5038 340
5044 5099 101
5045 5004 42
5046 5047 52
5046 5063 57
5046 5105 113
5047 5046 52
5048 5044 233
5048 5057 24
5048 5087 91
5049 4995 57
5049 5058 29
5050 5032 79
5050 5066 26
5051 4983 74
5051 5017 89
5051 5060 14
5051 5065 52
5052 4993 61
5052 5010 109
5052 5059 24
5053 4915 194
5053 5036 54
5053 5084 156
5053 5091 77
5054 5022 37
5054 4948 129
5054 5239 270
5055 5037 23
5055 5002 55
5055 5177 210
5056 4949 148
5056 5199 302
5057 5048 24
5057 4987 81
5057 5066 21
5058 4991 70
5058 5049 29
5058 5068 38
5059 5052 24
5059 5075 103
5059 5082 57
5060 5051 14
5060 5034 89
5060 5070 52
5060 5090 75
5061 5009 56
5062 5010 58
5062 5081 52
5062 5082 131
5063 5046 57
5063 5039 30
5063 5085 57
5064 5011 98
5064 5074 77
5064 5164 514
5065 5001 74
5065 5051 52
5065 5070 13
5066 5057 21
5066 5050 26
5066 5079 43
5067 4998 78
5067 5041 79
5067 5076 79
5067 5086 54
5068 5058 38
5068 5071 45
5068 5095 61
5069 5033 1150
5070 5065 13
5070 5060 52
5070 5103 74
5071 5015 80
5071 5068 45
5071 5073 17
5072 4989 107
5072 5081 55
5072 5114 86
5073 5071 17
5073 5077 68
5073 5095 62
5074 5064 77
5075 5029 78
5075 5059 103
5075 5089 28
5076 5034 79
5076 5067 79
5076 5090 87
5076 5096 37
5077 5030 82
5077 5073 68
5077 5098 170
5078 5021 86
5078 5094 66
5079 5066 43
5079 5097 31
5079 5101 75
5080 5041 74
5081 5062 52
5081 5072 55
5081 5113 130
5081 5130 85
5082 5059 57
5082 5062 131
5082 5109 128
5082 5113 56
5083 4964 1027
5083 5108 49
5083 5152 557
5084 4959 193
5084 5053 156
5084 5100 63
5085 5063 57
5085 5127 75
5085 5128 68
5086 5067 54
5087 5048 91
5088 4860 350
5088 5093 151
5088 5145 88
5089 5075 28
5089 5109 33
5089 5110 36
5090 5060 75
5090 5076 87
5090 5103 53
5091 5053 77
5091 5124 52
5091 5146 194
5092 4966 187
5092 4941 213
5092 5106 24
5093 5088 151
5094 5035 103
5094 5078 66
5094 5143 84
5095 5073 62
5095 5068 61
5095 5117 43
5096 5076 37
5097 5079 31
5097 5121 12
5098 5031 136
5098 5077 170
5098 5116 90
5099 5044 101
5099 5140 22
5100 5084 63
5100 5119 73
5100 5201 149
5101 5079 75
5101 5032 128
5101 5126 78
5101 5218 29
5102 4443 1189
5102 5107 12
5102 5223 511
5103 5070 74
5103 5090 53
5103 5187 134
5104 4946 240
5104 5118 27
5104 5123 33
5105 5046 113
5105 5126 74
5106 5092 24
5106 5132 235
5106 5252 178
5107 5102 12
5107 5204 344
5107 5376 369
5108 5083 49
5108 5120 19
5108 5137 450
5109 5089 33
5109 5082 128
5109 5148 62
5110 5089 36
5110 5118 17
5111 5112 60
5111 5115 44
5111 5149 81
5112 5111 60
5112 5125 21
5113 5082 56
5113 5081 130
5113 5136 74
5114 5072 86
5114 5131 51
5114 5279 207
5115 5111 44
5115 5141 51
5115 5160 68
5116 5098 90
5116 5151 50
5116 5151 50
5116 5164 307
5117 5095 43
5118 5104 27
5118 5110 17
5118 5129 9
5118 5134 18
5119 4980 204
5119 5100 73
5119 5198 110
5120 5108 19
5120 5147 259
5120 5173 82
5121 5122 33
5121 5097 12
5122 5121 33
5122 5125 73
5122 5248 157
5123 5104 33
5123 5134 24
5123 5165 305
5124 5091 52
5124 5135 49
5124 5158 120
5124 5157 34
5125 5112 21
5125 5122 73
5125 5142 25
5126 5101 78
5126 5003 191
5126 5105 74
5126 5194 103
5127 5085 75
5127 5128 50
5127 5176 84
5128 5085 68
5128 5127 50
5128 5174 105
5129 5118 9
5129 5189 96
5130 5081 85
5130 5131 1
5130 5131 1
5131 5130 1
5131 5130 1
5131 5114 51
5131 5154 99
5131 5166 57
5131 5166 57
5132 5133 142
5132 5106 235
5132 5187 433
5133 5132 142
5134 5123 24
5134 5118 18
5134 5161 81
5135 5124 49
5135 5036 166
5135 5144 50
5136 5113 74
5136 5148 66
5136 5162 48
5136 5162 48
5137 5108 450
5137 5138 105
5137 5139 44
5137 5188 240
5138 5137 105
5139 5137 44
5140 5141 46
5140 5099 22
5141 5140 46
5141 5115 51
5141 5153 53
5141 5226 108
5142 5125 25
5142 5149 37
5142 5217 102
5143 5094 84
5143 5144 46
5144 5135 50
5144 5013 209
5144 5143 46
5145 5088 88
5145 5152 16
5145 5155 15
5145 5159 34
5146 5091 194
5146 5242 112
5147 5120 259
5148 5109 62
5148 5136 66
5148 5179 49
5149 5111 81
5149 5142 37
5149 5160 44
5149 5196 67
5150 4960 280
5150 5220 83
5151 5116 50
5151 5116 50
5151 5212 77
5151 5212 78
5152 5145 16
5152 5083 557
5152 5167 27
5153 5141 53
5154 5131 99
5154 5181 106
5154 5191 56
5155 5145 15
5155 5167 16
5156 5157 60
5156 5169 81
5156 5299 156
5157 5156 60
5157 5172 80
5157 5286 159
5157 5124 34
5158 5124 120
5158 5260 111
5159 5145 34
5159 5168 19
5159 5175 74
5160 5115 68
5160 5149 44
5160 5211 68
5161 5134 81
5161 5170 220
5161 5189 123
5162 5136 48
5162 5136 48
5162 5179 66
5162 5181 36
5162 5182 36
5163 5022 219
5163 5254 94
5163 5529 434
5164 5064 514
5164 5033 1856
5164 5116 307
5165 5123 305
5165 5197 160
5166 5131 57
5166 5131 57
5166 5178 62
5166 5229 75
5166 5229 75
5167 5155 16
5167 5152 27
5167 5168 5
5167 5214 54
5168 5159 19
5168 5167 5
5169 5156 81
5170 5161 220
5170 5208 168
5170 5276 120
5171 4933 412
5171 5195 29
5172 5157 80
5172 5274 101
5173 5120 82
5173 5202 131
5173 5268 84
5174 5128 105
5174 5183 28
5175 5159 74
5175 5199 134
5175 5294 154
5176 5127 84
5176 5205 39
5176 5209 38
5177 5055 210
5177 5234 166
5177 5267 81
5178 5166 62
5178 5191 35
5178 5253 73
5179 5148 49
5179 5162 66
5179 5221 44
5180 5043 258
5181 5162 36
5181 5154 106
5181 5182 1
5181 5192 13
5182 5162 36
5182 5181 1
5182 5192 13
5182 5192 13
5183 5174 28
5183 5194 29
5183 5205 96
5184 5185 21
5184 5195 209
5185 5184 21
5185 5186 352
5185 5282 118
5186 5185 352
5187 5103 134
5187 5132 433
5187 5355 221
5188 5137 240
5188 4964 345
5188 5475 424
5189 5161 123
5189 5129 96
5189 5259 72
5190 4541 927
5190 5291 96
5190 5559 429
5191 5154 56
5191 5178 35
5191 5193 11
5192 5182 13
5192 5182 13
5192 5181 13
5192 5225 65
5192 5241 44
5192 5241 44
5193 5191 11
5193 5241 96
5193 5273 72
5194 5126 103
5194 5183 29
5194 5219 66
5194 5271 69
5195 5171 29
5195 5184 209
5195 5406 255
5196 5149 67
5196 5211 42
5196 5233 35
5197 5165 160
5197 5372 261
5198 5119 110
5198 5201 11
5198 5224 22
5199 5200 69
5199 5056 302
5199 5175 134
5200 5199 69
5200 5237 154
5200 5343 174
5201 5100 149
5201 5198 11
5201 5224 21
5202 5203 59
5202 5173 131
5202 5295 99
5203 5202 59
5203 5213 63
5203 5285 79
5204 5107 344
5205 5183 96
5205 5176 39
5205 5209 35
5205 5216 15
5206 5207 10
5206 5251 93
5206 5305 101
5207 5206 10
5207 5301 101
5208 5170 168
5208 5303 118
5209 5205 35
5209 5176 38
5209 5210 48
5210 5209 48
5210 5222 73
5210 5227 12
5211 5160 68
5211 5196 42
5211 5226 52
5211 5256 37
5212 5151 77
5212 5151 78
5212 5351 315
5213 5203 63
5213 5313 101
5214 5167 54
5214 5215 93
5214 5294 75
5215 5214 93
5216 5205 15
5216 5227 97
5216 5243 57
5217 5142 102
5217 5233 31
5217 5272 49
5218 5219 135
5218 5101 29
5219 5218 135
5219 5194 66
5219 5238 46
5219 5302 87
5220 5150 83
5220 5239 158
5220 5574 413
5221 5179 44
5221 5225 5
5222 5210 73
5222 5228 62
5222 5240 352
5223 5102 511
5224 5198 22
5224 5201 21
5224 5242 60
5224 5346 151
5225 5221 5
5225 5192 65
5225 5275 46
5226 5141 108
5226 5211 52
5226 5246 28
5227 5216 97
5227 5210 12
5227 5228 11
5227 5247 16
5228 5227 11
5228 5222 62
5229 5166 75
5229 5166 75
5229 5230 12
5229 5253 57
5230 5229 12
5230 5287 67
5231 5232 48
5231 5240 26
5231 5255 28
5232 5231 48
5232 5306 133
5233 5196 35
5233 5217 31
5233 5256 58
5234 5177 166
5234 5299 176
5234 5312 88
5235 5236 70
5236 5235 70
5236 5250 63
5236 5264 21
5237 5200 154
5237 5255 49
5238 5219 46
5238 5248 15
5238 5316 93
5239 5054 270
5239 5220 158
5239 5469 298
5240 5222 352
5240 5231 26
5240 5255 27
5241 5192 44
5241 5192 44
5241 5193 96
5241 5275 62
5241 5275 62
5241 5283 47
5241 5283 47
5242 5224 60
5242 5146 112
5242 5260 54
5242 5346 144
5243 5216 57
5243 5271 36
5243 5298 58
5244 5245 37
5244 5280 39
5244 5290 137
5245 5244 37
5246 5226 28
5246 5277 86
5246 5281 39
5247 5227 16
5247 5358 162
5248 5122 157
5248 5238 15
5248 5272 62
5249 5250 76
5250 5249 76
5250 5236 63
5250 5258 60
5251 5038 298
5251 5206 93
5251 5321 99
5252 5106 178
5252 5270 35
5252 5291 42
5253 5178 73
5253 5229 57
5253 5273 50
5254 3702 2470
5254 5163 94
5254 6739 1880
5255 5240 27
5255 5231 28
5255 5237 49
5255 5306 66
5256 5211 37
5256 5233 58
5256 5281 70
5256 5300 51
5257 5258 75
5258 5257 75
5258 5250 60
5258 5268 32
5259 5189 72
5259 5280 45
5259 5296 44
5260 5242 54
5260 5158 111
5260 5593 401
5260 23775 401
5260 5274 32
5261 5262 91
5261 5263 898
5261 5297 66
5262 5261 91
5263 5261 898
5264 5236 21
5265 5266 96
5266 5265 96
5267 5177 81
5267 5284 72
5267 5323 93
5268 5173 84
5268 5258 32
5268 5269 3
5269 5268 3
5270 5252 35
5270 5355 573
5270 5506 307
5271 5194 69
5271 5243 36
5271 5298 37
5271 5302 68
5272 5217 49
5272 5248 62
5272 5300 92
5272 5327 96
5273 5193 72
5273 5253 50
5273 5319 68
5273 5319 68
5274 5172 101
5274 5286 62
5274 5417 206
5274 5260 32
5275 5225 46
5275 5241 62
5275 5241 62
5275 5311 51
5276 5170 120
5276 5340 142
5277 5246 86
5277 5278 6
5277 5330 92
5278 5277 6
5278 5301 85
5278 5333 93
5279 5114 207
5279 5287 52
5279 5287 52
5279 5310 41
5280 5244 39
5280 5259 45
5280 5307 68
5281 5246 39
5281 5256 70
5281 5317 51
5282 5185 118
5282 5410 182
5283 5241 47
5283 5241 47
5283 5311 64
5283 5315 48
5283 5315 48
5284 5267 72
5284 5312 87
5284 5342 94
5285 5203 79
5286 5274 62
5286 5157 159
5286 5292 22
5286 5409 177
5287 5230 67
5287 5279 52
5287 5279 52
5287 5293 26
5287 5293 26
5288 5289 7
5289 5288 7
5289 5304 36
5289 5324 76
5290 5244 137
5290 5322 59
5291 5252 42
5291 5190 96
5291 5404 165
5292 5286 22
5293 5287 26
5293 5287 26
5293 5308 42
5293 5308 42
5293 5318 41
5294 5175 154
5294 5214 75
5294 5334 77
5295 5202 99
5296 5259 44
5296 5320 42
5296 5326 113
5297 5261 66
5297 5309 19
5297 5800 815
5298 5271 37
5298 5243 58
5298 5474 263
5299 5156 156
5299 5234 176
5299 5348 87
5300 5256 51
5300 5272 92
5300 5317 71
5300 5352 92
5301 5207 101
5301 5278 85
5301 5305 10
5301 5349 91
5302 5219 87
5302 5271 68
5302 5316 48
5303 5208 118
5303 5338 71
5303 5350 99
5304 5289 36
5305 5206 101
5305 5301 10
5305 5321 93
5305 5353 91
5306 5255 66
5306 5357 93
5306 5232 133
5307 5280 68
5307 5322 65
5307 5326 45
5308 5293 42
5308 5293 42
5308 5314 34
5308 5314 34
5308 5356 98
5309 5297 19
5309 5324 47
5309 5336 64
5310 5279 41
5310 5318 73
5310 5325 39
5311 5275 51
5311 5283 64
5311 5328 50
5312 5234 88
5312 5284 87
5312 5348 180
5313 5213 101
5314 5308 34
5314 5308 34
5314 5319 17
5314 5319 17
5314 5329 41
5315 5283 48
5315 5283 48
5315 5328 66
5315 5339 53
5316 5238 93
5316 5302 48
5316 5327 76
5316 5363 89
5317 5281 51
5317 5300 71
5317 5330 89
5317 5365 90
5318 5293 41
5318 5310 73
5318 5347 53
5319 5273 68
5319 5273 68
5319 5314 17
5319 5314 17
5319 5339 77
5319 5339 77
5320 5296 42
5320 5344 44
5320 5354 112
5321 5251 99
5321 5305 93
5321 5323 15
5321 5377 91
5322 5290 59
5322 5307 65
5322 5340 53
5323 5267 93
5323 5321 15
5323 5342 75
5323 5383 91
5324 5309 47
5324 5289 76
5324 5335 21
5324 5337 39
5325 5310 39
5325 5341 24
5325 5347 67
5326 5307 45
5326 5296 113
5326 5354 46
5326 5360 114
5327 5272 96
5327 5316 76
5327 5352 94
5327 5375 72
5328 5311 50
5328 5315 66
5328 5359 52
5329 5314 41
5329 5370 63
5329 5390 163
5330 5277 92
5330 5317 89
5330 5333 7
5330 5393 90
5331 5332 7
5332 5331 7
5332 5337 4
5333 5278 93
5333 5330 7
5333 5345 42
5333 5397 90
5334 5294 77
5334 5378 404
5334 5405 110
5335 5324 21
5335 5336 88
5335 5392 98
5336 5309 64
5336 5337 29
5336 5335 88
5337 5332 4
5337 5324 39
5337 5336 29
5338 5303 71
5338 5380 62
5338 5435 122
5339 5315 53
5339 5319 77
5339 5319 77
5339 5359 69
5340 5276 142
5340 5322 53
5340 5360 42
5341 5325 24
5341 5368 48
5342 5284 94
5342 5323 75
5342 5362 98
5342 5411 90
5343 5200 174
5343 5357 193
5344 5320 44
5344 5369 45
5344 5379 112
5345 5333 42
5345 5349 37
5345 5413 90
5346 5224 151
5346 5242 144
5346 5610 294
5347 5318 53
5347 5325 67
5347 5356 40
5347 5366 39
5348 5299 87
5348 5312 180
5348 5422 92
5349 5301 91
5349 5345 37
5349 5353 11
5349 5412 79
5350 5303 99
5350 5371 32
5351 5212 315
5351 5391 102
5351 5402 72
5352 5300 92
5352 5327 94
5352 5365 71
5352 5399 70
5353 5305 91
5353 5349 11
5353 5361 45
5354 5326 46
5354 5320 112
5354 5379 40
5354 5400 127
5355 5187 221
5355 5270 573
5355 5603 322
5356 5308 98
5356 5347 40
5356 5370 34
5357 5306 93
5357 5343 193
5357 5408 56
5358 5247 162
5359 5328 52
5359 5339 69
5359 5390 38
5360 5340 42
5360 5326 114
5360 5400 47
5361 5353 45
5361 5377 49
5361 5430 80
5362 5342 98
5362 5395 105
5362 5440 90
5363 5316 89
5363 5364 65
5363 5386 68
5363 5499 183
5364 5363 65
5364 5436 108
5365 5317 90
5365 5352 71
5365 5393 91
5365 5429 73
5366 5347 39
5366 5367 53
5366 5396 40
5366 5434 160
5367 5366 53
5368 5341 48
5368 5396 69
5368 5424 70
5369 5344 45
5369 5385 39
5369 5448 100
5370 5329 63
5370 5356 34
5370 5373 8
5371 5350 32
5371 5372 14
5371 5380 29
5371 5428 65
5372 5197 261
5372 5371 14
5372 5374 23
5372 5427 62
5373 5370 8
5374 5372 23
5374 5384 65
5374 5414 52
5375 5327 72
5375 5386 17
5375 5399 90
5376 5107 369
5376 5465 175
5376 5530 555
5377 5321 91
5377 5361 49
5377 5383 15
5377 5432 69
5378 5334 404
5379 5354 40
5379 5344 112
5379 5415 43
5379 5433 129
5380 5371 29
5380 5338 62
5380 5398 21
5381 5382 30
5381 5410 79
5381 5691 347
5381 23779 347
5382 5381 30
5382 5387 210
5382 5648 297
5383 5323 91
5383 5377 15
5383 5411 78
5383 5439 68
5384 5374 65
5384 5387 14
5384 5414 60
5385 5369 39
5385 5394 31
5385 5461 101
5385 5471 108
5386 5375 17
5386 5363 68
5387 5382 210
5387 5384 14
5387 5470 107
5388 5389 22
5389 5388 22
5389 5403 37
5389 5434 61
5390 5359 38
5390 5329 163
5390 5425 38
5391 5351 102
5391 5419 73
5391 5438 64
5392 5335 98
5393 5330 90
5393 5365 91
5393 5397 7
5394 5385 31
5394 5415 42
5394 5484 108
5395 5362 105
5395 5422 66
5395 5466 91
5396 5366 40
5396 5368 69
5396 5421 52
5396 5452 74
5397 5333 90
5397 5393 7
5397 5413 41
5398 5380 21
5398 5423 37
5398 5435 45
5399 5352 70
5399 5375 90
5400 5360 47
5400 5354 127
5400 5433 40
5401 5402 114
5402 5401 114
5402 5351 72
5402 5418 28
5403 5389 37
5403 5425 38
5403 5473 98
5404 5291 165
5404 5516 122
5405 5334 110
5405 5464 108
5406 5195 255
5406 5407 142
5406 5446 42
5407 5406 142
5407 5416 89
5407 5494 105
5408 5357 56
5408 5431 28
5409 5286 177
5409 5417 64
5410 5282 182
5410 5381 79
5410 5416 119
5411 5342 90
5411 5383 78
5411 5440 97
5411 5476 94
5412 5349 79
5412 5430 56
5413 5345 90
5413 5397 41
5413 5420 37
5414 5384 60
5414 5374 52
5414 5427 15
5414 5445 32
5415 5379 43
5415 5394 42
5415 5449 118
5416 5407 89
5416 5410 119
5416 5554 163
5417 5274 206
5417 5409 64
5417 5562 158
5418 5402 28
5418 5438 65
5419 5391 73
5419 5451 64
5419 5460 83
5420 5413 37
5420 5437 88
5420 5459 107
5421 5396 52
5421 5444 52
5421 5514 120
5422 5348 92
5422 5395 66
5422 5463 58
5423 5398 37
5423 5426 13
5423 5450 58
5424 5368 70
5424 5452 72
5424 5453 48
5425 5390 38
5425 5403 38
5425 5495 99
5426 5423 13
5426 5428 21
5426 5441 38
5427 5414 15
5427 5372 62
5427 5428 13
5427 5445 26
5428 5371 65
5428 5426 21
5428 5427 13
5428 5441 22
5429 5365 73
5430 5361 80
5430 5412 56
5431 5408 28
5431 5531 322
5431 5685 286
5432 5377 69
5432 5458 22
5433 5400 40
5433 5379 129
5433 5449 32
5434 5389 61
5434 5366 160
5434 5462 36
5435 5398 45
5435 5338 122
5435 5450 17
5436 5364 108
5437 5420 88
5437 5503 40
5438 5418 65
5438 5391 64
5438 5457 34
5438 5460 47
5439 5383 68
5439 5476 79
5439 5500 21
5440 5362 90
5440 5411 97
5440 5455 63
5440 5539 110
5441 5428 22
5441 5426 38
5441 5544 121
5442 5443 90
5443 5442 90
5443 5467 40
5443 5519 168
5444 5421 52
5444 5454 41
5444 5541 121
5445 5414 32
5445 5427 26
5445 5492 69
5446 5406 42
5446 5447 94
5446 5472 41
5447 5446 94
5448 5369 100
5448 5461 37
5448 5468 36
5449 5433 32
5449 5415 118
5450 5423 58
5450 5435 17
5450 5748 312
5451 5419 64
5451 5485 66
5451 5518 85
5452 5396 74
5452 5424 72
5452 5479 44
5453 5424 48
5453 5479 72
5453 5550 120
5454 5444 41
5454 5462 14
5454 5462 14
5454 5557 121
5455 5440 63
5455 5466 43
5455 5556 111
5456 5457 63
5457 5456 63
5457 5438 34
5457 5489 44
5457 5505 84
5458 5459 11
5458 5432 22
5459 5458 11
5459 5420 107
5459 5606 151
5460 5438 47
5460 5419 83
5460 5518 85
5461 5385 101
5461 5448 37
5461 5471 36
5462 5434 36
5462 5454 14
5462 5454 14
5462 5473 37
5463 5422 58
5463 5477 21
5464 5405 108
5464 5478 18
5464 5513 75
5465 5376 175
5465 5475 45
5465 5511 46
5466 5395 91
5466 5455 43
5466 5490 62
5467 5443 40
5467 5487 37
5467 5538 68
5468 5448 36
5468 5510 40
5468 5533 113
5469 5239 298
5469 5529 51
5469 5636 155
5470 5387 107
5470 5498 26
5471 5385 108
5471 5461 36
5471 5484 29
5472 5446 41
5472 5483 17
5473 5403 98
5473 5462 37
5473 5495 42
5473 5584 121
5474 5298 263
5474 5482 12
5474 5488 17
5475 5188 424
5475 5465 45
5475 5563 83
5476 5411 94
5476 5439 79
5477 5463 21
5477 5490 13
5478 5464 18
5478 5540 70
5479 5452 44
5479 5453 72
5479 5514 55
5479 5596 122
5480 5481 143
5481 5480 143
5481 5482 7
5481 5537 60
5482 5474 12
5482 5481 7
5482 5488 16
5483 5472 17
5483 5509 59
5483 5524 43
5484 5394 108
5484 5471 29
5484 5533 39
5485 5451 66
5485 5526 55
5485 5553 81
5486 5487 70
5487 5486 70
5487 5467 37
5487 5493 9
5488 5474 17
5488 5482 16
5488 5491 10
5488 5523 32
5489 5457 44
5489 5545 84
5489 5561 82
5490 5477 13
5490 5466 62
5490 5551 121
5491 5488 10
5491 5499 24
5491 5508 16
5492 5445 69
5492 5498 18
5492 5571 83
5493 5487 9
5493 5525 51
5493 5548 57
5494 5407 105
5494 5496 12
5494 5567 71
5495 5425 99
5495 5473 42
5495 5617 124
5496 5497 52
5496 5494 12
5496 5507 39
5497 5496 52
5498 5470 26
5498 5492 18
5498 5575 82
5499 5363 183
5499 5491 24
5499 5502 4
5500 5501 89
5500 5517 67
5500 5439 21
5501 5500 89
5501 5504 10
5501 5528 24
5502 5499 4
5502 5508 13
5502 5527 26
5503 5504 89
5503 5437 40
5504 5503 89
5504 5501 10
5504 5539 82
5505 5457 84
5505 5536 44
5505 5545 41
5506 5270 307
5506 5558 227
5506 5592 83
5507 5496 39
5507 5509 36
5507 5594 84
5508 5502 13
5508 5491 16
5508 5515 13
5508 5522 9
5509 5483 59
5509 5507 36
5509 5549 37
5510 5468 40
5510 5532 41
5510 5624 117
5511 5465 46
5511 5583 84
5511 5631 133
5512 5513 311
5512 5531 73
5513 5512 311
5513 5464 75
5513 5555 94
5513 5568 92
5513 5718 427
5514 5421 120
5514 5479 55
5514 5541 53
5514 5621 120
5515 5508 13
5515 5522 17
5515 5523 14
5516 5404 122
5516 5592 80
5516 5677 161
5517 5500 67
5517 5796 295
5518 5460 85
5518 5451 85
5518 5536 22
5519 5443 168
5520 5521 712
5520 5542 70
5520 5608 158
5521 5520 712
5522 5508 9
5522 5515 17
5522 5527 9
5523 5515 14
5523 5488 32
5523 5537 14
5524 5483 43
5524 5549 82
5524 5552 39
5525 5493 51
5525 5535 8
5525 5580 62
5526 5485 55
5527 5502 26
5527 5522 9
5527 5565 45
5528 5501 24
5528 5587 63
5528 5643 161
5529 5163 434
5529 5469 51
5529 5702 185
5530 5376 555
5531 5512 73
5531 5431 322
5531 5570 198
5532 5510 41
5532 5564 84
5532 5627 102
5533 5484 39
5533 5468 113
5533 5564 37
5534 5535 68
5535 5534 68
5535 5525 8
5536 5505 44
5536 5518 22
5536 5602 124
5536 5689 191
5537 5523 14
5537 5481 60
5537 5543 9
5538 5467 68
5538 5547 163
5539 5440 110
5539 5504 82
5539 5556 61
5540 5478 70
5540 5607 94
5540 5625 156
5541 5444 121
5541 5514 53
5541 5557 42
5541 5654 120
5542 5520 70
5543 5537 9
5543 5572 36
5543 5576 38
5544 5441 121
5544 5605 66
5544 5697 180
5545 5489 84
5545 5505 41
5545 5659 137
5546 5547 201
5547 5546 201
5547 5538 163
5547 5560 89
5548 5493 57
5549 5524 82
5549 5509 37
5549 5599 84
5550 5453 120
5550 5596 77
5550 5597 49
5551 5490 121
5551 5578 48
5551 5626 87
5552 5524 39
5552 5553 1
5552 5569 94
5553 5485 81
5553 5552 1
5553 5602 83
5554 5416 163
5554 5567 33
5554 5672 130
5555 5513 94
5555 5570 20
5556 5455 111
5556 5539 61
5556 5620 125
5556 5643 84
5557 5454 121
5557 5541 42
5557 5584 48
5557 5666 120
5558 5506 227
5559 5190 429
5559 5971 494
5560 5547 89
5561 5489 82
5561 5659 93
5562 5417 158
5562 5593 79
5562 5622 66
5563 5475 83
5563 5583 47
5563 5913 951
5564 5533 37
5564 5532 84
5564 5649 75
5565 5566 383
5565 5527 45
5565 5573 10
5566 5565 383
5566 5606 270
5566 5623 115
5567 5494 71
5567 5554 33
5567 5594 60
5568 5513 92
5568 5616 83
5568 5678 118
5569 5552 94
5570 5531 198
5570 5555 20
5570 5779 322
5571 5492 83
5571 5575 17
5571 5682 122
5572 5543 36
5572 5581 6
5572 5581 6
5573 5565 10
5573 5582 9
5574 5220 413
5574 5615 39
5574 5618 43
5575 5498 82
5575 5571 17
5575 5664 99
5576 5543 38
5576 5577 217
5576 5586 15
5576 5598 20
5577 5576 217
5578 5579 30
5578 5551 48
5578 5622 74
5578 23774 192
5579 5578 30
5580 5525 62
5581 5572 6
5581 5572 6
5581 5582 13
5581 5585 8
5582 5573 9
5582 5581 13
5582 5585 10
5582 5601 18
5583 5511 84
5583 5563 47
5583 5920 967
5584 5473 121
5584 5557 48
5584 5617 64
5584 5632 48
5585 5582 10
5585 5581 8
5585 5589 5
5585 5595 5
5586 5576 15
5586 5589 21
5586 5598 10
5587 5528 63
5587 5588 0
5587 5643 136
5587 5830 252
5588 5587 0
5589 5585 5
5589 5586 21
5589 5595 7
5590 5591 171
5590 5609 77
5591 5590 171
5591 5609 169
5591 5639 140
5592 5506 83
5592 5516 80
5592 5746 202
5593 5260 401
5593 23775 401
5593 5562 79
5593 5619 29
5594 5507 84
5594 5567 60
5594 5599 5
5595 5585 5
5595 5589 7
5595 5601 6
5596 5479 122
5596 5550 77
5596 5630 41
5597 5550 49
5597 5630 76
5597 5714 157
5598 5586 10
5598 5576 20
5598 5639 62
5599 5549 84
5599 5594 5
5599 5600 5
5600 5599 5
5600 5653 47
5601 5582 18
5601 5595 6
5601 5658 51
5602 5536 124
5602 5553 83
5602 5662 65
5602 5662 65
5603 5355 322
5603 5604 116
5603 5712 135
5604 5603 116
5605 5544 66
5605 5687 89
5605 5693 104
5606 5459 151
5606 5566 270
5606 5651 33
5607 5540 94
5608 5520 158
5609 5591 169
5609 5590 77
5609 5685 128
5610 5346 294
5610 5615 17
5610 5619 24
5610 5628 12
5611 5612 32
5612 5611 32
5613 5614 23
5614 5613 23
5615 5574 39
5615 5610 17
5615 5618 14
5615 5629 12
5616 5568 83
5616 5710 124
5617 5495 124
5617 5584 64
5617 5624 19
5617 5665 49
5618 5574 43
5618 5615 14
5618 5640 18
5618 5646 81
5619 5610 24
5619 5593 29
5619 5633 12
5619 5647 27
5620 5556 125
5620 5626 86
5620 5679 66
5621 5514 120
5621 5654 52
5621 5660 44
5622 5562 66
5622 5578 74
5622 5647 69
5623 5566 115
5623 5651 298
5623 5680 113
5624 5510 117
5624 5617 19
5624 5627 38
5624 5859 244
5625 5540 156
5626 5551 87
5626 5620 86
5626 5638 34
5626 5696 92
5627 5532 102
5627 5624 38
5627 5649 103
5628 5610 12
5628 5629 18
5628 5633 15
5628 5703 88
5629 5615 12
5629 5628 18
5629 5640 21
5629 5706 89
5630 5596 41
5630 5597 76
5630 5660 64
5630 5671 52
5631 5511 133
5631 5901 1030
5631 6018 605
5632 5584 48
5632 5657 42
5632 5684 72
5633 5628 15
5633 5619 12
5633 5645 19
5634 5635 187
5635 5634 187
5636 5469 155
5636 5637 16
5636 5641 11
5636 23771 11
5636 5641 8
5637 5636 16
5638 5626 34
5638 5661 139
5638 23776 243
5639 5598 62
5639 5591 140
5639 5676 122
5640 5618 18
5640 5629 21
5640 5650 8
5641 5636 11
5641 23771 11
5641 5636 8
5641 5642 9
5641 5655 13
5642 5641 9
5642 5646 22
5643 5556 84
5643 5528 161
5643 5587 136
5643 5679 132
5643 5690 66
5644 4955 945
5644 5708 91
5644 5712 102
5645 5633 19
5645 5647 9
5645 5675 42
5646 5642 22
5646 5618 81
5646 5655 24
5647 5645 9
5647 5619 27
5647 5622 69
5647 5670 34
5648 5382 297
5648 5667 91
5648 5686 55
5649 5564 75
5649 5627 103
5650 5640 8
5650 5655 93
5650 23778 93
5650 5699 72
5651 5606 33
5651 5623 298
5651 5805 176
5652 5653 86
5652 5698 86
5653 5652 86
5653 5600 47
5653 5681 38
5654 5541 120
5654 5621 52
5654 5666 44
5655 5641 13
5655 5646 24
5655 5650 93
5655 23778 93
5655 5674 35
5656 4914 1023
5656 5709 84
5656 5714 90
5657 5632 42
5657 5665 36
5657 5701 72
5658 5601 51
5658 5663 15
5658 5694 80
5659 5561 93
5659 5545 137
5659 5689 59
5660 5621 44
5660 5630 64
5660 5683 57
5661 5638 139
5661 5670 39
5661 5770 145
5662 5602 65
5662 5602 65
5662 5668 6
5662 5722 79
5663 5658 15
5663 5715 68
5663 5720 86
5664 5575 99
5664 5682 18
5664 5713 69
5665 5617 49
5665 5657 36
5665 5701 114
5665 5728 75
5666 5557 120
5666 5654 44
5666 5684 44
5667 5648 91
5667 5713 120
5667 5751 99
5668 5662 6
5668 5669 105
5668 5698 68
5669 5668 105
5670 5647 34
5670 5661 39
5670 5675 13
5671 5630 52
5671 5704 52
5671 5716 123
5672 5554 130
5672 5681 160
5672 5691 85
5673 5674 17
5673 23772 23
5674 5673 17
5674 5655 35
5674 5721 70
5675 5645 42
5675 5670 13
5675 5692 22
5676 5639 122
5676 5742 270
5676 5750 80
5677 5516 161
5677 5705 203
5677 5738 70
5678 5568 118
5678 5841 177
5678 5913 868
5679 5620 66
5679 5643 132
5679 5696 65
5679 5732 65
5680 5623 113
5681 5653 38
5681 5672 160
5682 5664 18
5682 5571 122
5682 5719 56
5683 5660 57
5683 5716 48
5683 5717 86
5684 5632 72
5684 5666 44
5684 5701 46
5685 5609 128
5685 5431 286
5685 5742 70
5686 5648 55
5686 5751 89
5686 5827 146
5686 23779 28
5687 5605 89
5687 5688 10
5687 5693 67
5688 5687 10
5689 5659 59
5689 5536 191
5689 5743 134
5690 5643 66
5690 5732 138
5690 5753 68
5691 5672 85
5691 5381 347
5691 23779 347
5691 5834 145
5692 5675 22
5692 5703 29
5692 5749 62
5693 5605 104
5693 5687 67
5693 5697 49
5694 5658 80
5694 5695 35
5694 5734 262
5695 5694 35
5695 5715 50
5696 5626 92
5696 5679 65
5696 5755 65
5697 5544 180
5697 5693 49
5697 5735 46
5698 5668 68
5698 5652 86
5698 5707 49
5698 5727 34
5699 5700 32
5699 5650 72
5699 5706 25
5699 5721 94
5700 5699 32
5700 23780 69
5701 5657 72
5701 5684 46
5701 5665 114
5702 5529 185
5702 5760 67
5702 5890 182
5703 5628 88
5703 5692 29
5703 5706 17
5703 5749 43
5704 5671 52
5704 5745 45
5704 5762 126
5705 5677 203
5705 5746 133
5705 23777 159
5706 5699 25
5706 5629 89
5706 5703 17
5706 5852 141
5707 5698 49
5707 5711 44
5707 5773 70
5708 5644 91
5708 5987 314
5709 5656 84
5709 5993 315
5710 5616 124
5710 5757 56
5710 5897 187
5711 5707 44
5711 5725 101
5711 5752 44
5712 5644 102
5712 5603 135
5712 5787 105
5713 5667 120
5713 5664 69
5713 5719 12
5713 5794 95
5714 5597 157
5714 5656 90
5714 5758 47
5715 5695 50
5715 5663 68
5715 5733 24
5716 5683 48
5716 5671 123
5716 5762 51
5717 5683 86
5717 5754 73
5717 5878 172
5718 5513 427
5719 5713 12
5719 5682 56
5719 5802 95
5720 5663 86
5720 5733 16
5720 5902 227
5721 5674 70
5721 5699 94
5721 5729 9
5722 5662 79
5722 5727 96
5722 5744 19
5723 5724 60
5723 5739 34
5723 5743 22
5724 5723 60
5725 5726 55
5725 5711 101
5725 5775 50
5726 5725 55
5726 5730 13
5727 5722 96
5727 5698 34
5727 5767 44
5728 5665 75
5728 5774 49
5729 5721 9
5729 5760 32
5730 5726 13
5730 5731 80
5730 5763 49
5731 5730 80
5732 5679 65
5732 5690 138
5732 5755 70
5732 5788 66
5733 5715 24
5733 5720 16
5733 5838 121
5734 5694 262
5734 5759 120
5734 5781 89
5735 5697 46
5735 5756 29
5735 5768 43
5736 5737 1505
5736 6077 1648
5737 5736 1505
5737 5800 2298
5738 5677 70
5738 5740 137
5738 5872 128
5739 5723 34
5739 5744 8
5739 5785 56
5740 5741 71
5740 5738 137
5740 23780 170
5741 5740 71
5741 5778 95
5741 5828 220
5742 5676 270
5742 5685 70
5742 5795 74
5742 5844 102
5742 5883 200
5743 5689 134
5743 5723 22
5743 5771 35
5744 5739 8
5744 5722 19
5744 5747 8
5745 5704 45
5745 5786 56
5745 5803 129
5746 5592 202
5746 5705 133
5746 5790 174
5747 5744 8
5747 5767 97
5747 5791 56
5748 5450 312
5748 5792 164
5748 5923 194
5749 5703 43
5749 5692 62
5749 5770 28
5750 5676 80
5750 5795 211
5750 5817 74
5751 5686 89
5751 5667 99
5751 5794 118
5751 5827 100
5752 5711 44
5752 5765 52
5752 5784 51
5753 5690 68
5753 5788 131
5753 5823 79
5754 5717 73
5754 5774 45
5754 5797 67
5755 5696 65
5755 5732 70
5755 5869 115
5756 5735 29
5756 5761 10
5756 5769 57
5757 5710 56
5757 5764 13
5757 5766 15
5758 5714 47
5758 5786 74
5758 5818 67
5759 5734 120
5759 5776 87
5759 5979 378
5760 5702 67
5760 5729 32
5760 5865 93
5761 5756 10
5761 5769 10
5762 5716 51
5762 5704 126
5762 5803 49
5763 5730 49
5764 5757 13
5764 5766 11
5764 5804 63
5765 5752 52
5766 5757 15
5766 5764 11
5766 5780 17
5767 5747 97
5767 5727 44
5767 5810 37
5768 5735 43
5768 5769 28
5768 5812 43
5769 5768 28
5769 5761 10
5769 5756 57
5770 5749 28
5770 5661 145
5770 5849 72
5771 5743 35
5771 5772 90
5771 5777 27
5771 5815 47
5772 5771 90
5773 5707 70
5774 5728 49
5774 5754 45
5774 5854 74
5775 5725 50
5776 5759 87
5776 5805 131
5776 5919 150
5777 5771 27
5777 5785 18
5777 5822 45
5778 5741 95
5778 5798 27
5778 5872 108
5779 5570 322
5779 5804 83
5779 5844 224
5780 5766 17
5780 5876 29
5781 5734 89
5781 5793 61
5782 5783 21
5782 5809 61
5782 5931 161
5783 5782 21
5784 5752 51
5784 5807 42
5784 5836 51
5785 5777 18
5785 5739 56
5785 5789 9
5786 5745 56
5786 5758 74
5786 5814 27
5786 5835 92
5787 5712 105
5787 5790 13
5787 5818 54
5788 5732 66
5788 5753 131
5788 5799 36
5788 5853 59
5789 5785 9
5789 5791 6
5789 5842 45
5790 5787 13
5790 5746 174
5790 5828 38
5791 5789 6
5791 5747 56
5791 5801 23
5792 5748 164
5792 5820 27
5792 5860 166
5793 5781 61
5793 5806 167
5793 5914 119
5794 5751 118
5794 5713 95
5794 5802 13
5794 5874 72
5795 5750 211
5795 5742 74
5795 5870 75
5796 5517 295
5796 5805 15
5796 5980 255
5797 5754 67
5797 5917 121
5798 5778 27
5798 5986 267
5799 5788 36
5800 5297 815
5800 5737 2298
5800 6160 729
5801 5791 23
5801 5824 50
5801 5850 43
5802 5794 13
5802 5719 95
5802 5885 79
5803 5762 49
5803 5745 129
5803 5833 25
5804 5779 83
5804 5764 63
5804 5897 87
5805 5796 15
5805 5651 176
5805 5776 131
5805 6040 355
5806 5793 167
5806 5866 64
5807 5808 36
5807 5784 42
5807 5826 78
5808 5807 36
5809 5782 61
5809 5820 47
5809 5934 160
5810 5767 37
5810 5811 4
5810 5816 12
5811 5810 4
5811 5813 2
5812 5768 43
5812 5860 51
5812 5939 180
5813 5811 2
5813 5819 8
5813 5836 37
5814 5786 27
5815 5771 47
5816 5810 12
5816 5819 11
5816 5824 41
5817 5750 74
5818 5758 67
5818 5787 54
5818 5829 9
5819 5813 8
5819 5816 11
5819 5959 283
5820 5792 27
5820 5809 47
5820 5900 75
5821 4686 1773
5821 10983 7033
5822 5777 45
5823 5753 79
5823 5830 29
5823 5853 139
5823 5893 69
5824 5801 50
5824 5816 41
5824 5825 4
5825 5824 4
5825 5880 73
5825 5942 394
5826 5807 78
5826 5837 32
5826 5884 88
5827 5686 146
5827 5751 100
5827 5834 25
5827 5867 37
5828 5790 38
5828 5741 220
5828 5843 9
5829 5818 9
5829 5868 34
5829 5926 207
5830 5823 29
5830 5587 252
5830 5893 57
5831 5832 14
5831 5847 31
5831 5899 66
5832 5831 14
5833 5803 25
5833 5856 43
5833 5926 122
5834 5691 145
5834 5827 25
5834 5908 87
5834 5911 141
5835 5786 92
5836 5813 37
5836 5784 51
5836 5884 74
5837 5826 32
5838 5733 121
5838 5848 18
5838 5858 19
5839 5840 39
5840 5839 39
5840 5894 146
5840 5935 130
5841 5678 177
5842 5789 45
5843 5828 9
5843 5875 53
5843 5938 137
5844 5742 102
5844 5779 224
5844 5851 39
5845 5846 64
5845 5898 154
5845 6010 259
5846 5845 64
5846 5849 67
5846 5863 242
5847 5831 31
5847 5855 30
5847 5905 63
5848 5838 18
5848 5858 14
5848 5866 83
5849 5770 72
5849 5846 67
5849 5852 15
5849 6016 259
5850 5801 43
5851 5844 39
5851 5871 46
5852 5706 141
5852 5849 15
5852 5865 119
5852 6006 245
5853 5788 59
5853 5823 139
5853 5869 63
5854 5774 74
5854 5859 21
5854 5956 172
5855 5847 30
5855 5879 66
5855 5889 31
5856 5857 89
5856 5833 43
5856 5878 36
5857 5856 89
5858 5848 14
5858 5838 19
5858 5932 110
5859 5624 244
5859 5854 21
5859 5888 28
5860 5812 51
5860 5792 166
5860 5879 22
5861 5862 262
5861 5895 153
5862 5861 262
5862 5882 41
5863 5846 242
5863 5864 194
5863 5869 54
5864 5863 194
5865 5760 93
5865 5852 119
5865 6015 249
5866 5806 64
5866 5848 83
5867 5827 37
5867 5906 100
5867 5933 125
5868 5829 34
5868 5873 11
5869 5755 115
5869 5853 63
5869 5863 54
5869 6032 327
5870 5795 75
5870 5871 13
5870 5902 159
5871 5870 13
5871 5851 46
5872 5778 108
5872 5738 128
5872 5918 60
5873 5868 11
5873 5875 11
5873 5892 75
5874 5794 72
5874 5885 14
5874 5906 48
5875 5873 11
5875 5843 53
5875 5949 151
5876 5877 56
5876 5780 29
5877 5876 56
5877 5886 10
5877 5887 12
5878 5717 172
5878 5856 36
5878 5917 112
5878 5941 122
5879 5860 22
5879 5855 66
5879 5925 85
5880 5825 73
5880 5894 17
5881 3708 4699
5882 5883 49
5882 5862 41
5883 5882 49
5883 5742 200
5883 6037 493
5884 5836 74
5884 5826 88
5884 5909 73
5885 5874 14
5885 5802 79
5885 5933 92
5886 5877 10
5886 5887 4
5886 5969 169
5887 5886 4
5887 5877 12
5887 5895 50
5888 5859 28
5888 5907 25
5889 5855 31
5889 5896 35
5889 5910 32
5890 5702 182
5890 5891 54
5890 6017 222
5891 5890 54
5891 23776 240
5892 5873 75
5892 5958 284
5892 5960 157
5893 5823 69
5893 5830 57
5893 5995 190
5894 5840 146
5894 5880 17
5894 5916 31
5895 5861 153
5895 5887 50
5895 5969 177
5896 5889 35
5897 5804 87
5897 5710 187
5897 6179 628
5898 5845 154
5898 5997 254
5898 6001 193
5899 5831 66
5900 5820 75
5900 5925 132
5900 5940 82
5901 5631 1030
5902 5720 227
5902 5870 159
5902 5932 149
5903 5904 14
5903 5907 31
5903 5967 154
5904 5903 14
5904 5936 302
5904 5964 145
5905 5847 63
5906 5874 48
5906 5867 100
5907 5903 31
5907 5888 25
5907 5967 139
5908 5834 87
5908 5911 223
5908 5946 105
5909 5884 73
5909 5944 115
5910 5889 32
5911 5912 64
5911 5834 141
5911 5908 223
5912 5911 64
5913 5563 951
5913 5678 868
5913 6068 429
5914 5793 119
5914 5915 165
5914 5927 32
5915 5914 165
5916 5894 31
5916 5935 115
5916 5948 166
5917 5797 121
5917 5878 112
5918 5872 60
5918 5971 123
5918 5974 122
5919 5776 150
5920 5583 967
5920 5924 24
5920 6092 468
5921 5922 19
5921 5930 45
5921 5954 82
5922 5921 19
5923 5748 194
5923 5931 55
5923 5945 49
5924 5920 24
5924 5928 155
5925 5879 85
5925 5900 132
5925 5937 31
5926 5833 122
5926 5829 207
5926 5941 73
5927 5914 32
5928 5924 155
5928 5929 382
5928 6141 728
5929 5928 382
5930 5921 45
5930 5937 48
5930 5962 79
5931 5782 161
5931 5923 55
5931 5934 38
5931 5947 46
5932 5858 110
5932 5902 149
5932 6038 232
5933 5867 125
5933 5885 92
5933 5939 17
5933 5946 38
5934 5809 160
5934 5931 38
5934 5940 49
5935 5840 130
5935 5916 115
5936 5904 302
5936 5952 50
5937 5925 31
5937 5930 48
5937 5966 92
5938 5843 137
5938 5950 38
5939 5933 17
5939 5812 180
5939 5968 83
5939 5953 41
5940 5900 82
5940 5934 49
5940 5957 43
5941 5878 122
5941 5926 73
5941 5963 123
5942 5943 290
5942 5825 394
5942 6004 252
5942 6033 185
5943 5942 290
5944 5909 115
5944 5959 72
5944 5976 93
5945 5923 49
5945 5947 56
5945 5951 27
5945 5955 30
5946 5908 105
5946 5953 18
5946 6051 210
5946 5933 38
5947 5931 46
5947 5945 56
5947 5957 80
5948 5916 166
5949 5875 151
5949 5992 76
5949 6013 94
5950 5938 38
5950 5988 64
5950 6012 93
5951 5945 27
5951 5955 14
5951 6207 461
5952 5936 50
5952 5972 43
5952 6019 440
5953 5946 18
5953 5977 53
5953 5982 63
5953 5939 41
5954 5921 82
5955 5945 30
5955 5951 14
5955 5978 171
5955 5981 48
5956 5854 172
5956 5961 18
5956 5967 61
5957 5940 43
5957 5947 80
5957 5966 94
5958 5892 284
5958 5965 41
5958 6011 80
5959 5819 283
5959 5944 72
5959 5970 31
5959 6023 291
5960 5892 157
5960 6011 311
5960 6030 124
5961 5956 18
5961 5963 65
5961 5989 53
5962 5930 79
5963 5941 123
5963 5961 65
5964 5904 145
5964 5984 34
5964 6020 108
5965 5958 41
5965 5989 81
5966 5937 92
5966 5957 94
5966 5975 13
5967 5903 154
5967 5907 139
5967 5956 61
5967 5984 30
5968 5939 83
5968 5975 193
5969 5886 169
5969 5895 177
5969 6148 390
5970 5959 31
5970 6036 172
5971 5918 123
5971 5559 494
5971 6923 1253
5972 5952 43
5972 5973 47
5972 6027 112
5973 5972 47
5974 5918 122
5974 5986 40
5974 5996 32
5975 5966 13
5975 5968 193
5975 5991 34
5976 5944 93
5976 6034 96
5977 5953 53
5977 5982 58
5977 5994 91
5978 5955 171
5978 5983 46
5978 6000 27
5979 5759 378
5979 6046 233
5979 6080 183
5980 5796 255
5980 5995 89
5980 6138 315
5981 5955 48
5981 5985 55
5981 6042 107
5982 5953 63
5982 5977 58
5982 6050 125
5983 5978 46
5983 5991 44
5983 6039 97
5984 5964 34
5984 5967 30
5984 6005 25
5985 5981 55
5985 5990 49
5985 6049 111
5986 5798 267
5986 5974 40
5986 5996 39
5986 6009 107
5986 6028 65
5987 5988 84
5987 5708 314
5988 5987 84
5988 5950 64
5988 6747 1024
5989 5961 53
5989 5965 81
5989 6014 26
5990 5985 49
5990 6000 63
5990 6029 67
5991 5983 44
5991 5994 125
5991 6044 97
5991 5975 34
5992 5949 76
5992 5993 89
5992 6031 72
5993 5992 89
5993 6031 161
5993 5709 315
5994 5977 91
5994 5991 125
5994 6079 262
5995 5893 190
5995 5980 89
5995 6075 164
5996 5986 39
5996 5974 32
5996 6043 91
5997 5898 254
5997 6001 142
5997 6063 123
5998 5999 407
5999 5998 407
6000 5978 27
6000 5990 63
6000 6035 72
6001 5898 193
6001 5997 142
6001 6010 135
6002 6003 1158
6003 6002 1158
6003 6223 692
6003 6243 2647
6004 5942 252
6004 6007 322
6004 6166 375
6005 5984 25
6005 6020 62
6005 6026 53
6006 5852 245
6006 6015 111
6006 6025 33
6007 6004 322
6008 6009 137
6009 6008 137
6009 5986 107
6009 6024 136
6009 6144 297
6010 5845 259
6010 6001 135
6010 6016 132
6011 5958 80
6011 5960 311
6011 6070 121
6012 5950 93
6012 6024 46
6012 6041 73
6013 5949 94
6013 6030 84
6013 6045 77
6014 5989 26
6014 6026 66
6014 6078 135
6015 5865 249
6015 6006 111
6015 6017 13
6016 5849 259
6016 6010 132
6016 6084 131
6017 5890 222
6017 6015 13
6017 6054 81
6018 5631 605
6019 5952 440
6020 5964 108
6020 6005 62
6020 6027 177
6021 6022 223
6022 6021 223
6022 6077 222
6023 5959 291
6023 6033 165
6023 6067 92
6024 6012 46
6024 6009 136
6024 6041 51
6025 6006 33
6025 6047 49
6026 6005 53
6026 6014 66
6026 6085 120
6027 5972 112
6027 6020 177
6028 5986 65
6028 6043 53
6028 6571 737
6029 5990 67
6029 6035 58
6029 6055 46
6030 5960 124
6030 6013 84
6030 6070 309
6031 5992 72
6031 5993 161
6031 6750 949
6032 5869 327
6032 6075 223
6032 6121 168
6033 5942 185
6033 6023 165
6033 6127 198
6034 5976 96
6034 6051 72
6034 6052 31
6035 6000 72
6035 6029 58
6035 6039 46
6036 5970 172
6036 6053 31
6037 5883 493
6037 6038 40
6037 6062 47
6038 5932 232
6038 6037 40
6038 6048 20
6039 5983 97
6039 6035 46
6039 6044 41
6040 5805 355
6040 6046 126
6040 6111 140
6041 6012 73
6041 6024 51
6041 6620 786
6042 5981 107
6042 6049 56
6042 6072 50
6043 6028 53
6043 5996 91
6043 6558 692
6044 5991 97
6044 6039 41
6044 6071 48
6045 6013 77
6045 6099 522
6045 6120 147
6046 6040 126
6046 5979 233
6046 6111 188
6047 6025 49
6047 6054 121
6047 6090 76
6048 6038 20
6048 6062 61
6048 6622 963
6049 5985 111
6049 6042 56
6049 6055 43
6050 5982 125
6050 6081 117
6050 6097 101
6051 5946 210
6051 6034 72
6051 6066 24
6052 6034 31
6052 6066 64
6052 6098 89
6053 6036 31
6053 6083 58
6053 6098 90
6054 6017 81
6054 6047 121
6054 6095 81
6055 6029 46
6055 6049 43
6055 6060 21
6056 6057 131
6056 6074 33
6057 6056 131
6058 6059 46
6058 6061 4
6058 6073 28
6059 6058 46
6060 6055 21
6060 6071 119
6060 6087 51
6061 6058 4
6062 6048 61
6062 6037 47
6062 6656 998
6063 5997 123
6063 6084 409
6063 6122 119
6064 6065 312
6065 6064 312
6065 6069 305
6066 6052 64
6066 6051 24
6066 6098 77
6067 6023 92
6068 5913 429
6068 6092 101
6068 6105 142
6069 6065 305
6070 6011 121
6070 6030 309
6070 6086 124
6071 6044 48
6071 6060 119
6071 6093 50
6071 6131 289
6072 6042 50
6072 6087 121
6072 6096 50
6073 6058 28
6073 6112 107
6073 6116 140
6074 6056 33
6074 6076 18
6074 6100 61
6075 5995 164
6075 6032 223
6075 6138 163
6076 6074 18
6076 6100 56
6076 6108 96
6077 6022 222
6077 5736 1648
6078 6014 135
6078 6082 11
6078 6085 41
6079 5994 262
6079 6081 3
6079 6101 54
6080 5979 183
6081 6050 117
6081 6079 3
6081 6091 77
6082 6078 11
6082 6086 9
6083 6053 58
6083 6119 98
6083 6129 141
6084 6016 131
6084 6063 409
6084 6342 396
6085 6026 120
6085 6078 41
6085 6094 27
6086 6082 9
6086 6070 124
6086 6099 40
6087 6060 51
6087 6072 121
6087 6093 113
6087 6102 48
6088 6089 1027
6089 6088 1027
6090 6047 76
6090 6095 118
6090 6733 796
6091 6081 77
6091 6097 60
6091 6118 61
6092 5920 468
6092 6068 101
6092 6115 96
6093 6071 50
6093 6087 113
6093 6113 48
6094 6085 27
6094 6103 46
6094 6106 35
6095 6054 81
6095 6090 118
6095 6746 792
6096 6072 50
6096 6102 121
6096 6117 48
6097 6050 101
6097 6091 60
6097 6104 28
6098 6053 90
6098 6052 89
6098 6066 77
6098 6104 21
6098 6129 69
6099 6086 40
6099 6045 522
6099 6107 64
6099 6180 169
6100 6076 56
6100 6074 61
6100 6103 12
6101 6079 54
6101 6118 78
6101 6131 55
6102 6087 48
6102 6096 121
6102 6113 112
6102 6130 49
6103 6100 12
6103 6094 46
6103 6106 52
6103 6108 14
6103 6114 21
6104 6098 21
6104 6097 28
6104 6125 42
6104 6128 46
6105 6068 142
6105 6115 112
6105 6238 436
6106 6103 52
6106 6094 35
6106 6107 2
6107 6106 2
6107 6099 64
6107 6217 208
6108 6076 96
6108 6103 14
6108 6114 21
6109 6110 237
6109 6112 17
6109 6213 166
6110 6109 237
6110 6182 232
6111 6040 140
6111 6046 188
6111 6412 407
6112 6073 107
6112 6109 17
6112 6116 80
6113 6093 48
6113 6102 112
6113 6134 51
6114 6108 21
6114 6103 21
6114 6124 19
6115 6105 112
6115 6092 96
6115 6230 411
6116 6073 140
6116 6112 80
6116 6123 76
6117 6096 48
6117 6126 95
6117 6135 50
6118 6091 61
6118 6101 78
6118 6133 79
6118 6139 62
6119 6083 98
6119 6206 176
6120 6045 147
6120 6267 235
6121 6032 168
6121 6122 13
6121 6252 214
6122 6063 119
6122 6121 13
6122 6576 552
6123 6116 76
6123 6127 68
6123 6151 84
6124 6114 19
6124 6143 61
6124 6150 105
6125 6104 42
6125 6128 28
6125 6133 15
6126 6117 95
6126 6130 26
6126 6142 51
6127 6033 198
6127 6123 68
6127 6158 156
6127 6248 197
6128 6104 46
6128 6125 28
6128 6203 122
6129 6083 141
6129 6098 69
6129 6193 110
6130 6102 49
6130 6126 26
6130 6132 24
6131 6101 55
6131 6071 289
6131 6139 75
6131 6176 83
6132 6130 24
6132 6134 89
6132 6149 53
6133 6125 15
6133 6118 79
6133 6169 70
6134 6113 51
6134 6132 89
6134 6161 51
6135 6117 50
6135 6142 95
6135 6170 52
6136 6137 43
6136 6140 283
6136 6152 40
6137 6136 43
6137 6153 127
6137 6157 41
6138 6075 163
6138 5980 315
6138 6350 267
6139 6118 62
6139 6131 75
6139 6169 82
6139 6188 72
6140 6136 283
6140 6152 86
6140 6167 36
6141 5928 728
6142 6126 51
6142 6135 95
6142 6181 49
6143 6124 61
6143 6147 4
6143 6189 80
6144 6009 297
6145 6146 58
6145 6151 42
6145 6162 21
6146 6145 58
6147 6143 4
6147 6150 32
6147 6184 41
6148 5969 390
6148 6172 41
6149 6132 53
6149 6161 86
6149 6186 47
6150 6124 105
6150 6147 32
6150 6184 45
6151 6123 84
6151 6145 42
6151 6171 21
6152 6136 40
6152 6140 86
6152 6183 38
6153 6137 127
6153 6154 36
6153 6185 40
6154 6153 36
6154 6180 113
6154 6247 115
6155 6156 115
6155 6176 71
6155 6204 82
6156 6155 115
6156 6204 142
6157 6137 41
6157 6185 126
6157 6192 40
6158 6127 156
6158 6159 10
6158 6244 119
6159 6158 10
6159 6164 40
6159 6245 107
6160 5800 729
6160 6168 603
6160 6815 991
6161 6134 51
6161 6149 86
6161 6202 47
6162 6145 21
6162 6163 59
6162 6171 40
6162 6190 33
6163 6162 59
6164 6159 40
6164 6173 41
6164 6289 163
6165 6166 286
6166 6165 286
6166 6004 375
6166 6178 30
6167 6140 36
6167 6183 87
6167 6195 39
6168 6160 603
6169 6133 70
6169 6139 82
6169 6187 31
6170 6135 52
6170 6181 95
6170 6208 51
6171 6151 21
6171 6162 40
6171 6194 33
6172 6148 41
6172 6253 708
6173 6164 41
6173 6178 42
6173 6287 156
6174 6175 182
6175 6174 182
6175 6177 68
6175 6254 117
6176 6131 83
6176 6155 71
6176 6188 71
6177 6175 68
6177 6259 117
6178 6166 30
6178 6173 42
6178 6200 47
6178 6283 145
6179 5897 628
6179 6238 668
6180 6099 169
6180 6154 113
6180 6318 186
6181 6142 49
6181 6170 95
6181 6224 52
6182 6110 232
6182 6206 29
6182 6212 59
6183 6152 38
6183 6167 87
6183 6214 38
6184 6150 45
6184 6147 41
6184 6249 90
6185 6153 40
6185 6157 126
6185 6216 38
6186 6149 47
6186 6202 83
6186 6229 52
6187 6169 31
6187 6203 70
6187 6215 29
6188 6139 72
6188 6176 71
6188 6215 81
6189 6143 80
6190 6162 33
6190 6191 52
6190 6194 38
6191 6190 52
6192 6157 40
6192 6216 129
6192 6222 36
6193 6129 110
6193 6203 18
6193 6286 127
6194 6171 33
6194 6190 38
6194 6218 31
6195 6167 39
6195 6209 65
6195 6228 40
6196 6197 37
6196 6201 35
6196 6266 94
6197 6196 37
6197 6264 96
6198 6199 92
6198 6226 56
6198 6275 107
6199 6198 92
6199 6261 90
6200 6178 47
6200 6201 32
6200 6282 115
6201 6200 32
6201 6196 35
6201 6272 94
6202 6161 47
6202 6186 83
6202 6237 51
6203 6193 18
6203 6128 122
6203 6187 70
6203 6295 122
6204 6155 82
6204 6156 142
6204 6276 174
6205 4428 4075
6205 6255 1544
6205 6876 973
6206 6182 29
6206 6119 176
6206 6225 21
6207 5951 461
6207 6208 14
6207 6421 256
6208 6170 51
6208 6207 14
6208 6224 94
6208 6246 51
6209 6195 65
6209 6214 22
6209 6236 39
6210 6211 99
6211 6210 99
6211 6252 175
6211 6305 149
6212 6182 59
6212 6213 134
6212 6225 46
6213 6109 166
6213 6212 134
6213 6218 132
6214 6183 38
6214 6209 22
6214 6222 40
6215 6187 29
6215 6188 81
6215 6273 86
6216 6185 38
6216 6192 129
6216 6239 35
6217 6107 208
6217 6233 65
6217 6309 127
6218 6194 31
6218 6213 132
6218 6221 13
6219 6220 185
6220 6219 185
6221 6218 13
6221 6234 82
6221 6340 533
6222 6192 36
6222 6214 40
6222 6235 89
6223 6003 692
6224 6181 52
6224 6208 94
6224 6227 29
6225 6212 46
6225 6206 21
6225 6306 196
6226 6198 56
6226 6278 80
6227 6224 29
6227 6229 28
6227 6258 49
6228 6195 40
6228 6236 66
6229 6186 52
6229 6227 28
6229 6237 84
6230 6115 411
6230 6253 70
6230 6308 163
6231 6232 55
6231 6265 68
6232 6231 55
6232 6250 35
6233 6217 65
6233 6240 43
6233 6326 125
6234 6221 82
6234 6257 84
6234 6316 111
6235 6222 89
6235 6239 42
6235 6256 38
6236 6209 39
6236 6228 66
6236 6256 148
6236 6262 40
6237 6202 51
6237 6229 84
6237 6251 107
6237 6277 53
6238 6105 436
6238 6179 668
6238 6253 28
6239 6216 35
6239 6235 42
6239 6247 34
6240 6233 43
6240 6249 52
6240 6336 123
6241 6242 36
6242 6241 36
6242 6285 82
6242 6290 291
6243 6003 2647
6243 6355 750
6244 6158 119
6244 6245 68
6244 6248 8
6244 6269 36
6245 6159 107
6245 6244 68
6246 6208 51
6246 6258 123
6246 6279 51
6247 6154 115
6247 6239 34
6247 6274 38
6248 6244 8
6248 6127 197
6248 6257 33
6249 6184 90
6249 6240 52
6249 6250 29
6249 6288 52
6250 6232 35
6250 6249 29
6250 6265 50
6251 6237 107
6251 6260 19
6252 6121 214
6252 6211 175
6252 6370 132
6253 6238 28
6253 6230 70
6253 6172 708
6253 6308 94
6254 6175 117
6254 6259 67
6254 6343 98
6255 6205 1544
6256 6235 38
6256 6236 148
6256 6274 77
6256 6280 32
6257 6248 33
6257 6234 84
6257 6269 41
6258 6227 49
6258 6246 123
6258 6277 112
6258 6299 50
6259 6177 117
6259 6254 67
6259 6369 123
6260 6251 19
6260 6284 83
6260 6291 36
6261 6199 90
6261 6271 44
6261 6281 29
6262 6236 40
6262 6263 128
6262 6268 19
6263 6262 128
6264 6197 96
6264 6266 41
6264 6304 47
6265 6231 68
6265 6250 50
6265 6281 32
6266 6264 41
6266 6196 94
6266 6272 32
6267 6120 235
6267 6296 160
6267 6301 45
6268 6262 19
6268 6292 127
6268 6298 38
6269 6244 36
6269 6257 41
6269 6294 34
6270 6271 85
6271 6270 85
6271 6261 44
6271 6275 46
6272 6266 32
6272 6201 94
6272 6282 39
6273 6215 86
6273 6276 18
6273 6360 111
6274 6247 38
6274 6256 77
6274 6300 34
6275 6198 107
6275 6271 46
6275 6278 45
6276 6273 18
6276 6204 174
6276 6312 53
6277 6237 53
6277 6258 112
6277 6317 51
6278 6226 80
6278 6275 45
6278 6311 43
6279 6246 51
6279 6299 123
6279 6322 51
6280 6256 32
6280 6292 9
6280 6300 74
6281 6261 29
6281 6265 32
6281 6310 39
6282 6272 39
6282 6200 115
6282 6283 39
6282 6365 103
6283 6282 39
6283 6178 145
6283 6287 39
6283 6389 124
6284 6260 83
6284 6291 83
6284 6307 61
6285 6242 82
6285 6290 38
6285 6315 35
6286 6193 127
6286 6297 11
6287 6283 39
6287 6173 156
6287 6289 44
6287 6409 149
6288 6249 52
6288 6310 130
6288 6325 45
6289 6287 44
6289 6164 163
6289 6293 38
6289 6429 173
6290 6242 291
6290 6285 38
6290 6320 37
6291 6284 83
6291 6260 36
6291 6386 101
6292 6280 9
6292 6268 127
6292 6323 41
6293 6289 38
6293 6294 45
6293 6352 65
6294 6293 45
6294 6269 34
6294 6331 48
6295 6203 122
6295 6328 41
6295 6359 81
6296 6267 160
6296 6298 8
6296 6338 48
6297 6286 11
6297 6313 23
6297 6330 40
6298 6268 38
6298 6296 8
6298 6314 92
6299 6258 50
6299 6279 123
6299 6317 112
6299 6348 52
6300 6274 34
6300 6280 74
6300 6318 107
6300 6345 49
6301 6267 45
6301 6338 157
6301 6751 501
6302 6303 40
6303 6302 40
6303 6311 72
6303 6339 39
6304 6264 47
6304 6349 45
6304 6365 100
6305 6211 149
6305 6357 73
6305 6370 168
6306 6225 196
6306 6313 16
6307 6284 61
6307 6332 59
6307 6373 70
6308 6253 94
6308 6230 163
6308 6388 103
6309 6217 127
6309 6326 67
6309 6423 119
6310 6281 39
6310 6288 130
6310 6368 61
6311 6278 43
6311 6303 72
6311 6353 38
6312 6276 53
6312 6332 83
6312 6356 46
6313 6306 16
6313 6297 23
6313 6330 18
6313 6337 73
6314 6298 92
6314 6323 34
6314 6358 48
6315 6285 35
6315 6320 33
6315 6321 7
6316 6234 111
6316 6319 36
6316 6347 27
6317 6277 51
6317 6299 112
6317 6366 52
6318 6180 186
6318 6300 107
6318 6367 51
6319 6316 36
6319 6324 35
6319 6378 57
6320 6290 37
6320 6315 33
6320 6327 7
6321 6315 7
6321 6327 33
6321 6450 122
6322 6279 51
6322 6348 123
6322 6375 51
6323 6292 41
6323 6314 34
6323 6345 71
6324 6319 35
6324 6329 38
6324 6381 57
6325 6288 45
6325 6354 103
6325 6372 50
6326 6233 125
6326 6309 67
6326 6336 44
6326 6447 121
6327 6320 7
6327 6321 33
6327 6343 146
6327 6453 122
6328 6295 41
6328 6407 26
6329 6324 38
6329 6387 53
6330 6313 18
6330 6297 40
6330 6341 8
6331 6294 48
6331 6333 45
6331 6426 93
6332 6307 59
6332 6312 83
6332 6356 65
6333 6331 45
6333 6344 34
6333 6427 92
6334 6335 42
6335 6334 42
6335 6346 41
6335 6437 104
6336 6240 123
6336 6326 44
6336 6459 122
6337 6313 73
6337 6340 15
6337 6351 78
6338 6296 48
6338 6301 157
6338 6358 100
6338 6391 55
6339 6303 39
6339 6353 71
6339 6374 36
6340 6337 15
6340 6221 533
6340 6398 104
6341 6330 8
6341 6399 15
6342 6084 396
6342 6369 33
6342 6666 340
6343 6254 98
6343 6327 146
6343 6432 92
6344 6333 34
6344 6347 40
6344 6428 88
6345 6300 49
6345 6323 71
6345 6367 107
6345 6393 49
6346 6335 41
6346 6364 25
6346 6364 25
6347 6344 40
6347 6316 27
6347 6371 28
6348 6299 52
6348 6322 123
6348 6366 113
6348 6400 52
6349 6304 45
6349 6397 48
6349 6582 389
6350 6138 267
6350 6357 35
6350 6402 55
6351 6337 78
6351 6359 40
6352 6293 65
6352 6406 53
6352 6462 143
6353 6311 38
6353 6339 71
6353 6392 39
6354 6325 103
6354 6368 62
6354 6401 49
6355 6243 750
6356 6312 46
6356 6332 65
6356 6360 13
6356 6382 25
6357 6305 73
6357 6350 35
6357 6402 53
6358 6314 48
6358 6338 100
6358 6393 108
6358 6414 55
6359 6351 40
6359 6295 81
6359 6377 42
6360 6273 111
6360 6356 13
6360 6376 31
6360 6479 119
6361 6362 70
6362 6361 70
6362 6363 23
6362 6415 51
6363 6362 23
6364 6346 25
6364 6346 25
6364 6380 40
6364 6457 91
6365 6304 100
6365 6282 103
6365 6389 32
6366 6317 52
6366 6348 113
6366 6419 52
6367 6318 51
6367 6345 107
6367 6417 51
6368 6310 61
6368 6354 62
6368 6420 56
6369 6342 33
6369 6259 123
6369 6440 66
6370 6252 132
6370 6305 168
6370 6563 198
6371 6347 28
6371 6378 34
6371 6430 59
6372 6325 50
6372 6401 104
6372 6418 48
6373 6307 70
6373 6382 112
6373 6395 63
6373 6422 49
6374 6339 36
6374 6392 71
6375 6322 51
6375 6400 123
6375 6425 52
6376 6360 31
6376 6377 52
6376 6434 58
6377 6359 42
6377 6376 52
6377 6379 20
6378 6371 34
6378 6319 57
6378 6381 37
6379 6377 20
6379 6408 61
6379 6442 57
6380 6364 40
6380 6396 36
6380 6463 83
6381 6378 37
6381 6324 57
6381 6387 38
6382 6356 25
6382 6373 112
6382 6431 51
6383 6384 164
6384 6383 164
6384 6385 596
6384 6503 1353
6385 6384 596
6386 6291 101
6386 6390 14
6386 6443 56
6387 6381 38
6387 6329 53
6387 6438 124
6388 6308 103
6388 6469 200
6389 6365 32
6389 6283 124
6389 6409 36
6390 6386 14
6390 6394 48
6390 6441 49
6391 6338 55
6391 6414 108
6391 6439 50
6392 6353 39
6392 6374 71
6392 6523 141
6393 6345 49
6393 6358 108
6393 6417 112
6393 6448 55
6394 6390 48
6394 6395 37
6394 6444 49
6395 6373 63
6395 6394 37
6395 6416 24
6396 6380 36
6396 6397 36
6396 6470 77
6397 6396 36
6397 6349 48
6397 6472 77
6398 6340 104
6398 6399 40
6398 6573 180
6399 6398 40
6399 6341 15
6400 6348 52
6400 6375 123
6400 6419 113
6400 6452 52
6401 6354 49
6401 6372 104
6401 6420 90
6401 6449 47
6402 6357 53
6402 6350 55
6402 6458 49
6403 6404 83
6404 6403 83
6404 6405 170
6404 6500 107
6405 6404 170
6406 6352 53
6406 6424 22
6406 6496 118
6407 6408 49
6407 6328 26
6408 6407 49
6408 6379 61
6408 6490 86
6409 6389 36
6409 6287 149
6409 6429 33
6410 6411 154
6411 6410 154
6411 6433 41
6411 6500 1328
6412 6111 407
6412 6413 276
6412 6632 227
6413 6412 276
6414 6358 55
6414 6391 108
6414 6448 108
6414 6464 49
6415 6362 51
6416 6395 24
6416 6422 55
6416 6446 26
6417 6367 51
6417 6393 112
6417 6473 55
6417 6423 22
6418 6372 48
6418 6449 105
6418 6467 51
6419 6366 52
6419 6400 113
6419 6468 49
6420 6368 56
6420 6401 90
6420 6471 49
6421 6207 256
6421 6425 15
6421 6600 191
6422 6373 49
6422 6416 55
6422 6431 102
6423 6309 119
6423 6447 70
6423 6610 201
6423 6417 22
6424 6406 22
6424 6426 46
6424 6461 33
6425 6375 52
6425 6421 15
6425 6435 48
6425 6559 142
6426 6424 46
6426 6331 93
6426 6427 46
6426 6542 121
6427 6426 46
6427 6333 92
6427 6428 36
6427 6519 98
6428 6427 36
6428 6344 88
6428 6430 35
6428 6519 134
6429 6409 33
6429 6289 173
6429 6462 36
6430 6428 35
6430 6371 59
6430 6454 119
6430 6466 37
6431 6382 51
6431 6422 102
6431 6477 48
6432 6343 92
6432 6440 67
6432 6562 136
6433 6411 41
6433 6493 63
6434 6376 58
6434 6442 74
6434 6481 50
6435 6425 48
6435 6445 43
6435 6516 89
6436 6437 41
6437 6436 41
6437 6335 104
6437 6455 16
6438 6387 124
6438 6451 115
6438 6454 107
6438 6474 38
6439 6391 50
6439 6464 113
6439 6478 47
6440 6369 66
6440 6432 67
6440 6569 137
6441 6390 49
6441 6443 24
6441 6444 50
6442 6379 57
6442 6434 74
6442 6487 50
6443 6441 24
6443 6386 56
6443 6488 53
6444 6394 49
6444 6441 50
6444 6446 34
6445 6435 43
6445 6452 32
6445 6554 124
6446 6416 26
6446 6444 34
6446 6465 24
6447 6326 121
6447 6423 70
6447 6459 44
6448 6393 55
6448 6414 108
6448 6473 110
6448 6492 49
6449 6401 47
6449 6418 105
6449 6471 105
6449 6494 50
6450 6321 122
6450 6453 38
6450 6533 96
6451 6438 115
6451 6485 37
6452 6400 52
6452 6445 32
6452 6456 11
6453 6327 122
6453 6450 38
6453 6497 184
6454 6430 119
6454 6438 107
6454 6484 35
6455 6437 16
6455 6457 23
6455 6530 100
6456 6452 11
6456 6468 102
6456 6489 41
6457 6455 23
6457 6364 91
6457 6463 50
6458 6402 49
6458 6532 185
6458 6687 254
6459 6336 122
6459 6447 44
6459 6460 10
6460 6459 10
6460 6467 40
6460 6610 239
6461 6424 33
6461 6502 50
6461 6525 87
6462 6429 36
6462 6352 143
6462 6496 41
6463 6457 50
6463 6380 83
6463 6470 54
6463 6508 53
6464 6414 49
6464 6439 113
6464 6492 108
6464 6504 46
6465 6446 24
6465 6475 91
6465 6499 35
6466 6430 37
6466 6484 120
6466 6501 37
6467 6418 51
6467 6460 40
6467 6486 73
6467 6510 54
6467 6541 95
6468 6419 49
6468 6456 102
6468 6488 113
6468 6506 42
6469 6388 200
6469 6787 382
6470 6463 54
6470 6396 77
6470 6472 40
6470 6536 74
6471 6420 49
6471 6449 105
6471 6511 47
6472 6470 40
6472 6397 77
6473 6417 55
6473 6448 110
6473 6513 49
6474 6438 38
6474 6476 38
6474 6484 110
6474 6505 37
6475 6465 91
6475 6477 54
6475 6522 51
6476 6474 38
6476 6480 37
6476 6575 100
6477 6431 48
6477 6475 54
6477 6527 58
6478 6439 47
6478 6504 116
6478 6518 46
6479 6360 119
6479 6481 53
6479 6515 42
6480 6476 37
6480 6485 39
6480 6566 91
6481 6434 50
6481 6479 53
6481 6487 75
6482 6483 262
6483 6482 262
6484 6466 120
6484 6454 35
6484 6474 110
6484 6512 36
6485 6480 39
6485 6451 37
6485 6561 84
6486 6467 73
6486 6494 33
6486 6510 51
6487 6442 50
6487 6481 75
6487 6490 53
6488 6443 53
6488 6468 113
6488 6491 45
6488 6526 43
6489 6456 41
6489 6498 54
6489 6593 114
6490 6408 86
6490 6487 53
6490 6514 30
6491 6488 45
6491 6495 42
6491 6545 63
6492 6448 49
6492 6464 108
6492 6513 110
6492 6528 46
6493 6433 63
6493 6509 26
6494 6449 50
6494 6486 33
6494 6511 109
6494 6560 83
6495 6491 42
6495 6499 38
6495 6553 71
6496 6462 41
6496 6406 118
6496 6525 41
6497 6453 184
6498 6489 54
6498 6506 49
6498 6529 37
6499 6465 35
6499 6495 38
6499 6507 44
6499 6565 73
6500 6404 107
6500 6411 1328
6500 6503 148
6501 6466 37
6501 6512 122
6501 6531 35
6502 6461 50
6502 6540 53
6502 6544 40
6503 6500 148
6503 6384 1353
6503 6557 184
6504 6464 46
6504 6478 116
6504 6528 108
6504 6549 50
6505 6474 37
6505 6512 113
6505 6535 35
6506 6468 42
6506 6498 49
6506 6526 106
6507 6499 44
6507 6522 51
6507 6580 73
6508 6463 53
6509 6493 26
6509 6520 39
6510 6486 51
6510 6467 54
6510 6541 67
6510 6595 103
6511 6471 47
6511 6494 109
6511 6523 42
6511 6560 83
6512 6501 122
6512 6484 36
6512 6505 113
6512 6548 37
6513 6473 49
6513 6492 110
6513 6556 46
6514 6490 30
6514 6521 90
6514 6572 55
6515 6479 42
6515 6517 64
6515 6547 38
6516 6435 89
6516 6554 53
6516 6588 75
6517 6515 64
6517 6521 37
6517 6552 37
6518 6478 46
6518 6524 4
6519 6427 98
6519 6428 134
6520 6509 39
6520 6530 29
6521 6517 37
6521 6514 90
6521 6552 76
6522 6475 51
6522 6507 51
6522 6527 47
6522 6585 70
6523 6392 141
6523 6511 42
6523 6634 122
6524 6518 4
6524 6549 118
6524 6564 44
6525 6496 41
6525 6461 87
6525 6540 31
6526 6488 43
6526 6506 106
6526 6534 14
6527 6477 58
6527 6522 47
6527 6597 71
6528 6492 46
6528 6504 108
6528 6556 107
6528 6583 51
6529 6498 37
6529 6543 50
6529 6619 97
6530 6520 29
6530 6455 100
6530 6577 50
6531 6501 35
6531 6548 124
6531 6551 21
6532 6458 185
6532 6563 59
6532 6646 134
6533 6450 96
6534 6526 14
6534 6545 44
6534 6555 30
6535 6505 35
6535 6548 118
6535 6579 36
6536 6470 74
6537 6538 177
6538 6537 177
6538 6539 76
6538 6562 199
6538 6696 171
6539 6538 76
6540 6525 31
6540 6502 53
6540 6544 36
6541 6510 67
6541 6467 95
6541 6581 69
6541 6627 110
6542 6426 121
6542 6544 36
6542 6551 128
6542 6574 29
6543 6529 50
6543 6546 41
6543 6640 105
6544 6502 40
6544 6542 36
6544 6540 36
6545 6491 63
6545 6534 44
6545 6550 31
6546 6543 41
6546 6555 48
6546 6665 125
6547 6515 38
6547 6552 71
6547 6645 103
6548 6512 37
6548 6535 118
6548 6531 124
6548 6589 38
6549 6504 50
6549 6524 118
6549 6583 108
6549 6596 46
6550 6545 31
6550 6553 9
6550 6584 34
6551 6542 128
6551 6531 21
6551 6578 22
6552 6517 37
6552 6547 71
6552 6521 76
6553 6495 71
6553 6550 9
6553 6565 37
6554 6445 124
6554 6516 53
6554 6593 51
6554 6608 57
6555 6534 30
6555 6546 48
6555 6570 11
6556 6513 46
6556 6528 107
6556 6586 32
6557 6503 184
6557 6592 140
6557 6698 196
6558 6043 692
6558 6571 30
6558 6677 134
6559 6425 142
6559 6588 53
6559 6603 50
6560 6511 83
6560 6494 83
6560 6595 71
6560 6648 107
6561 6485 84
6561 6566 38
6561 6598 37
6562 6432 136
6562 6538 199
6562 6569 59
6562 6713 172
6563 6370 198
6563 6532 59
6563 6576 16
6564 6524 44
6564 6596 121
6564 6613 56
6565 6499 73
6565 6553 37
6565 6580 49
6565 6639 81
6566 6480 91
6566 6561 38
6566 6575 35
6567 6568 61
6567 6660 129
6568 6567 61
6568 6574 46
6568 6658 103
6569 6440 137
6569 6562 59
6569 6655 93
6570 6555 11
6570 6584 89
6570 6604 43
6571 6028 737
6571 6558 30
6571 6620 163
6571 6690 135
6572 6514 55
6572 6573 14
6572 6629 65
6573 6398 180
6573 6572 14
6573 6590 196
6573 6609 45
6574 6568 46
6574 6582 37
6574 6684 127
6574 6542 29
6575 6476 100
6575 6566 35
6575 6579 36
6576 6122 552
6576 6563 16
6576 6621 55
6577 6530 50
6577 6612 57
6577 6684 480
6578 6551 22
6578 6589 115
6578 6691 228
6579 6535 36
6579 6575 36
6579 6587 119
6579 6607 39
6580 6507 73
6580 6565 49
6580 6585 51
6580 6651 82
6581 6541 69
6581 6611 46
6581 6672 168
6582 6574 37
6582 6349 389
6583 6528 51
6583 6549 108
6583 6591 56
6584 6550 34
6584 6570 89
6584 6625 45
6585 6522 70
6585 6580 51
6585 6597 48
6585 6606 24
6586 6556 32
6586 6594 7
6586 6599 23
6587 6579 119
6587 6589 3
6587 6601 49
6588 6516 75
6588 6559 53
6588 6608 42
6589 6578 115
6589 6548 38
6589 6587 3
6590 6573 196
6590 6598 46
6590 6635 46
6591 6583 56
6591 6599 39
6592 6557 140
6593 6489 114
6593 6554 51
6593 6619 56
6594 6586 7
6594 6624 23
6595 6560 71
6595 6510 103
6595 6627 64
6595 6674 109
6596 6549 46
6596 6564 121
6596 6615 84
6597 6527 71
6597 6585 48
6597 6668 84
6598 6561 37
6598 6590 46
6598 6602 52
6599 6586 23
6599 6591 39
6599 6615 130
6600 6421 191
6600 6603 15
6600 6777 201
6601 6587 49
6601 6614 49
6601 6630 30
6602 6598 52
6602 6605 44
6602 6661 62
6603 6559 50
6603 6600 15
6603 6633 53
6603 6753 160
6604 6570 43
6604 6617 44
6604 6676 82
6605 6602 44
6605 6607 13
6605 6731 134
6606 6585 24
6607 6579 39
6607 6605 13
6607 6614 30
6608 6554 57
6608 6588 42
6608 6654 82
6608 6657 49
6609 6573 45
6609 6616 34
6609 6707 151
6610 6460 239
6610 6423 201
6610 6623 22
6610 6626 16
6611 6581 46
6611 6644 68
6611 6663 65
6612 6577 57
6613 6564 56
6613 6641 98
6613 6664 53
6614 6601 49
6614 6607 30
6614 6734 130
6615 6599 130
6615 6596 84
6615 6641 123
6616 6609 34
6616 6618 20
6617 6604 44
6617 6625 39
6617 6685 81
6618 6616 20
6618 6635 138
6618 6669 83
6619 6529 97
6619 6593 56
6619 6628 12
6620 6041 786
6620 6571 163
6620 6740 134
6621 6576 55
6621 6631 13
6621 6686 85
6622 6048 963
6622 6703 407
6622 6779 186
6623 6610 22
6623 6624 10
6623 6642 37
6623 6649 26
6624 6623 10
6624 6594 23
6625 6584 45
6625 6617 39
6625 6639 45
6625 6695 81
6626 6610 16
6626 6710 100
6627 6595 64
6627 6541 110
6627 6663 70
6627 6693 119
6628 6619 12
6628 6640 39
6628 6654 42
6629 6572 65
6629 6705 124
6630 6601 30
6630 6638 96
6630 6691 71
6631 6621 13
6631 6696 148
6632 6412 227
6632 6682 124
6632 6689 64
6633 6603 53
6633 6657 42
6633 6671 51
6634 6523 122
6634 6648 24
6634 6758 137
6635 6590 46
6635 6618 138
6635 6675 50
6636 6637 60
6637 6636 60
6638 6630 96
6639 6565 81
6639 6625 45
6639 6651 54
6640 6543 105
6640 6628 39
6640 6665 46
6641 6615 123
6641 6613 98
6641 6680 56
6642 6623 37
6642 6643 46
6642 6649 31
6643 6642 46
6643 6647 60
6643 6714 89
6644 6611 68
6644 6672 71
6644 6694 68
6645 6547 103
6645 6659 81
6645 6701 74
6646 6532 134
6646 6686 98
6647 6643 60
6647 6650 65
6647 6719 88
6648 6634 24
6648 6560 107
6648 6674 68
6649 6623 26
6649 6642 31
6649 6712 78
6650 6647 65
6650 6727 88
6650 6735 128
6651 6580 82
6651 6639 54
6651 6668 93
6651 6715 80
6652 6653 56
6653 6652 56
6654 6628 42
6654 6608 82
6654 6673 48
6654 6700 116
6655 6569 93
6655 6666 17
6655 6718 80
6656 6062 998
6656 6754 119
6656 6786 179
6657 6608 49
6657 6633 42
6657 6673 48
6658 6568 103
6658 6660 133
6658 6688 38
6659 6645 81
6659 6681 87
6659 6729 82
6660 6658 133
6660 6567 129
6660 6670 43
6661 6602 62
6661 6662 48
6661 6726 75
6662 6661 48
6662 6720 78
6663 6627 70
6663 6611 65
6663 6694 70
6663 6749 108
6664 6613 53
6664 6680 89
6664 6699 52
6665 6546 125
6665 6640 46
6665 6667 8
6666 6342 340
6666 6655 17
6666 6721 66
6667 6665 8
6667 6676 48
6667 6700 44
6668 6597 84
6668 6651 93
6668 6742 76
6669 6618 83
6669 6675 72
6669 6711 50
6670 6660 43
6670 6717 100
6670 6737 66
6671 6633 51
6671 6697 44
6671 6762 98
6672 6644 71
6672 6581 168
6672 6704 45
6673 6654 48
6673 6657 48
6673 6722 90
6674 6648 68
6674 6595 109
6674 6693 34
6674 6758 99
6675 6635 50
6675 6669 72
6675 6716 47
6676 6604 82
6676 6667 48
6676 6685 43
6676 6756 83
6677 6558 134
6677 6690 34
6677 6863 223
6678 6679 63
6679 6678 63
6680 6641 56
6680 6664 89
6680 6724 51
6681 6659 87
6681 6702 82
6681 6752 74
6682 6632 124
6682 6683 120
6682 6703 31
6683 6682 120
6684 6574 127
6684 6577 480
6684 6725 45
6685 6617 81
6685 6676 43
6685 6695 39
6686 6621 85
6686 6646 98
6686 6771 188
6687 6458 254
6687 6908 273
6687 23783 281
6688 6658 38
6688 6692 126
6688 6730 43
6689 6632 64
6689 6791 125
6689 6946 265
6690 6571 135
6690 6677 34
6690 6740 129
6690 7071 437
6691 6578 228
6691 6630 71
6691 6743 57
6692 6688 126
6692 6736 41
6693 6674 34
6693 6627 119
6693 6728 68
6694 6663 70
6694 6644 68
6694 6704 73
6694 6775 107
6695 6625 81
6695 6685 39
6695 6715 103
6695 6767 82
6696 6538 171
6696 6631 148
6696 6708 168
6696 6741 45
6697 6671 44
6697 6745 44
6697 6748 84
6698 6557 196
6699 6664 52
6699 6724 84
6699 6757 55
6700 6667 44
6700 6654 116
6700 6755 50
6701 6645 74
6701 6729 84
6701 6770 71
6702 6681 82
6702 6706 49
6702 6766 65
6703 6682 31
6703 6622 407
6703 6788 99
6704 6672 45
6704 6694 73
6704 6710 65
6704 6802 114
6705 6629 124
6705 6706 15
6705 6707 24
6705 6839 213
6706 6705 15
6706 6702 49
6706 6759 50
6707 6609 151
6707 6705 24
6707 6711 17
6707 6848 214
6708 6696 168
6708 6709 11
6708 6792 124
6709 6708 11
6709 6713 24
6709 6760 78
6710 6704 65
6710 6626 100
6710 6809 117
6711 6669 50
6711 6707 17
6711 6716 72
6712 6649 78
6712 6714 65
6712 6810 118
6713 6562 172
6713 6709 24
6713 6718 60
6714 6712 65
6714 6643 89
6714 6719 61
6714 6813 114
6715 6651 80
6715 6695 103
6715 6742 94
6715 6783 83
6716 6675 47
6716 6711 72
6716 6720 51
6716 6796 131
6717 6670 100
6717 6781 81
6718 6655 80
6718 6713 60
6718 6721 11
6719 6714 61
6719 6647 88
6719 6727 68
6719 6818 114
6720 6662 78
6720 6716 51
6720 6723 23
6721 6666 66
6721 6718 11
6721 6776 61
6722 6673 90
6722 6755 59
6722 6764 48
6723 6720 23
6723 6726 25
6723 6768 72
6724 6680 51
6724 6699 84
6724 6773 57
6725 6684 45
6725 6730 47
6725 6808 106
6726 6661 75
6726 6723 25
6726 6731 46
6727 6719 68
6727 6650 88
6727 6735 81
6727 6828 113
6728 6693 68
6728 6744 54
6728 6749 33
6729 6659 82
6729 6701 84
6729 6752 84
6730 6725 47
6730 6688 43
6730 6736 128
6730 6763 42
6731 6605 134
6731 6726 46
6731 6732 7
6732 6731 7
6732 6734 34
6732 6768 51
6733 6090 796
6733 6746 89
6733 7545 783
6733 23788 783
6734 6614 130
6734 6732 34
6734 6743 19
6735 6727 81
6735 6650 128
6735 6834 124
6736 6730 128
6736 6692 41
6736 6737 46
6736 6769 43
6737 6736 46
6737 6670 66
6737 6738 45
6737 6785 66
6738 6737 45
6738 6782 60
6739 5254 1880
6739 6797 80
6739 6941 266
6740 6620 134
6740 6690 129
6740 6747 9
6740 7079 416
6741 6696 45
6741 6771 42
6741 6792 119
6742 6668 76
6742 6715 94
6742 6799 84
6743 6691 57
6743 6734 19
6743 6832 137
6744 6728 54
6744 6784 71
6745 6697 44
6745 6761 78
6745 6774 40
6746 6095 792
6746 6733 89
6746 6797 74
6747 5988 1024
6747 6740 9
6747 6750 15
6747 7055 382
6748 6697 84
6748 6761 20
6748 6764 47
6749 6728 33
6749 6663 108
6749 6775 69
6749 6827 110
6750 6031 949
6750 6747 15
6750 6751 10
6750 7086 416
6751 6301 501
6751 6750 10
6751 6793 175
6751 6822 95
6752 6681 74
6752 6729 84
6752 6766 87
6752 6800 71
6753 6603 160
6753 6762 49
6753 6965 269
6754 6656 119
6754 7233 193
6755 6700 50
6755 6722 59
6755 6780 52
6756 6676 83
6756 6767 74
6756 6780 35
6757 6699 55
6757 6773 78
6757 6793 58
6758 6634 137
6758 6674 99
6758 6765 14
6759 6706 50
6759 6801 59
6759 6811 104
6760 6709 78
6760 6776 34
6760 6851 130
6761 6748 20
6761 6745 78
6761 6772 15
6762 6671 98
6762 6753 49
6762 6774 40
6762 6804 56
6763 6730 42
6763 6769 127
6763 6794 42
6764 6722 48
6764 6748 47
6764 6789 37
6765 6758 14
6765 6784 54
6765 6814 69
6766 6702 65
6766 6752 87
6766 6833 76
6767 6695 82
6767 6756 74
6767 6783 104
6767 6835 81
6768 6732 51
6768 6723 72
6768 6796 50
6769 6763 127
6769 6736 43
6770 6701 71
6770 6800 167
6770 6861 116
6771 6741 42
6771 6686 188
6771 6805 55
6772 6761 15
6773 6724 57
6773 6757 78
6773 6826 63
6774 6745 40
6774 6762 40
6774 6778 33
6775 6749 69
6775 6694 107
6775 6798 63
6775 6855 115
6776 6721 61
6776 6760 34
6776 6893 149
6777 6600 201
6777 6844 73
6777 7039 302
6778 6774 33
6778 6789 84
6778 6816 51
6779 6622 186
6779 6786 19
6779 6795 29
6780 6756 35
6780 6755 52
6780 6806 46
6781 6717 81
6781 6782 82
6781 6843 77
6782 6738 60
6782 6781 82
6782 6785 50
6783 6715 83
6783 6767 104
6783 6799 96
6783 6854 82
6784 6765 54
6784 6744 71
6784 6814 40
6784 6827 70
6785 6737 66
6785 6782 50
6785 6794 171
6785 6909 146
6786 6779 19
6786 6656 179
6786 6795 28
6786 6938 324
6787 6469 382
6787 6817 38
6788 6703 99
6788 6790 20
6788 6803 20
6789 6764 37
6789 6778 84
6789 6806 88
6789 6879 114
6790 6788 20
6790 6791 49
6790 6803 23
6791 6689 125
6791 6790 49
6791 6875 126
6792 6708 124
6792 6741 119
6792 6851 89
6792 6860 93
6793 6757 58
6793 6751 175
6793 6826 81
6793 6994 247
6794 6763 42
6794 6785 171
6795 6779 29
6795 6786 28
6795 7250 586
6796 6768 50
6796 6716 131
6796 6832 47
6797 6739 80
6797 6746 74
6797 6882 110
6798 6775 63
6798 6802 66
6798 6856 71
6799 6742 84
6799 6783 96
6799 6867 83
6800 6752 71
6800 6770 167
6800 6833 95
6800 6852 53
6801 6759 59
6801 6840 50
6801 6849 40
6802 6798 66
6802 6704 114
6802 6807 67
6802 6905 120
6803 6790 23
6803 6788 20
6803 6875 97
6804 6762 56
6804 6812 47
6804 6899 112
6805 6771 55
6805 6841 37
6805 6860 96
6806 6780 46
6806 6789 88
6806 6835 92
6806 6891 117
6807 6802 67
6807 6809 32
6807 6890 105
6808 6725 106
6808 6829 210
6808 6969 213
6809 6807 32
6809 6710 117
6809 6810 13
6809 6872 85
6810 6809 13
6810 6712 118
6810 6813 23
6810 6925 158
6811 6759 104
6811 6840 54
6811 6850 51
6812 6804 47
6812 6816 20
6812 6897 105
6813 6810 23
6813 6714 114
6813 6818 66
6814 6765 69
6814 6784 40
6814 6957 175
6815 6160 991
6816 6778 51
6816 6812 20
6816 6830 22
6817 6787 38
6817 6853 60
6817 6907 204
6818 6813 66
6818 6719 114
6818 6828 69
6818 6922 133
6819 6820 194
6819 6821 77
6819 6885 165
6820 6819 194
6821 6819 77
6822 6751 95
6822 6988 210
6823 6824 30
6823 6838 127
6823 6866 78
6824 6823 30
6824 6825 282
6824 6886 179
6825 6824 282
6826 6773 63
6826 6793 81
6826 6898 108
6826 6834 24
6827 6784 70
6827 6749 110
6827 6855 64
6827 6926 160
6828 6818 69
6828 6727 113
6828 6831 71
6828 6915 114
6829 6808 210
6830 6816 22
6830 6870 69
6831 6828 71
6831 6834 60
6831 6894 91
6832 6743 137
6832 6796 47
6832 6848 58
6833 6766 76
6833 6800 95
6833 6849 51
6833 6911 103
6834 6831 60
6834 6735 124
6834 6869 63
6834 6826 24
6835 6767 81
6835 6806 92
6835 6854 101
6835 6895 88
6836 6837 27
6837 6836 27
6837 6852 89
6837 6868 52
6838 6823 127
6839 6705 213
6839 6848 23
6839 6850 65
6839 23782 26
6840 6811 54
6840 6801 50
6840 6883 85
6841 6805 37
6841 6842 111
6841 6864 54
6842 6841 111
6843 6781 77
6843 6857 82
6844 6777 73
6844 6845 1264
6844 7072 272
6844 7329 556
6845 6844 1264
6846 6847 294
6846 7007 265
6846 7059 291
6847 6846 294
6847 6853 301
6848 6832 58
6848 6707 214
6848 6839 23
6848 23781 12
6849 6801 40
6849 6833 51
6849 6883 63
6850 6839 65
6850 6811 51
6850 6859 46
6851 6760 130
6851 6792 89
6851 6893 112
6851 6901 91
6852 6800 53
6852 6837 89
6853 6847 301
6853 6817 60
6853 6964 195
6854 6783 82
6854 6835 101
6854 6867 102
6854 6903 67
6855 6827 64
6855 6775 115
6855 6877 70
6855 6920 93
6856 6798 71
6856 6877 44
6856 6892 54
6857 6843 82
6857 6858 13
6857 6913 70
6857 23781 15
6858 6857 13
6858 6871 114
6858 6888 50
6858 23782 12
6859 6850 46
6859 6943 168
6859 6871 32
6860 6792 93
6860 6805 96
6860 6901 87
6860 6917 95
6861 6770 116
6861 6862 39
6861 6912 62
6862 6861 39
6862 6868 39
6862 6916 64
6863 6677 223
6863 6923 82
6863 7125 286
6864 6841 54
6864 6865 95
6864 6917 95
6864 6918 80
6865 6864 95
6866 6823 78
6866 6880 71
6866 7106 295
6867 6799 83
6867 6854 102
6867 6914 52
6868 6837 52
6868 6862 39
6868 7029 178
6869 6834 63
6869 6881 42
6869 6924 79
6870 6830 69
6870 6879 36
6870 6889 27
6871 6858 114
6871 6951 136
6871 6859 32
6872 6809 85
6872 6890 62
6872 6928 79
6873 6874 83
6874 6873 83
6875 6791 126
6875 6803 97
6875 6878 19
6876 6205 973
6877 6855 70
6877 6856 44
6877 6892 29
6878 6875 19
6878 6908 112
6878 6935 90
6879 6789 114
6879 6870 36
6879 6887 53
6879 6919 48
6880 6866 71
6881 6869 42
6881 6894 52
6881 6930 76
6882 6797 110
6882 6941 79
6882 7222 365
6883 6840 85
6883 6849 63
6883 6921 45
6884 6885 64
6885 6884 64
6885 6819 165
6885 7095 640
6885 7287 586
6886 6824 179
6886 6961 144
6886 6961 192
6887 6879 53
6887 6891 9
6887 6936 67
6888 6858 50
6888 6942 71
6888 6947 170
6889 6870 27
6889 6897 41
6890 6807 105
6890 6872 62
6890 6905 69
6890 6934 68
6891 6806 117
6891 6887 9
6891 6902 47
6892 6877 29
6892 6856 54
6892 6904 10
6893 6776 149
6893 6851 112
6893 6992 109
6894 6831 91
6894 6881 52
6894 6915 63
6894 6952 73
6895 6835 88
6895 6896 14
6895 6900 48
6896 6895 14
6896 6902 56
6896 6968 93
6897 6889 41
6897 6812 105
6897 6899 43
6897 6929 51
6898 6826 108
6898 7020 140
6899 6897 43
6899 6804 112
6899 6949 67
6900 6895 48
6900 6903 51
6900 6995 111
6901 6851 91
6901 6860 87
6901 6959 93
6902 6896 56
6902 6891 47
6902 6956 69
6903 6854 67
6903 6900 51
6903 6914 107
6903 7017 129
6904 6892 10
6904 6906 5
6904 6920 102
6905 6802 120
6905 6890 69
6905 6906 90
6905 6962 76
6906 6904 5
6906 6905 90
6906 6991 97
6907 6817 204
6908 6687 273
6908 6878 112
6908 6973 136
6909 6785 146
6909 6910 114
6909 6945 56
6910 6909 114
6910 6913 126
6910 6944 57
6911 6833 103
6911 6921 54
6912 6861 62
6912 6916 42
6912 6927 38
6913 6910 126
6913 6857 70
6913 7088 189
6914 6867 52
6914 6903 107
6914 7003 116
6915 6828 114
6915 6894 63
6915 6922 67
6915 6967 72
6916 6862 64
6916 6912 42
6916 6931 38
6917 6860 95
6917 6864 95
6917 6959 86
6917 6966 77
6918 6864 80
6918 6966 95
6918 6973 86
6919 6879 48
6919 6929 75
6919 6985 76
6920 6855 93
6920 6904 102
6920 6926 76
6921 6883 45
6921 6911 54
6922 6818 133
6922 6915 67
6922 6925 58
6922 6989 71
6923 6863 82
6923 5971 1253
6923 7595 579
6924 6869 79
6924 6930 48
6925 6810 158
6925 6922 58
6925 7100 174
6926 6827 160
6926 6920 76
6926 6957 37
6927 6912 38
6927 6931 44
6927 7001 76
6928 6872 79
6928 6934 56
6928 6999 67
6929 6919 75
6929 6897 51
6929 6949 46
6930 6881 76
6930 6924 48
6930 6952 56
6931 6916 38
6931 6927 44
6931 6937 12
6932 6933 121
6932 6946 210
6933 6932 121
6933 7042 159
6933 7126 215
6934 6890 68
6934 6928 56
6934 6962 78
6934 7016 73
6935 6878 90
6935 6950 11
6935 6990 42
6936 6887 67
6936 6956 51
6936 6985 102
6936 7021 72
6937 6931 12
6937 7023 77
6938 6786 324
6938 7065 167
6939 6940 66
6939 6963 57
6939 6970 47
6940 6939 66
6941 6739 266
6941 6882 79
6941 8305 1017
6942 6888 71
6942 6948 147
6942 7008 63
6943 6859 168
6943 7029 262
6944 6910 57
6944 6945 116
6944 6958 103
6944 7002 59
6945 6909 56
6945 6944 116
6945 7015 64
6946 6932 210
6946 6689 265
6946 7080 188
6947 6888 170
6947 6948 9
6947 6951 67
6948 6942 147
6948 6947 9
6948 7014 62
6949 6929 46
6949 6899 67
6949 6972 59
6950 6935 11
6950 6960 22
6950 7080 173
6951 6947 67
6951 6871 136
6951 6997 87
6952 6894 73
6952 6930 56
6952 6967 60
6952 7053 98
6953 6954 67
6954 6953 67
6954 6955 32
6954 6984 31
6955 6954 32
6956 6902 69
6956 6936 51
6956 6968 50
6957 6814 175
6957 6926 37
6957 7049 88
6958 6944 103
6959 6901 93
6959 6917 86
6959 7024 78
6959 7038 125
6960 6950 22
6960 6990 31
6960 7080 148
6961 6886 144
6961 6886 192
6961 7130 188
6962 6905 76
6962 6934 78
6962 6991 87
6962 7035 72
6963 6939 57
6964 6853 195
6964 7093 234
6965 6753 269
6965 6972 8
6966 6917 77
6966 6918 95
6966 7024 85
6966 7041 83
6967 6915 72
6967 6952 60
6967 6989 69
6967 7067 98
6968 6896 93
6968 6956 50
6968 6995 50
6969 6808 213
6969 7031 187
6969 7034 63
6970 6939 47
6970 6971 40
6970 6996 81
6970 6998 40
6971 6970 40
6972 6949 59
6972 6965 8
6972 7039 61
6973 6918 86
6973 6908 136
6973 7041 98
6974 6975 40
6975 6974 40
6975 6978 31
6975 7052 69
6976 6977 59
6977 6976 59
6977 6978 28
6977 6980 28
6978 6975 31
6978 6979 50
6978 6977 28
6979 6978 50
6980 6977 28
6980 6981 71
6980 6982 30
6981 6980 71
6982 6980 30
6982 6983 83
6982 6984 16
6983 6982 83
6984 6982 16
6984 6954 31
6984 7062 87
6985 6936 102
6985 6919 76
6985 7039 153
6985 7010 21
6986 6987 199
6986 7104 220
6987 6986 199
6987 7040 175
6988 6822 210
6988 7122 148
6989 6922 71
6989 6967 69
6989 7082 100
6990 6960 31
6990 6935 42
6990 7128 150
6991 6906 97
6991 6962 87
6991 7012 103
6991 7063 71
6992 6893 109
6992 6993 89
6992 7115 127
6993 6992 89
6994 6793 247
6995 6900 111
6995 6968 50
6995 7017 62
6996 6970 81
6997 6951 87
6997 7006 62
6997 7022 28
6998 6970 40
6998 7000 20
6998 7025 81
6999 6928 67
6999 7016 57
6999 7101 105
7000 6998 20
7000 7045 85
7001 6927 76
7001 7023 52
7001 7057 44
7002 6944 59
7002 7009 102
7002 7015 114
7002 7090 78
7003 6914 116
7003 7017 103
7003 7061 45
7004 7005 214
7005 7004 214
7005 7030 20
7005 7099 145
7006 6997 62
7006 7077 191
7007 6846 265
7007 7093 112
7007 7171 175
7008 6942 63
7008 7014 152
7008 7087 74
7009 7002 102
7010 7011 11
7010 6985 21
7011 7010 11
7011 7028 11
7011 7048 86
7012 7013 33
7012 6991 103
7012 7049 129
7012 7085 72
7013 7012 33
7014 7008 152
7014 6948 62
7014 7022 136
7014 7094 74
7015 6945 64
7015 7002 114
7015 7084 68
7016 6934 73
7016 6999 57
7016 7035 79
7016 7064 50
7017 7003 103
7017 6903 129
7017 6995 62
7017 7069 65
7018 7019 41
7018 7021 96
7018 7109 89
7019 7018 41
7019 7026 16
7020 6898 140
7020 7073 87
7021 7018 96
7021 6936 72
7021 7028 94
7021 7111 92
7022 7014 136
7022 6997 28
7022 7076 84
7023 6937 77
7023 7001 52
7024 6959 78
7024 6966 85
7024 7056 46
7024 7081 82
7025 6998 81
7026 7019 16
7026 7027 2
7026 7027 2
7026 7108 83
7027 7026 2
7027 7026 2
7027 7075 64
7028 7021 94
7028 7011 11
7028 7113 90
7029 6943 262
7029 6868 178
7029 7057 105
7030 7005 20
7030 7031 15
7030 7097 62
7031 7030 15
7031 6969 187
7031 7032 45
7032 7031 45
7032 7033 59
7032 7153 130
7033 7032 59
7033 7034 63
7033 7155 131
7034 7033 63
7034 6969 63
7034 7156 133
7035 6962 72
7035 7016 79
7035 7063 84
7035 7083 50
7036 7037 93
7037 7036 93
7038 6959 125
7038 7115 118
7038 7160 175
7039 6985 153
7039 6972 61
7039 6777 302
7039 7070 32
7040 6987 175
7040 7104 89
7041 6966 83
7041 6973 98
7041 7060 16
7041 7081 77
7042 6933 159
7042 7060 20
7043 7044 75
7044 7043 75
7044 7046 31
7044 7159 123
7045 7000 85
7046 7044 31
7046 7047 90
7046 7052 62
7046 7151 116
7047 7046 90
7048 7011 86
7048 7070 64
7048 7112 69
7049 6957 88
7049 7012 129
7049 7068 21
7050 7051 475
7051 7050 475
7052 7046 62
7052 6975 69
7052 7058 32
7053 6952 98
7053 7054 58
7053 7067 63
7054 7053 58
7055 6747 382
7055 7079 33
7055 7170 134
7056 7024 46
7057 7029 105
7057 7001 44
7057 7061 12
7058 7052 32
7058 7062 62
7058 7110 72
7059 6846 291
7059 7065 115
7060 7041 16
7060 7042 20
7060 7136 113
7060 7173 230
7061 7057 12
7061 7003 45
7061 7069 63
7061 7103 39
7062 7058 62
7062 6984 87
7062 7220 362
7063 6991 71
7063 7035 84
7063 7085 104
7064 7016 50
7064 7083 74
7064 7114 52
7065 6938 167
7065 7066 456
7065 7059 115
7065 23786 131
7066 7065 456
7067 6967 98
7067 7053 63
7067 7078 42
7068 7049 21
7068 7085 146
7068 7337 251
7069 7061 63
7069 7017 65
7070 7048 64
7070 7072 6
7070 7143 87
7070 7039 32
7071 6690 437
7071 7116 48
7072 7070 6
7072 6844 272
7072 7139 120
7072 7142 84
7073 7020 87
7073 7074 36
7073 7176 195
7074 7073 36
7075 7027 64
7075 7107 34
7076 7022 84
7076 7094 74
7077 7006 191
7077 7102 100
7077 7225 161
7078 7067 42
7078 7082 25
7078 7188 133
7079 7055 33
7079 6740 416
7079 7138 72
7080 6950 173
7080 6960 148
7080 7123 46
7080 6946 188
7081 7024 82
7081 7041 77
7081 7160 145
7082 6989 100
7082 7078 25
7082 7100 57
7083 7035 50
7083 7064 74
7083 7121 60
7084 7015 68
7084 7090 113
7084 7133 118
7084 7163 91
7085 7068 146
7085 7012 72
7085 7063 104
7086 6750 416
7086 7122 46
7086 7145 71
7087 7008 74
7087 7088 14
7087 7089 70
7087 7245 168
7088 6913 189
7088 7087 14
7088 7090 112
7088 7235 163
7089 7087 70
7089 7094 85
7089 7146 69
7090 7084 113
7090 7002 78
7090 7088 112
7090 7135 55
7091 7092 7
7091 7120 70
7091 7198 118
7092 7091 7
7093 7007 112
7093 6964 234
7093 7149 82
7094 7089 85
7094 7014 74
7094 7076 74
7094 7147 68
7095 7096 179
7095 6885 640
7095 7243 211
7096 7095 179
7097 7030 62
7097 7098 55
7097 7152 68
7098 7097 55
7098 7099 52
7098 7179 99
7099 7005 145
7099 7098 52
7099 7105 49
7099 7165 79
7100 6925 174
7100 7082 57
7100 7101 10
7100 7119 26
7101 6999 105
7101 7100 10
7101 7114 60
7101 7259 165
7102 7077 100
7102 7103 8
7102 7107 83
7102 7187 99
7103 7102 8
7103 7061 39
7104 6986 220
7104 7040 89
7104 7129 298
7105 7099 49
7105 7124 137
7105 7154 59
7106 6866 295
7106 7148 118
7106 7232 234
7107 7102 83
7107 7075 34
7107 7108 45
7107 7190 99
7108 7107 45
7108 7026 83
7108 7109 58
7109 7108 58
7109 7018 89
7109 7111 96
7109 7196 101
7110 7058 72
7110 7132 40
7110 7312 363
7111 7109 96
7111 7021 92
7111 7113 97
7111 7199 100
7112 7048 69
7112 7113 80
7112 7209 101
7113 7111 97
7113 7028 90
7113 7112 80
7113 7206 98
7114 7064 52
7114 7101 60
7114 7121 44
7115 6992 127
7115 7038 118
7115 7180 81
7116 7071 48
7116 7125 44
7116 7138 63
7117 7118 63
7118 7117 63
7119 7100 26
7119 7254 136
7120 7091 70
7120 7197 83
7120 7201 158
7121 7083 60
7121 7114 44
7122 6988 148
7122 7086 46
7122 7182 74
7123 7080 46
7123 7128 114
7123 7290 159
7124 7105 137
7124 7129 35
7124 7144 35
7125 7116 44
7125 6863 286
7125 7189 74
7126 6933 215
7126 7127 56
7126 7294 158
7127 7126 56
7127 23783 169
7128 7123 114
7128 6990 150
7128 7186 65
7129 7124 35
7129 7104 298
7129 7144 24
7130 6961 188
7130 7148 46
7130 7162 35
7131 7132 73
7132 7131 73
7132 7110 40
7132 7151 34
7133 7084 118
7133 7177 76
7133 7261 125
7134 7135 57
7134 7166 36
7135 7134 57
7135 7090 55
7135 7137 92
7135 7184 55
7136 7060 113
7136 7167 33
7136 7282 258
7137 7135 92
7138 7079 72
7138 7116 63
7138 7256 117
7139 7072 120
7139 7142 81
7139 7192 53
7140 7141 2424
7140 7161 73
7140 8881 1766
7141 7140 2424
7142 7072 84
7142 7139 81
7142 7143 5
7142 7194 52
7143 7070 87
7143 7142 5
7143 7195 51
7144 7129 24
7144 7124 35
7144 7178 36
7145 7086 71
7145 7164 21
7145 7248 108
7145 7253 112
7146 7089 69
7146 7147 84
7146 7268 115
7147 7146 84
7147 7094 68
7147 7157 83
7147 7205 55
7148 7106 118
7148 7130 46
7148 7174 32
7148 7175 75
7149 7093 82
7149 7150 316
7149 7171 32
7149 7304 198
7150 7149 316
7151 7046 116
7151 7132 34
7151 7172 65
7152 7097 68
7152 7153 56
7152 7193 44
7153 7152 56
7153 7032 130
7153 7155 58
7154 7105 59
7154 7165 54
7154 7178 163
7154 7215 59
7155 7153 58
7155 7033 131
7155 7156 51
7156 7155 51
7156 7034 133
7156 7177 28
7157 7147 83
7157 7158 120
7157 7211 54
7158 7157 120
7158 7214 67
7159 7044 123
7160 7038 175
7160 7081 145
7160 7169 18
7161 7140 73
7162 7130 35
7162 7174 44
7162 7204 43
7163 7084 91
7163 7166 47
7163 7168 46
7163 7265 95
7164 7145 21
7164 23798 179
7165 7154 54
7165 7099 79
7165 7179 54
7166 7163 47
7166 7134 36
7166 7181 21
7167 7136 33
7167 7328 136
7168 7163 46
7168 7262 91
7169 7160 18
7169 7216 69
7169 7180 166
7170 7055 134
7170 23797 172
7171 7007 175
7171 7149 32
7172 7151 65
7172 7338 400
7173 7060 230
7173 7183 19
7173 7282 100
7174 7148 32
7174 7162 44
7174 7207 68
7174 7219 42
7175 7148 75
7175 7207 30
7175 7232 214
7176 7073 195
7176 7182 55
7176 7246 76
7177 7156 28
7177 7133 76
7177 7193 160
7177 7260 79
7178 7144 36
7178 7154 163
7178 7210 23
7179 7165 54
7179 7098 99
7179 7191 27
7180 7115 81
7180 7169 166
7180 7408 159
7181 7166 21
7181 7184 57
7182 7122 74
7182 7176 55
7182 7246 56
7183 7173 19
7183 7221 54
7183 7231 73
7184 7181 57
7184 7135 55
7184 7185 90
7185 7184 90
7186 7128 65
7186 7295 90
7186 7302 122
7187 7102 99
7187 7190 82
7187 7229 40
7188 7078 133
7188 7198 204
7189 7125 74
7189 7350 141
7189 7523 238
7190 7187 82
7190 7107 99
7190 7196 104
7190 7315 99
7191 7179 27
7191 7193 29
7191 7217 23
7192 7139 53
7192 7194 93
7192 7255 56
7193 7191 29
7193 7152 44
7193 7177 160
7194 7142 52
7194 7192 93
7194 7195 5
7194 7252 52
7195 7143 51
7195 7194 5
7195 7212 11
7196 7190 104
7196 7109 101
7196 7199 95
7196 7319 99
7197 7120 83
7197 7198 59
7197 7200 52
7197 7358 126
7198 7188 204
7198 7091 118
7198 7197 59
7198 7348 117
7199 7196 95
7199 7111 100
7199 7206 98
7199 7324 99
7200 7197 52
7200 7201 79
7200 7368 126
7201 7120 158
7201 7200 79
7201 7359 122
7202 7203 360
7202 7230 55
7202 7263 204
7203 7202 360
7204 7162 43
7204 7219 42
7204 7393 152
7205 7147 55
7205 7208 76
7205 7211 98
7205 7274 64
7206 7199 98
7206 7113 98
7206 7209 78
7206 7327 99
7207 7175 30
7207 7174 68
7207 7487 228
7208 7205 76
7209 7206 78
7209 7112 101
7209 7212 59
7210 7178 23
7210 7213 105
7210 7257 50
7211 7205 98
7211 7157 54
7211 7283 65
7212 7209 59
7212 7195 11
7212 7251 41
7213 7210 105
7213 7215 45
7213 7270 56
7214 7158 67
7214 7218 73
7214 7293 69
7215 7213 45
7215 7154 59
7215 7217 128
7215 7280 61
7216 7169 69
7216 23795 156
7217 7215 128
7217 7191 23
7217 7292 62
7218 7214 73
7218 7225 117
7218 7296 66
7219 7174 42
7219 7204 42
7219 7224 20
7219 7393 196
7220 7062 362
7221 7183 54
7221 23796 165
7222 6882 365
7222 7223 87
7222 7386 116
7223 7222 87
7223 23787 122
7223 23788 122
7224 7219 20
7225 7218 117
7225 7077 161
7225 7226 44
7225 7299 60
7226 7225 44
7226 7229 52
7226 7305 61
7227 7228 79
7227 7247 144
7227 7277 73
7228 7227 79
7228 7230 34
7228 7316 89
7229 7226 52
7229 7187 40
7229 7307 58
7230 7228 34
7230 7202 55
7230 7354 106
7231 7183 73
7231 7334 77
7231 7379 119
7232 7106 234
7232 7175 214
7232 7276 66
7233 7234 457
7233 6754 193
7234 7233 457
7234 7250 40
7234 7267 27
7235 7088 163
7235 7245 36
7235 7249 14
7236 7237 65
7236 7317 257
7236 7400 105
7237 7236 65
7237 7247 61
7237 9600 9004
7238 7239 23
7239 7238 23
7239 7240 117
7239 7241 40
7239 7401 102
7240 7239 117
7241 7239 40
7241 7242 103
7241 7243 20
7242 7241 103
7243 7241 20
7243 7095 211
7243 7244 91
7243 7444 139
7244 7243 91
7245 7235 36
7245 7087 168
7245 7258 15
7246 7176 76
7246 7182 56
7246 7248 6
7246 7321 55
7247 7227 144
7247 7237 61
7247 7298 40
7248 7246 6
7248 7145 108
7248 7253 14
7248 7321 55
7249 7235 14
7249 7265 204
7249 7272 20
7250 6795 586
7250 7234 40
7250 7289 29
7251 7212 41
7251 7252 5
7251 7331 57
7252 7251 5
7252 7194 52
7252 7255 102
7252 7333 57
7253 7248 14
7253 7145 112
7253 7256 12
7253 7332 57
7254 7119 136
7254 7362 72
7255 7252 102
7255 7192 56
7255 7339 76
7256 7253 12
7256 7138 117
7256 7309 37
7257 7210 50
7257 7270 108
7257 7271 9
7258 7245 15
7258 7268 60
7258 7278 13
7259 7101 165
7259 7364 67
7260 7177 79
7260 7261 70
7260 7266 6
7260 7292 180
7261 7260 70
7261 7133 125
7261 7262 49
7261 7269 7
7262 7261 49
7262 7168 91
7262 7265 56
7263 7202 204
7263 7264 415
7263 7411 488
7264 7263 415
7265 7262 56
7265 7163 95
7265 7249 204
7265 7273 7
7266 7260 6
7266 7269 72
7266 7275 7
7266 7284 294
7267 7234 27
7267 7289 48
7267 8267 805
7268 7258 60
7268 7146 115
7268 7274 78
7269 7266 72
7269 7261 7
7269 7273 105
7269 7281 6
7270 7257 108
7270 7213 56
7270 7280 58
7271 7257 9
7271 7291 167
7271 7367 63
7272 7249 20
7272 7279 4
7273 7269 105
7273 7265 7
7273 7279 192
7273 7288 7
7274 7268 78
7274 7205 64
7274 7283 105
7275 7266 7
7275 7281 73
7275 7313 110
7275 7412 85
7276 7232 66
7276 7444 142
7276 7502 163
7277 7227 73
7277 7286 9
7277 7316 34
7278 7258 13
7278 7279 59
7278 7300 18
7278 7306 406
7279 7273 192
7279 7272 4
7279 7278 59
7279 7297 16
7280 7270 58
7280 7215 61
7280 7284 4
7280 7292 116
7281 7275 73
7281 7269 6
7281 7288 106
7281 7418 83
7282 7173 100
7282 7136 258
7282 7334 85
7282 7457 115
7283 7274 105
7283 7211 65
7283 7293 102
7284 7285 165
7284 7280 4
7284 7291 5
7284 7266 294
7285 7284 165
7286 7277 9
7286 7298 131
7286 7342 56
7287 6885 586
7287 7312 242
7287 7854 397
7288 7281 106
7288 7273 7
7288 7297 200
7288 7423 82
7289 7250 29
7289 7267 48
7289 7612 279
7290 7123 159
7290 7294 16
7290 7295 115
7290 7602 225
7291 7271 167
7291 7284 5
7291 7303 92
7291 7385 57
7292 7280 116
7292 7217 62
7292 7260 180
7293 7283 102
7293 7214 69
7293 7296 63
7294 7126 158
7294 7290 16
7294 7328 71
7294 7710 305
7295 7290 115
7295 7186 90
7295 7302 33
7295 7638 254
7296 7293 63
7296 7218 66
7296 7299 125
7296 7306 7
7297 7288 200
7297 7279 16
7297 7308 10
7298 7247 40
7298 7286 131
7298 7310 48
7299 7296 125
7299 7225 60
7299 7305 46
7300 7278 18
7300 7301 142
7300 7311 10
7301 7300 142
7301 7314 207
7301 7441 82
7302 7295 33
7302 7186 122
7302 7318 12
7302 7323 13
7303 7291 92
7303 7313 89
7303 7394 57
7304 7149 198
7304 7353 69
7304 7449 121
7305 7299 46
7305 7226 61
7305 7307 51
7306 7278 406
7306 7296 7
7306 7320 8
7306 7322 221
7307 7305 51
7307 7229 58
7307 7315 87
7307 7322 8
7308 7297 10
7308 7311 31
7308 7437 73
7309 7256 37
7309 7332 23
7309 7373 75
7310 7298 48
7311 7300 10
7311 7308 31
7311 7436 71
7312 7110 363
7312 7287 242
7312 7480 233
7313 7303 89
7313 7275 110
7313 7409 54
7314 7301 207
7314 7320 66
7314 7448 76
7315 7307 87
7315 7190 99
7315 7319 105
7316 7277 34
7316 7228 89
7316 7354 40
7316 7420 62
7317 7236 257
7317 7393 98
7317 7426 225
7318 7302 12
7318 7323 7
7318 7335 19
7319 7315 105
7319 7196 99
7319 7324 94
7320 7314 66
7320 7306 8
7320 7330 220
7320 7451 76
7321 7246 55
7321 7248 55
7321 7341 16
7321 7366 29
7321 7366 29
7322 7306 221
7322 7307 8
7322 7330 8
7322 7344 524
7323 7302 13
7323 7318 7
7323 7340 13
7324 7319 94
7324 7199 99
7324 7327 95
7325 7326 61
7325 7383 174
7326 7325 61
7326 7374 58
7327 7324 95
7327 7206 99
7327 7331 142
7328 7167 136
7328 7294 71
7328 7410 124
7329 6844 556
7329 7337 250
7329 7339 62
7330 7320 220
7330 7322 8
7330 7336 91
7330 7461 74
7331 7327 142
7331 7251 57
7331 7333 4
7331 7344 9
7332 7253 57
7332 7309 23
7332 7341 11
7332 7404 40
7333 7331 4
7333 7252 57
7333 7339 150
7333 7345 9
7334 7231 77
7334 7282 85
7334 7387 89
7334 7490 114
7335 7318 19
7335 7343 7
7335 7340 27
7336 7330 91
7336 7349 191
7336 7466 76
7337 7329 250
7337 7068 251
7337 7364 490
7337 7399 34
7338 7172 400
7338 7442 355
7339 7255 76
7339 7329 62
7339 7333 150
7339 7360 15
7340 7323 13
7340 7335 27
7340 7650 241
7341 7321 16
7341 7332 11
7341 7405 40
7342 7286 56
7342 7411 51
7342 7420 70
7343 7335 7
7343 7452 83
7344 7322 524
7344 7331 9
7344 7345 4
7344 7363 7
7345 7344 4
7345 7333 9
7345 7360 161
7345 7365 7
7346 7347 51
7346 7372 10
7346 7475 112
7347 7346 51
7347 7402 52
7348 7198 117
7348 7358 90
7348 7369 179
7348 7382 17
7349 7336 191
7349 7357 95
7349 7471 75
7350 7189 141
7350 7351 60
7350 7373 29
7351 7350 60
7351 23795 126
7352 7353 27
7353 7352 27
7353 7304 69
7353 7431 86
7353 7496 111
7354 7316 40
7354 7230 106
7354 7406 34
7355 7356 35
7355 23796 117
7356 7355 35
7356 7407 95
7356 7523 241
7357 7349 95
7357 7361 79
7357 7473 74
7358 7348 90
7358 7197 126
7358 7368 53
7359 7201 122
7359 7371 63
7360 7345 161
7360 7339 15
7360 7370 5
7360 7398 873
7361 7357 79
7361 7363 68
7361 7478 74
7362 7254 72
7362 7364 15
7362 7369 148
7362 7428 36
7363 7361 68
7363 7344 7
7363 7365 4
7363 7450 51
7364 7337 490
7364 7259 67
7364 7362 15
7364 7427 36
7365 7363 4
7365 7345 7
7365 7376 140
7365 7472 97
7366 7321 29
7366 7321 29
7366 7391 81
7366 7403 32
7367 7271 63
7367 7375 14
7367 7515 103
7368 7358 53
7368 7200 126
7368 7371 11
7369 7362 148
7369 7348 179
7369 7382 171
7369 23799 171
7370 7360 5
7370 7384 67
7371 7368 11
7371 7359 63
7372 7346 10
7372 7413 45
7372 7489 112
7373 7309 75
7373 7350 29
7373 7404 82
7374 7326 58
7374 7416 43
7374 7424 76
7375 7367 14
7375 7377 48
7375 7454 49
7376 7365 140
7376 7380 16
7377 7375 48
7377 7378 53
7377 7381 48
7378 7377 53
7379 7231 119
7379 7387 13
7379 7408 19
7380 7376 16
7380 7384 75
7381 7377 48
7381 7385 53
7381 7459 47
7382 7369 171
7382 23799 171
7382 7348 17
7382 7391 147
7382 7392 18
7383 7325 174
7383 7424 59
7384 7370 67
7384 7380 75
7384 7399 231
7385 7381 53
7385 7291 57
7385 7388 45
7385 7510 87
7386 7222 116
7386 7389 60
7386 7488 68
7387 7379 13
7387 7334 89
7387 7408 21
7388 7385 45
7388 7394 42
7388 7508 82
7389 7390 15
7389 7386 60
7389 7545 112
7390 7389 15
7390 23796 78
7391 7382 147
7391 7366 81
7391 7392 130
7391 7403 54
7392 7382 18
7392 7391 130
7392 7398 269
7392 7414 66
7392 7398 269
7392 7434 205
7393 7204 152
7393 7317 98
7393 7219 196
7393 7465 48
7394 7388 42
7394 7303 57
7394 7409 91
7394 7504 78
7395 7396 58
7395 7397 106
7395 7431 23
7396 7395 58
7397 7395 106
7398 7360 873
7398 7392 269
7398 7392 269
7399 7384 231
7399 7419 373
7399 7497 72
7399 7337 34
7400 7236 105
7400 7426 20
7401 7239 102
7402 7347 52
7402 7413 7
7402 7425 23
7403 7391 54
7403 7366 32
7403 7405 43
7404 7332 40
7404 7373 82
7404 7405 4
7404 7432 16
7405 7341 40
7405 7404 4
7405 7403 43
7406 7354 34
7406 7420 29
7407 7356 95
7407 7430 33
7408 7180 159
7408 7379 19
7408 7387 21
7408 7549 115
7408 7558 113
7408 7562 118
7409 7394 91
7409 7313 54
7409 7412 92
7410 7328 124
7410 7457 86
7410 7722 272
7411 7342 51
7411 7495 135
7411 7263 488
7412 7409 92
7412 7275 85
7412 7417 77
7412 7524 87
7413 7372 45
7413 7402 7
7413 7511 93
7414 7415 75
7414 7392 66
7414 7435 133
7415 7414 75
7415 7428 328
7415 7571 128
7416 7374 43
7416 7458 68
7416 7479 51
7417 7412 77
7417 7418 12
7417 7765 255
7418 7417 12
7418 7281 83
7418 7423 107
7419 7399 373
7419 7427 118
7419 7616 157
7420 7342 70
7420 7316 62
7420 7406 29
7421 7422 282
7421 7581 1586
7422 7421 282
7423 7418 107
7423 7288 82
7423 7429 77
7424 7383 59
7424 7374 76
7424 7458 46
7425 7402 23
7425 7470 65
7425 7517 86
7426 7317 225
7426 7400 20
7426 7494 70
7427 7419 118
7427 7428 13
7427 7608 148
7427 7364 36
7428 7427 13
7428 7415 328
7428 7607 147
7428 7362 36
7429 7423 77
7429 7440 119
7429 7503 60
7430 7407 33
7430 7432 15
7430 7439 31
7431 7395 23
7431 7353 86
7431 7468 52
7431 7518 79
7432 7433 12
7432 7404 16
7432 7430 15
7432 7512 63
7433 7432 12
7433 7434 17
7434 7392 205
7434 7433 17
7434 7435 4
7434 7519 68
7435 7414 133
7435 7434 4
7435 7445 6
7436 7311 71
7436 7437 15
7436 7438 39
7436 7686 208
7437 7308 73
7437 7436 15
7437 7440 18
7437 7469 26
7438 7436 39
7438 7441 115
7438 7687 208
7439 7430 31
7439 7506 74
7439 7839 324
7440 7429 119
7440 7437 18
7440 7469 32
7441 7438 115
7441 7301 82
7441 7448 211
7442 7338 355
7442 7443 54
7442 7513 66
7442 7541 182
7443 7442 54
7444 7243 139
7444 7276 142
7444 7509 66
7445 7435 6
7445 7521 63
7445 23798 308
7445 23799 308
7446 7447 22
7446 7467 146
7446 7481 36
7447 7446 22
7448 7441 211
7448 7314 76
7448 7451 63
7449 7304 121
7449 7464 108
7449 7496 79
7450 7363 51
7450 7476 36
7450 7482 25
7451 7448 63
7451 7320 76
7451 7460 122
7451 7547 78
7452 7343 83
7452 7453 149
7452 7612 177
7453 7452 149
7454 7375 49
7454 7459 87
7455 7456 128
7456 7455 128
7457 7282 115
7457 7410 86
7457 7490 85
7457 7799 275
7458 7424 46
7458 7416 68
7458 7569 127
7459 7454 87
7459 7381 47
7459 7505 42
7460 7451 122
7460 7461 93
7460 7553 76
7461 7460 93
7461 7330 74
7461 7466 97
7461 7554 76
7462 7463 61
7462 7479 36
7462 7520 48
7463 7462 61
7464 7449 108
7464 7539 66
7464 7572 134
7465 7393 48
7465 7474 41
7465 7516 58
7466 7461 97
7466 7336 76
7466 7471 190
7466 7559 75
7467 7446 146
7468 7431 52
7468 7566 91
7469 7440 32
7469 7437 26
7469 7630 133
7470 7425 65
7470 7546 85
7471 7466 190
7471 7349 75
7471 7473 95
7471 7534 52
7472 7365 97
7473 7471 95
7473 7357 74
7473 7478 80
7474 7465 41
7474 7485 39
7474 7542 72
7475 7346 112
7475 7489 21
7475 7522 38
7476 7450 36
7476 7477 38
7476 7482 30
7477 7476 38
7477 7486 187
7477 7555 62
7478 7473 80
7478 7361 74
7478 7482 67
7478 7544 55
7479 7416 51
7479 7462 36
7479 7500 50
7479 7535 47
7480 7312 233
7480 7513 62
7480 7530 74
7481 7446 36
7481 7501 55
7482 7478 67
7482 7450 25
7482 7476 30
7482 7606 107
7483 7484 135
7484 7483 135
7485 7474 39
7485 7493 40
7485 7574 87
7486 7477 187
7486 7497 208
7486 7721 190
7487 7207 228
7487 7502 122
7487 7493 210
7488 7386 68
7488 8071 398
7489 7475 21
7489 7372 112
7489 7511 21
7489 7548 46
7490 7334 114
7490 7457 85
7490 7549 110
7490 7589 81
7491 7492 8
7491 7570 151
7491 7730 262
7492 7491 8
7493 7485 40
7493 7487 210
7493 7597 105
7493 7698 225
7494 7426 70
7494 7540 45
7495 7411 135
7495 7540 55
7495 7584 95
7496 7353 111
7496 7449 79
7496 7526 46
7496 7586 87
7497 7486 208
7497 7399 72
7497 7561 155
7497 7573 57
7498 7499 194
7498 7860 570
7499 7498 194
7500 7479 50
7500 7527 56
7500 7725 178
7501 7481 55
7501 7541 96
7501 7556 84
7502 7276 163
7502 7487 122
7502 7575 79
7502 7698 210
7503 7429 60
7503 7507 50
7503 7619 94
7504 7394 78
7504 7508 45
7504 7514 61
7504 7576 53
7505 7459 42
7505 7510 52
7505 7515 90
7506 7439 74
7506 7512 21
7506 7847 325
7507 7503 50
7508 7388 82
7508 7504 45
7508 7510 44
7509 7444 66
7509 7614 136
7509 7854 449
7510 7505 52
7510 7385 87
7510 7508 44
7511 7489 21
7511 7413 93
7511 7533 30
7511 7654 127
7512 7432 63
7512 7506 21
7512 7519 26
7512 7769 187
7513 7442 66
7513 7480 62
7513 7629 195
7514 7504 61
7514 7524 109
7514 7640 113
7515 7367 103
7515 7505 90
7515 7601 76
7516 7465 58
7516 7542 40
7516 7568 48
7517 7425 86
7517 7533 20
7517 7546 30
7518 7431 79
7518 7543 25
7518 7566 70
7519 7434 68
7519 7512 26
7519 7521 6
7519 7711 160
7520 7462 48
7520 7535 41
7520 7567 39
7521 7445 63
7521 7519 6
7521 7525 37
7521 7563 34
7522 7475 38
7523 7189 238
7523 7356 241
7523 7689 141
7524 7514 109
7524 7412 87
7524 7590 53
7525 7521 37
7525 7538 33
7525 7571 141
7526 7496 46
7526 7543 41
7527 7500 56
7527 7550 44
7527 7632 87
7528 7529 54
7529 7528 54
7529 7539 33
7529 7586 90
7530 7480 74
7530 7635 397
7530 7703 152
7531 7532 62
7531 7560 20
7532 7531 62
7532 7534 63
7532 7668 115
7533 7511 30
7533 7517 20
7533 7669 125
7534 7532 63
7534 7471 52
7534 7598 53
7535 7479 47
7535 7520 41
7535 7585 41
7536 7537 13
7537 7536 13
7537 7544 118
7537 7599 53
7538 7525 33
7538 7563 21
7539 7529 33
7539 7464 66
7539 7564 49
7539 7618 69
7540 7494 45
7540 7495 55
7540 7596 78
7540 7627 95
7541 7501 96
7541 7442 182
7542 7474 72
7542 7516 40
7542 7574 40
7543 7518 25
7543 7526 41
7543 7637 97
7544 7537 118
7544 7478 55
7544 7603 52
7545 7389 112
7545 6733 783
7545 23788 783
7545 7558 17
7545 7705 134
7546 7517 30
7546 7470 85
7546 7579 23
7547 7451 78
7547 7553 120
7547 7610 56
7548 7489 46
7549 7408 115
7549 7490 110
7549 7562 39
7549 7622 81
7550 7527 44
7550 7569 37
7550 7639 83
7551 7552 29
7551 7567 93
7552 7551 29
7552 7600 86
7552 7623 67
7553 7547 120
7553 7460 76
7553 7554 97
7553 7653 90
7554 7553 97
7554 7461 76
7554 7559 94
7554 7578 18
7554 7649 124
7555 7477 62
7555 7557 50
7555 7609 51
7556 7501 84
7556 7594 72
7556 7629 196
7557 7555 50
7557 7713 127
7558 7545 17
7558 7408 113
7558 7562 24
7558 7685 114
7559 7554 94
7559 7466 75
7559 7560 66
7559 7649 80
7560 7559 66
7560 7531 20
7560 7751 143
7561 7497 155
7561 7582 16
7561 7591 106
7562 7558 24
7562 7408 118
7562 7549 39
7562 7651 78
7563 7538 21
7563 7521 34
7563 7794 171
7564 7539 49
7564 7565 39
7564 7643 76
7565 7564 39
7566 7468 91
7566 7518 70
7567 7520 39
7567 7551 93
7567 7585 45
7567 7587 19
7568 7516 48
7568 7593 39
7569 7458 127
7569 7550 37
7569 7579 13
7570 7491 151
7570 7735 187
7571 7415 128
7571 7525 141
7571 7583 63
7572 7464 134
7572 7594 43
7572 7783 249
7573 7497 57
7573 7582 146
7573 7633 51
7574 7485 87
7574 7542 40
7574 7597 32
7574 7621 50
7575 7502 79
7575 7613 46
7575 7614 50
7576 7577 81
7576 7504 53
7576 7781 146
7577 7576 81
7578 7554 18
7578 7588 18
7578 7592 17
7579 7546 23
7579 7569 13
7579 7675 94
7580 7581 1121
7580 7790 544
7580 8010 846
7581 7580 1121
7581 7421 1586
7581 8881 5541
7582 7573 146
7582 7561 16
7582 7636 51
7583 7571 63
7583 7607 297
7583 7983 375
7584 7495 95
7584 7627 57
7584 7660 94
7585 7535 41
7585 7567 45
7585 7694 90
7586 7496 87
7586 7529 90
7586 7637 92
7587 7567 19
7587 7600 22
7587 7665 70
7588 7578 18
7588 7592 17
7588 7658 96
7589 7490 81
7589 7617 72
7589 7733 118
7590 7524 53
7590 7634 39
7590 7765 164
7591 7561 106
7591 7616 125
7591 7745 114
7592 7578 17
7592 7588 17
7592 7657 59
7593 7568 39
7593 7621 40
7593 7641 59
7594 7572 43
7594 7556 72
7594 7631 59
7595 6923 579
7595 7689 82
7595 8188 383
7596 7540 78
7596 7744 161
7596 7813 307
7597 7493 105
7597 7574 32
7597 7628 42
7598 7534 53
7598 7599 58
7598 7672 64
7599 7598 58
7599 7537 53
7599 7603 119
7600 7587 22
7600 7552 86
7600 7652 50
7601 7515 76
7601 7623 199
7602 7290 225
7602 7699 78
7603 7599 119
7603 7544 52
7603 7606 65
7604 7605 13
7605 7604 13
7605 7618 39
7605 7692 72
7606 7603 65
7606 7482 107
7606 7609 65
7606 7671 54
7607 7428 147
7607 7583 297
7607 7608 7
7607 7742 94
7608 7427 148
7608 7607 7
7608 7611 65
7609 7606 65
7609 7555 51
7609 7709 77
7610 7547 56
7610 7648 32
7610 7688 421
7610 7706 149
7611 7608 65
7611 7616 66
7611 7620 6
7612 7452 177
7612 7289 279
7612 8044 301
7613 7575 46
7613 7615 18
7613 7695 74
7614 7509 136
7614 7575 50
7614 7857 252
7615 7613 18
7615 7646 45
7616 7419 157
7616 7611 66
7616 7591 125
7616 7739 89
7617 7589 72
7617 7622 15
7617 7733 138
7618 7605 39
7618 7539 69
7618 7624 18
7619 7503 94
7619 7625 83
7619 7678 51
7620 7611 6
7620 7738 84
7620 7741 143
7621 7574 50
7621 7593 40
7621 7647 36
7621 7690 73
7622 7549 81
7622 7617 15
7622 7651 84
7622 7933 220
7623 7552 67
7623 7601 199
7623 7748 146
7624 7618 18
7624 7643 66
7624 7716 74
7625 7619 83
7625 7626 81
7625 7630 57
7626 7625 81
7627 7540 95
7627 7584 57
7627 7715 90
7628 7597 42
7629 7513 195
7629 7556 196
7629 7670 49
7630 7625 57
7630 7469 133
7630 7684 49
7631 7594 59
7631 7673 134
7631 7783 118
7632 7527 87
7632 7639 46
7632 7683 48
7633 7573 51
7633 7636 141
7633 7697 53
7634 7590 39
7634 7680 24
7635 7530 397
7636 7633 141
7636 7582 51
7636 7701 53
7637 7543 97
7637 7586 92
7637 7723 59
7638 7295 254
7638 7650 70
7638 7699 127
7638 7822 246
7639 7550 83
7639 7632 46
7640 7514 113
7641 7593 59
7641 7642 42
7641 7690 43
7642 7641 42
7643 7624 66
7643 7564 76
7643 7759 70
7644 7645 165
7644 7648 70
7644 7804 97
7645 7644 165
7645 7718 88
7645 7726 57
7646 7615 45
7646 7695 61
7646 7828 133
7647 7621 36
7647 7677 39
7647 7773 86
7648 7644 70
7648 7610 32
7648 7659 56
7648 7809 98
7649 7554 124
7649 7559 80
7649 7751 90
7650 7638 70
7650 7340 241
7650 8044 234
7651 7562 78
7651 7622 84
7651 7685 66
7651 7998 227
7652 7600 50
7652 7665 27
7653 7553 90
7653 7657 97
7653 7706 38
7654 7511 127
7654 7669 50
7655 7656 15
7655 7664 37
7655 7793 83
7656 7655 15
7657 7653 97
7657 7592 59
7657 7658 88
7657 7893 138
7658 7657 88
7658 7588 96
7658 7674 16
7659 7648 56
7659 7811 86
7659 7812 109
7660 7584 94
7660 7661 33
7660 7715 59
7660 7719 47
7661 7660 33
7662 7663 55
7662 7836 104
7663 7662 55
7663 7667 52
7663 7841 104
7664 7655 37
7664 7666 62
7664 7702 28
7665 7587 70
7665 7652 27
7665 7694 48
7665 7748 49
7666 7664 62
7667 7663 52
7667 7671 79
7667 7845 105
7668 7532 115
7668 7672 62
7668 7849 107
7669 7654 50
7669 7533 125
7669 7681 9
7670 7629 49
7670 7700 48
7670 7818 97
7671 7667 79
7671 7606 54
7671 7803 75
7672 7668 62
7672 7598 64
7672 7832 92
7673 7631 134
7673 7700 65
7673 7743 46
7674 7658 16
7674 7894 128
7674 7930 210
7675 7579 94
7675 7676 28
7675 7681 19
7675 7752 43
7676 7675 28
7677 7647 39
7677 7714 38
7677 7788 80
7678 7619 51
7678 7682 68
7678 7696 51
7679 7680 22
7679 7729 44
7679 7872 117
7680 7679 22
7680 7820 177
7680 23802 177
7680 7634 24
7681 7669 9
7681 7675 19
7681 7693 68
7682 7678 68
7682 7684 74
7682 7750 31
7683 7632 48
7683 7704 37
7683 7771 43
7684 7682 74
7684 7630 49
7684 7686 14
7684 7766 38
7685 7558 114
7685 7651 66
7685 7754 37
7685 8057 225
7686 7684 14
7686 7436 208
7686 7687 39
7686 7762 37
7687 7686 39
7687 7438 208
7687 7688 18
7688 7687 18
7688 7610 421
7688 7758 34
7689 7523 141
7689 7595 82
7689 7720 17
7690 7621 73
7690 7641 43
7690 7773 47
7691 7692 21
7692 7691 21
7692 7605 72
7692 7716 57
7692 7871 107
7693 7681 68
7694 7585 90
7694 7665 48
7694 7725 51
7694 7824 76
7695 7613 74
7695 7646 61
7695 7768 34
7696 7678 51
7696 7765 151
7696 7772 35
7697 7633 53
7697 7701 137
7697 7787 50
7698 7502 210
7698 7493 225
7698 7764 34
7699 7602 78
7699 7638 127
7699 7822 68
7700 7673 65
7700 7670 48
7700 7743 43
7701 7697 137
7701 7636 53
7701 7745 120
7701 7798 51
7702 7664 28
7702 7775 43
7702 7829 70
7703 7530 152
7703 7746 107
7703 7886 119
7704 7683 37
7705 7545 134
7705 7754 23
7705 7877 102
7706 7610 149
7706 7653 38
7706 8061 246
7707 7708 339
7707 23794 285
7707 23797 285
7708 7707 339
7708 7755 55
7709 7609 77
7709 7713 52
7709 7806 53
7710 7294 305
7710 7734 42
7710 7808 53
7711 7519 160
7711 7712 144
7711 7769 27
7711 7794 45
7712 7711 144
7712 23798 101
7713 7709 52
7713 7557 127
7713 7721 114
7714 7677 38
7714 7774 43
7714 7814 69
7715 7627 90
7715 7660 59
7715 7717 5
7716 7692 57
7716 7624 74
7716 7757 67
7716 7856 105
7717 7715 5
7717 7778 50
7717 7821 96
7718 7645 88
7718 7758 78
7718 7943 136
7719 7660 47
7719 7760 23
7719 7778 42
7720 7689 17
7720 7839 69
7721 7713 114
7721 7486 190
7721 7810 51
7722 7410 272
7722 7734 6
7722 7799 106
7723 7637 59
7723 7724 60
7723 7767 102
7723 7867 84
7724 7723 60
7725 7500 178
7725 7694 51
7725 7771 47
7725 7805 45
7726 7645 57
7726 7727 51
7726 7941 129
7727 7726 51
7727 7732 59
7727 7938 127
7728 7729 45
7729 7728 45
7729 7679 44
7729 7763 44
7729 7939 173
7730 7731 7
7730 7491 262
7730 7991 283
7731 7730 7
7732 7727 59
7732 7737 30
7732 7947 129
7733 7617 138
7733 7589 118
7733 7835 80
7734 7722 6
7734 7710 42
7734 7789 32
7735 7570 187
7735 7736 11
7735 7868 102
7736 7735 11
7736 7780 26
7736 8362 787
7737 7732 30
7738 7620 84
7738 7739 66
7738 7741 61
7738 7863 76
7739 7616 89
7739 7738 66
7739 7740 61
7739 7875 79
7740 7739 61
7740 7745 61
7740 7876 80
7741 7738 61
7741 7620 143
7741 7742 12
7741 7862 75
7742 7741 12
7742 7607 94
7742 7861 74
7743 7673 46
7743 7700 43
7743 7823 95
7743 7891 99
7744 7596 161
7744 7801 50
7744 7815 45
7745 7701 120
7745 7591 114
7745 7740 61
7745 8013 161
7746 7747 60
7746 7703 107
7746 7818 93
7746 7886 95
7747 7746 60
7748 7665 49
7748 7623 146
7748 7834 71
7749 7750 12
7749 7766 64
7749 7869 72
7750 7749 12
7750 7772 110
7750 7682 31
7751 7649 90
7751 7560 143
7751 7849 86
7752 7675 43
7752 7753 48
7752 7830 47
7753 7752 48
7753 7791 44
7754 7705 23
7754 7685 37
7754 7842 57
7754 7877 78
7755 7756 19
7755 7708 55
7756 7755 19
7756 23801 54
7757 7716 67
7757 7759 3
7757 7866 73
7758 7718 78
7758 7762 54
7758 7688 34
7759 7757 3
7759 7643 70
7759 7904 173
7760 7719 23
7760 7761 155
7761 7760 155
7761 7770 76
7761 7786 40
7762 7758 54
7762 7766 15
7762 8076 189
7762 7686 37
7763 7729 44
7763 7781 56
7763 7939 118
7764 7698 34
7764 7782 93
7764 7828 49
7765 7590 164
7765 7417 255
7765 7696 151
7765 23802 28
7766 7749 64
7766 7762 15
7766 7965 126
7766 7684 38
7767 7723 102
7768 7695 34
7768 7912 128
7768 7995 170
7769 7711 27
7769 7512 187
7769 8169 253
7770 7761 76
7770 7779 125
7770 7786 83
7771 7683 43
7771 7725 47
7771 7791 49
7771 7816 32
7772 7750 110
7772 7820 135
7772 7696 35
7773 7647 86
7773 7690 47
7773 7788 32
7774 7714 43
7774 7800 37
7774 7848 66
7775 7702 43
7775 7795 30
7775 7833 42
7776 7777 52
7776 7793 53
7776 7851 59
7777 7776 52
7778 7717 50
7778 7719 42
7778 7898 149
7779 7770 125
7780 7736 26
7781 7576 146
7781 7763 56
7781 7792 68
7781 7942 109
7782 7764 93
7782 7800 22
7782 7884 62
7783 7572 249
7783 7631 118
7783 7823 26
7784 7785 95
7784 7792 62
7784 7844 116
7784 7990 128
7785 7784 95
7786 7761 40
7786 7770 83
7786 7846 38
7787 7697 50
7787 7798 134
7787 7874 51
7788 7677 80
7788 7773 32
7788 7814 41
7789 7734 32
7789 7808 29
7789 7843 105
7790 7580 544
7790 7817 105
7790 7859 43
7791 7753 44
7791 7771 49
7791 7830 52
7791 7838 29
7792 7784 62
7792 7781 68
7792 7917 80
7793 7655 83
7793 7776 53
7793 7829 43
7793 7855 41
7794 7563 171
7794 7711 45
7794 8108 189
7795 7775 30
7795 7853 38
7795 7890 75
7796 7797 166
7797 7796 166
7797 7950 101
7798 7787 134
7798 7701 51
7798 7889 54
7799 7457 275
7799 7722 106
7799 7835 60
7799 7843 30
7800 7782 22
7800 7774 37
7800 7901 77
7801 7802 192
7801 7744 50
7801 7815 50
7802 7801 192
7802 7819 130
7803 7671 75
7803 7806 61
7803 7887 50
7804 7644 97
7804 7809 70
7804 7951 92
7805 7725 45
7805 7816 48
7805 7824 54
7806 7803 61
7806 7709 53
7806 7807 68
7806 7888 49
7807 7806 68
7807 7810 85
7807 8018 125
7808 7789 29
7808 7710 53
7808 7822 16
7808 7825 11
7809 7804 70
7809 7648 98
7809 7811 55
7809 7952 91
7810 7807 85
7810 7721 51
7810 8032 130
7811 7809 55
7811 7659 86
7811 7812 65
7811 7900 54
7812 7811 65
7812 7659 109
7812 7902 67
7813 7596 307
7813 8228 358
7814 7714 69
7814 7788 41
7814 7848 38
7815 7801 50
7815 7744 45
7815 7821 8
7816 7771 32
7816 7805 48
7816 7831 23
7817 7790 105
7818 7670 97
7818 7746 93
7818 7891 88
7818 7949 93
7819 7802 130
7819 8077 189
7820 7680 177
7820 23802 177
7820 7772 135
7820 7850 20
7821 7815 8
7821 7717 96
7821 7989 267
7822 7808 16
7822 7699 68
7822 7638 246
7822 7915 57
7823 7783 26
7823 7743 95
7823 7961 94
7824 7805 54
7824 7694 76
7824 7834 14
7825 7808 11
7825 7977 93
7825 8135 180
7826 7827 29
7826 7837 36
7826 7840 118
7826 7903 47
7827 7826 29
7828 7646 133
7828 7764 49
7828 7912 58
7829 7702 70
7829 7793 43
7829 7833 34
7829 7934 70
7830 7752 47
7830 7791 52
7830 7837 8
7831 7816 23
7831 7838 21
7831 7913 57
7832 7672 92
7832 7836 58
7832 7919 55
7833 7775 42
7833 7829 34
7833 7853 42
7833 7925 57
7834 7824 14
7834 7748 71
7834 7852 29
7835 7733 80
7835 7799 60
7835 7880 31
7836 7832 58
7836 7662 104
7836 7841 54
7837 7826 36
7837 7830 8
7837 7838 59
7838 7791 29
7838 7831 21
7838 7837 59
7839 7439 324
7839 7720 69
7839 8169 202
7840 7826 118
7840 7926 54
7840 8074 404
7841 7836 54
7841 7663 104
7841 7845 50
7842 7754 57
7842 7882 56
7842 8063 139
7843 7799 30
7843 7789 105
7843 7880 52
7843 8089 152
7844 7784 116
7844 7851 13
7844 7916 44
7844 7916 44
7845 7841 50
7845 7667 105
7846 7786 38
7846 7924 112
7846 7940 89
7847 7506 325
7847 7931 55
7848 7774 66
7848 7814 38
7848 7901 41
7849 7751 86
7849 7668 107
7849 7944 84
7850 7820 20
7850 7870 123
7850 7964 70
7851 7776 59
7851 7844 13
7851 7934 119
7852 7834 29
7852 7858 12
7852 8086 218
7853 7795 38
7853 7833 42
7853 7921 42
7854 7287 397
7854 7509 449
7854 7914 61
7854 7985 78
7855 7793 41
7856 7716 105
7856 7866 29
7856 7871 90
7857 7614 252
7857 7985 259
7857 8173 241
7858 7852 12
7858 7890 44
7858 7895 30
7859 7790 43
7860 7498 570
7860 7929 59
7860 7932 55
7861 7742 74
7861 7862 9
7861 8002 84
7862 7741 75
7862 7861 9
7862 7863 59
7862 8004 84
7863 7738 76
7863 7862 59
7863 7875 72
7863 8005 85
7864 7865 8
7865 7864 8
7865 7869 96
7865 7885 8
7866 7856 29
7866 7757 73
7866 7978 113
7867 7723 84
7867 7871 71
7867 7879 91
7867 7963 71
7868 7735 102
7868 8031 231
7869 7865 96
7869 7749 72
7869 7959 57
7870 7850 123
7871 7867 71
7871 7692 107
7871 7856 90
7872 7679 117
7872 7873 95
7872 7962 58
7873 7872 95
7874 7787 51
7874 7889 129
7874 8132 149
7875 7739 79
7875 7863 72
7875 7876 61
7875 8009 82
7876 7740 80
7876 7875 61
7876 8015 83
7877 7705 102
7877 7754 78
7877 7882 1
7877 7883 3
7878 7879 28
7879 7878 28
7879 7867 91
7879 7881 43
7879 8020 99
7880 7835 31
7880 7843 52
7880 7897 35
7880 7986 84
7881 7879 43
7882 7877 1
7882 7842 56
7882 7883 2
7882 7892 8
7883 7877 3
7883 7882 2
7883 7896 10
7884 7782 62
7884 7907 22
7884 7970 73
7885 7865 8
7886 7746 95
7886 7703 119
7886 7949 95
7887 7803 50
7887 7888 61
7887 7927 27
7888 7887 61
7888 7806 49
7888 8012 75
7889 7874 129
7889 7798 54
7889 8019 77
7890 7858 44
7890 7795 75
7890 7918 41
7891 7743 99
7891 7818 88
7891 7961 103
7891 8040 97
7892 7882 8
7892 7999 70
7893 7657 138
7893 7911 75
7893 8017 75
7894 7674 128
7894 7935 86
7894 8075 105
7895 7858 30
7895 8027 92
7895 8145 184
7896 7883 10
7896 7979 53
7897 7880 35
7897 7933 85
7897 8033 84
7898 7778 149
7898 7899 31
7898 7940 39
7898 7966 65
7899 7898 31
7900 7811 54
7900 7902 103
7900 7958 40
7901 7800 77
7901 7848 41
7901 7970 48
7902 7900 103
7902 7812 67
7902 8017 81
7903 7826 47
7903 7926 108
7903 7984 48
7904 7759 173
7904 7950 43
7904 7978 81
7905 7906 258
7905 23797 107
7906 7905 258
7906 7931 66
7906 8060 88
7907 7908 28
7907 7884 22
7907 7948 27
7908 7907 28
7908 7960 95
7909 7910 52
7909 7911 49
7909 8061 86
7910 7909 52
7911 7909 49
7911 7893 75
7911 8017 75
7912 7768 128
7912 7828 58
7912 7987 55
7913 7831 57
7914 7854 61
7914 7988 83
7914 8203 166
7915 7822 57
7915 7981 39
7915 8156 137
7916 7844 44
7916 7844 44
7916 8023 60
7916 8023 60
7917 7792 80
7918 7890 41
7918 7920 11
7919 7832 55
7919 7922 75
7919 7944 18
7920 7918 11
7920 7921 5
7920 7992 57
7921 7920 5
7921 7853 42
7921 7925 41
7922 7919 75
7922 7923 21
7922 7936 15
7922 7971 28
7923 7922 21
7923 7927 147
7923 7937 15
7923 7972 28
7924 7846 112
7924 8029 89
7925 7921 41
7925 7833 57
7925 7934 35
7926 7840 54
7926 7903 108
7926 7967 140
7926 8003 47
7927 7923 147
7927 7887 27
7927 7982 30
7928 7929 211
7928 23800 136
7929 7928 211
7929 7860 59
7929 7994 53
7929 7996 62
7930 7674 210
7930 8001 60
7930 8131 160
7931 7847 55
7931 7906 66
7931 8109 106
7932 7860 55
7932 7994 56
7932 8038 182
7933 7622 220
7933 7897 85
7933 7998 89
7933 8088 89
7934 7925 35
7934 7829 70
7934 7851 119
7935 7894 86
7935 8001 52
7935 8075 107
7936 7922 15
7936 7937 4
7936 7945 5
7937 7936 4
7937 7923 15
7937 7946 5
7938 7727 127
7938 7941 61
7938 7947 51
7939 7763 118
7939 7729 173
7939 7942 54
7940 7898 39
7940 7846 89
7940 8029 56
7941 7726 129
7941 7938 61
7941 7943 64
7941 8049 53
7942 7781 109
7942 7939 54
7942 7980 71
7942 8058 59
7943 7718 136
7943 7941 64
7943 8072 68
7944 7849 84
7944 7919 18
7944 8087 112
7945 7936 5
7945 7946 3
7945 7971 15
7946 7937 5
7946 7945 3
7946 7972 15
7947 7938 51
7947 7732 129
7947 7951 52
7948 7907 27
7948 8035 54
7948 8078 148
7949 7818 93
7949 7886 95
7949 7993 52
7949 8079 82
7950 7904 43
7950 7797 101
7950 8037 93
7950 8042 51
7951 7947 52
7951 7804 92
7951 7952 73
7951 8054 51
7952 7951 73
7952 7809 91
7952 7958 56
7952 8115 87
7953 7954 6
7954 7953 6
7954 7964 112
7954 7973 8
7955 7956 8
7955 7957 7
7955 7974 8
7956 7955 8
7957 7955 7
7957 7959 88
7957 8050 46
7958 7952 56
7958 7900 40
7958 7997 21
7959 7957 88
7959 7869 57
7959 7965 67
7959 8097 74
7960 7908 95
7960 7987 46
7960 8062 59
7961 7823 94
7961 7891 103
7961 8042 85
7961 8120 99
7962 7872 58
7962 7964 83
7962 8043 42
7963 7867 71
7964 7962 83
7964 7850 70
7964 7954 112
7964 8067 56
7965 7959 67
7965 7766 126
7965 8391 280
7966 7898 65
7966 8095 90
7967 7926 140
7968 7969 65
7969 7968 65
7970 7884 73
7970 7901 48
7970 8035 41
7971 7922 28
7971 7945 15
7972 7946 15
7972 7923 28
7973 7954 8
7974 7955 8
7975 7976 206
7976 7975 206
7977 7825 93
7977 8788 440
7978 7866 113
7978 7904 81
7978 8037 33
7978 8046 71
7979 7896 53
7979 7999 45
7979 8149 104
7980 7942 71
7980 7990 54
7980 8119 81
7981 7915 39
7981 8762 447
7982 7927 30
7982 8034 41
7982 8036 27
7983 7583 375
7983 8271 175
7983 8296 485
7984 7903 48
7984 8003 99
7984 8064 45
7985 7854 78
7985 7857 259
7985 8200 123
7986 7880 84
7986 8033 55
7986 8089 77
7987 7912 55
7987 7960 46
7987 8006 15
7988 7914 83
7988 8016 125
7988 8092 60
7989 7821 267
7989 8028 62
7989 8103 75
7990 7784 128
7990 7980 54
7990 8000 57
7990 8137 83
7991 7730 283
7991 8053 168
7991 8080 54
7992 7920 57
7992 8027 25
7993 7949 52
7993 8040 39
7993 8122 79
7994 7929 53
7994 7932 56
7994 8039 26
7995 7768 170
7995 8055 42
7995 8100 63
7996 7929 62
7996 8026 17
7996 8110 80
7997 7958 21
7997 8017 150
7997 8116 63
7998 7651 227
7998 7933 89
7998 8057 67
7998 8138 81
7999 7979 45
7999 7892 70
7999 8106 60
8000 7990 57
8000 8023 80
8000 8154 87
8001 7935 52
8001 7930 60
8001 8073 52
8001 8211 161
8002 7861 84
8002 8004 9
8002 8160 83
8003 7926 47
8003 7984 99
8003 8051 131
8003 8096 48
8004 7862 84
8004 8002 9
8004 8005 65
8004 8159 83
8005 7863 85
8005 8004 65
8005 8009 67
8005 8151 80
8006 7987 15
8006 8062 45
8006 8130 80
8007 8008 24
8007 8022 53
8007 8087 42
8008 8007 24
8009 7875 82
8009 8005 67
8009 8015 60
8009 8152 79
8010 8011 34
8010 7580 846
8010 8101 169
8011 8010 34
8012 7888 75
8012 8018 71
8012 8113 54
8013 7745 161
8013 8014 56
8013 8015 62
8013 8199 104
8014 8013 56
8014 8019 72
8014 8202 106
8015 8013 62
8015 7876 83
8015 8009 60
8015 8161 79
8016 7988 125
8016 8111 56
8016 8114 144
8017 7997 150
8017 7902 81
8017 8123 62
8017 8236 153
8017 7893 75
8017 7911 75
8018 8012 71
8018 7807 125
8018 8032 60
8019 7889 77
8019 8014 72
8019 8293 167
8020 7879 99
8020 8021 105
8020 8024 54
8020 8155 89
8021 8020 105
8022 8007 53
8022 8030 53
8022 8175 91
8023 7916 60
8023 7916 60
8023 8000 80
8023 8618 392
8024 8020 54
8024 8025 38
8024 8163 100
8025 8024 38
8025 8038 12
8026 7996 17
8027 7895 92
8027 7992 25
8027 8105 83
8028 7989 62
8028 8077 74
8028 8144 76
8029 7940 56
8029 7924 89
8029 8059 20
8029 8095 63
8030 8022 53
8030 8034 24
8030 8262 140
8031 7868 231
8031 8041 59
8032 8018 60
8032 7810 130
8032 8118 52
8033 7897 84
8033 7986 55
8033 8088 90
8033 8238 132
8034 8030 24
8034 7982 41
8034 8036 33
8035 7948 54
8035 7970 41
8035 8150 85
8036 8034 33
8036 7982 27
8036 8107 42
8037 7978 33
8037 7950 93
8037 8117 53
8037 8190 149
8038 8025 12
8038 7932 182
8038 8093 51
8039 7994 26
8039 8110 62
8039 8128 72
8040 7891 97
8040 7993 39
8040 8120 101
8040 8153 76
8041 8031 59
8041 8288 274
8042 7950 51
8042 7961 85
8042 8117 92
8042 8182 96
8043 7962 42
8043 8052 66
8043 8216 102
8044 7650 234
8044 7612 301
8044 8247 173
8044 23803 173
8045 8046 47
8046 8045 47
8046 7978 71
8046 8082 54
8047 8048 20
8048 8047 20
8048 8079 53
8048 8170 76
8049 7941 53
8049 8054 166
8049 8147 61
8050 7957 46
8051 8003 131
8052 8043 66
8052 8058 81
8052 8201 95
8053 7991 168
8053 8059 191
8053 8288 196
8054 8049 166
8054 7951 51
8054 8139 51
8055 7995 42
8055 8056 42
8055 8130 77
8055 8162 77
8056 8055 42
8057 7685 225
8057 7998 67
8057 8063 20
8057 8176 78
8058 7942 59
8058 8052 81
8058 8098 26
8059 8029 20
8059 8053 191
8059 8269 178
8060 7906 88
8060 8109 664
8060 9127 664
8061 7706 246
8061 7909 86
8061 8191 94
8062 8006 45
8062 7960 59
8062 8078 10
8063 7842 139
8063 8057 20
8063 8106 54
8063 8187 78
8064 7984 45
8064 8096 91
8065 8066 39
8065 8074 23
8065 8129 38
8066 8065 39
8066 8070 109
8066 8171 80
8067 7964 56
8067 8068 127
8067 8178 64
8068 8067 127
8068 8069 7
8068 8081 8
8069 8068 7
8070 8066 109
8070 8094 34
8070 8192 72
8071 7488 398
8071 8149 47
8071 8333 168
8072 7943 68
8072 8076 136
8073 8001 52
8073 8140 55
8073 8141 56
8074 8065 23
8074 7840 404
8074 8136 37
8075 7894 105
8075 7935 107
8075 8141 54
8076 7762 189
8076 8072 136
8076 8195 82
8077 7819 189
8077 8028 74
8077 8091 87
8077 8142 39
8078 8062 10
8078 7948 148
8078 8150 148
8079 7949 82
8079 8048 53
8079 8122 50
8080 7991 54
8080 8288 204
8081 8068 8
8082 8083 100
8082 8046 54
8082 8125 31
8083 8082 100
8083 8125 36
8083 8134 43
8084 8085 7
8085 8084 7
8085 8097 93
8085 8102 8
8086 7852 218
8086 8145 60
8086 8164 77
8087 7944 112
8087 8007 42
8087 8175 72
8088 7933 89
8088 8033 90
8088 8148 89
8088 8278 130
8089 7986 77
8089 7843 152
8089 8181 60
8090 8091 87
8091 8090 87
8091 8077 87
8091 8259 134
8092 7988 60
8092 8143 57
8092 8203 99
8093 8038 51
8093 8163 50
8093 8168 65
8094 8070 34
8094 8101 24
8094 8258 103
8095 7966 90
8095 8029 63
8096 8003 48
8096 8064 91
8096 8126 137
8096 8165 39
8097 8085 93
8097 7959 74
8097 8198 76
8098 8058 26
8098 8119 70
8098 8217 69
8099 8100 70
8100 8099 70
8100 7995 63
8100 8162 37
8101 8094 24
8101 8010 169
8101 8184 50
8102 8085 8
8103 7989 75
8103 8104 36
8103 8144 68
8103 8186 147
8104 8103 36
8105 8027 83
8105 8146 47
8106 7999 60
8106 8063 54
8106 8158 82
8106 8225 75
8107 8036 42
8107 8113 58
8107 8340 143
8108 7794 189
8108 8285 662
8108 9221 662
8109 7931 106
8109 8060 664
8109 9127 664
8110 7996 80
8110 8039 62
8110 8197 72
8111 8016 56
8111 8112 55
8111 8167 77
8111 8207 68
8112 8111 55
8112 8143 52
8113 8107 58
8113 8012 54
8113 8118 128
8113 8204 52
8114 8016 144
8114 8189 101
8114 8306 128
8115 7952 87
8115 8116 60
8115 8139 69
8115 8222 63
8116 8115 60
8116 7997 63
8116 8123 142
8117 8037 53
8117 8042 92
8117 8177 75
8117 8257 98
8118 8113 128
8118 8032 52
8118 8121 121
8118 8224 64
8119 7980 81
8119 8098 70
8119 8137 55
8119 8241 73
8120 7961 99
8120 8040 101
8120 8182 82
8120 8231 78
8121 8118 121
8121 8124 49
8121 8229 64
8122 7993 79
8122 8079 50
8122 8153 39
8123 8116 142
8123 8017 62
8123 8230 62
8124 8121 49
8124 8127 46
8124 8275 97
8125 8083 36
8125 8082 31
8126 8096 137
8127 8124 46
8127 8132 61
8127 8279 98
8128 8039 72
8128 8168 32
8128 8197 62
8129 8065 38
8129 8136 19
8129 8166 48
8130 8055 77
8130 8006 80
8130 8233 107
8131 7930 160
8131 8211 61
8131 8280 137
8132 8127 61
8132 7874 149
8132 8273 93
8133 8134 54
8134 8133 54
8134 8083 43
8134 8214 63
8134 8245 95
8135 7825 180
8135 8172 25
8135 8209 43
8136 8129 19
8136 8074 37
8136 8242 75
8137 7990 83
8137 8119 55
8137 8154 60
8137 8243 66
8138 7998 81
8138 8148 10
8138 8176 68
8139 8054 51
8139 8115 69
8139 8218 67
8140 8073 55
8140 8208 53
8140 8266 109
8141 8075 54
8141 8073 56
8141 8191 43
8142 8077 39
8143 8112 52
8143 8092 57
8143 8321 172
8144 8028 76
8144 8103 68
8144 8235 135
8144 8253 66
8145 8086 60
8145 7895 184
8145 8212 52
8146 8105 47
8146 8252 128
8146 8328 125
8147 8049 61
8148 8138 10
8148 8088 89
8148 8342 128
8149 8071 47
8149 7979 104
8149 8174 14
8150 8035 85
8150 8078 148
8150 8228 80
8151 8005 80
8151 8152 66
8151 8159 69
8151 8302 91
8152 8009 79
8152 8151 66
8152 8161 59
8152 8312 95
8153 8040 76
8153 8122 39
8153 8170 112
8153 8231 96
8153 8260 76
8154 8000 87
8154 8137 60
8154 8250 58
8155 8020 89
8156 7915 137
8156 8157 99
8156 8246 55
8157 8156 99
8157 8247 84
8158 8106 82
8158 8174 29
8158 8265 73
8159 8151 69
8159 8004 83
8159 8160 9
8159 8310 93
8160 8159 9
8160 8002 83
8160 8311 93
8161 8015 79
8161 8152 59
8161 8307 91
8162 8100 37
8162 8055 77
8162 8221 87
8162 8233 51
8163 8093 50
8163 8024 100
8163 8227 63
8163 8295 110
8164 8086 77
8165 8096 39
8165 8210 134
8166 8129 48
8166 8171 19
8167 8111 77
8167 8261 64
8168 8128 32
8168 8093 65
8168 8227 47
8169 7769 253
8169 7839 202
8169 8188 14
8169 8270 68
8170 8048 76
8170 8153 112
8170 8215 27
8171 8066 80
8171 8166 19
8171 8183 38
8172 8135 25
8172 8181 13
8173 7857 241
8173 8200 80
8173 8437 188
8174 8149 14
8174 8158 29
8174 8315 87
8175 8087 72
8175 8022 91
8175 8262 74
8176 8057 78
8176 8138 68
8176 8187 19
8176 8377 137
8177 8117 75
8177 8219 51
8177 8320 96
8178 8067 64
8178 8179 117
8178 8248 41
8179 8178 117
8179 8180 5
8179 8185 6
8179 8196 26
8180 8179 5
8181 8089 60
8181 8172 13
8181 8209 23
8181 8238 83
8182 8042 96
8182 8120 82
8182 8257 92
8182 8298 80
8183 8171 38
8183 8192 36
8183 8244 36
8184 8101 50
8185 8179 6
8186 8103 147
8187 8063 78
8187 8176 19
8187 8225 57
8187 8389 136
8188 8169 14
8188 7595 383
8188 8305 85
8188 8442 181
8189 8114 101
8189 8215 18
8189 8372 130
8190 8037 149
8190 8219 18
8190 8245 44
8191 8061 94
8191 8141 43
8191 8266 57
8192 8070 72
8192 8183 36
8192 8254 37
8193 8194 6
8193 8196 8
8193 8198 62
8193 8205 5
8194 8193 6
8195 8076 82
8195 8206 117
8195 8387 135
8196 8179 26
8196 8193 8
8196 8251 33
8197 8110 72
8197 8128 62
8197 8255 50
8197 8290 78
8198 8193 62
8198 8097 76
8198 8332 104
8199 8013 104
8199 8202 40
8199 8303 64
8200 7985 123
8200 8173 80
8200 8203 57
8200 8510 211
8201 8052 95
8202 8014 106
8202 8199 40
8202 8300 63
8203 8092 99
8203 7914 166
8203 8200 57
8203 8321 73
8204 8113 52
8204 8223 68
8204 8358 104
8205 8193 5
8206 8195 117
8206 8286 57
8207 8111 68
8207 8237 45
8207 8294 72
8208 8140 53
8208 8264 54
8208 8337 118
8209 8181 23
8209 8135 43
8209 8246 40
8209 8297 58
8210 8165 134
8211 8001 161
8211 8131 61
8211 8263 55
8211 8264 51
8212 8145 52
8213 8214 38
8213 8313 136
8214 8213 38
8214 8134 63
8214 8313 91
8214 8324 96
8215 8170 27
8215 8189 18
8215 8319 94
8216 8043 102
8216 8248 86
8216 8304 95
8217 8098 69
8217 8232 15
8217 8304 68
8218 8139 67
8218 8222 115
8218 8308 66
8219 8190 18
8219 8177 51
8219 8368 106
8220 8221 18
8221 8220 18
8221 8162 87
8221 8291 50
8222 8218 115
8222 8115 63
8222 8230 197
8222 8316 58
8223 8204 68
8223 8224 54
8223 8363 95
8224 8223 54
8224 8118 64
8224 8226 56
8224 8370 96
8225 8106 75
8225 8187 57
8225 8265 79
8225 8418 133
8226 8224 56
8226 8229 78
8226 8431 135
8227 8168 47
8227 8163 63
8227 8290 63
8227 8352 110
8228 8150 80
8228 7813 358
8228 8532 394
8229 8226 78
8229 8121 64
8229 8272 33
8230 8222 197
8230 8123 62
8230 8236 98
8230 8326 58
8231 8120 78
8231 8153 96
8231 8298 89
8231 8339 78
8232 8217 15
8232 8241 47
8232 8484 242
8233 8162 51
8233 8130 107
8233 8291 92
8234 8235 53
8235 8234 53
8235 8144 135
8235 8346 72
8236 8230 98
8236 8017 153
8236 8299 49
8237 8207 45
8237 8261 44
8237 8341 81
8238 8033 132
8238 8181 83
8238 8278 88
8238 8350 82
8239 8240 32
8239 8242 27
8239 8244 37
8240 8239 32
8241 8119 73
8241 8232 47
8241 8243 57
8242 8239 27
8242 8136 75
8242 8249 10
8243 8137 66
8243 8241 57
8243 8250 61
8244 8183 36
8244 8239 37
8244 8254 34
8245 8134 95
8245 8190 44
8245 8324 68
8246 8209 40
8246 8156 55
8246 8256 11
8247 8157 84
8247 8044 173
8247 23803 173
8247 8268 61
8248 8216 86
8248 8178 41
8248 8332 159
8248 8366 111
8249 8242 10
8250 8154 58
8250 8243 61
8251 8196 33
8252 8146 128
8253 8144 66
8253 8335 138
8254 8192 37
8254 8244 34
8254 8258 28
8255 8197 50
8256 8246 11
8256 8268 20
8256 8297 58
8257 8117 98
8257 8182 92
8257 8320 78
8257 8360 80
8258 8094 103
8258 8254 28
8259 8091 134
8259 8274 44
8260 8153 76
8260 8319 39
8260 8339 97
8261 8167 64
8261 8237 44
8261 8284 40
8261 8398 99
8262 8175 74
8262 8030 140
8262 8340 67
8263 8211 55
8263 8331 54
8263 8351 83
8264 8208 54
8264 8211 51
8264 8403 130
8265 8158 73
8265 8225 79
8265 8315 78
8265 8445 133
8266 8191 57
8266 8140 109
8266 8299 34
8266 8337 52
8267 7267 805
8267 8329 51
8267 8399 101
8268 8256 20
8268 8247 61
8268 8329 36
8269 8059 178
8269 8559 248
8270 8169 68
8270 8283 15
8270 8376 71
8271 7983 175
8271 8296 671
8271 8430 367
8272 8229 33
8272 8275 47
8272 8349 45
8273 8132 93
8273 8276 54
8273 8292 6
8274 8259 44
8274 8325 69
8274 8390 75
8275 8272 47
8275 8124 97
8275 8279 46
8276 8273 54
8276 8277 87
8276 8281 48
8277 8276 87
8278 8088 130
8278 8238 88
8278 8342 90
8278 8405 84
8279 8275 46
8279 8127 98
8279 8292 63
8279 8353 45
8280 8131 137
8280 8289 3
8280 8323 26
8281 8276 48
8281 8282 89
8281 8293 46
8282 8281 89
8283 8270 15
8283 8285 208
8283 8627 248
8284 8261 40
8284 8306 17
8284 8614 233
8285 8283 208
8285 8108 662
8285 9221 662
8286 8287 130
8286 8206 57
8286 8308 210
8286 8392 64
8287 8286 130
8288 8053 196
8288 8080 204
8288 8041 274
8289 8280 3
8289 8301 6
8289 8357 70
8290 8197 78
8290 8227 63
8290 8336 39
8290 8415 110
8291 8221 50
8291 8233 92
8291 8322 34
8292 8279 63
8292 8273 6
8292 8355 45
8293 8281 46
8293 8019 167
8293 8371 52
8294 8207 72
8294 8341 50
8294 8424 168
8295 8163 110
8295 8352 59
8296 7983 485
8296 8271 671
8297 8209 58
8297 8256 58
8297 8327 21
8298 8182 80
8298 8231 89
8298 8360 90
8298 8397 77
8299 8236 49
8299 8266 34
8299 8343 33
8300 8202 63
8300 8303 27
8300 8375 52
8301 8289 6
8301 8338 32
8301 8483 187
8302 8151 91
8302 8310 71
8302 8314 56
8302 8379 54
8303 8300 27
8303 8199 64
8303 8307 65
8304 8217 68
8304 8216 95
8304 8356 77
8305 8188 85
8305 6941 1017
8305 8333 21
8305 8548 179
8306 8114 128
8306 8284 17
8306 8348 62
8307 8303 65
8307 8161 91
8307 8309 19
8308 8286 210
8308 8218 66
8308 8316 142
8308 8396 64
8309 8307 19
8309 8312 32
8309 8380 51
8310 8302 71
8310 8159 93
8310 8311 9
8310 8382 54
8311 8310 9
8311 8160 93
8311 8383 54
8312 8309 32
8312 8152 95
8312 8314 19
8313 8213 136
8313 8214 91
8313 8409 91
8314 8312 19
8314 8302 56
8314 8378 48
8315 8174 87
8315 8265 78
8315 8451 110
8316 8308 142
8316 8222 58
8316 8326 194
8316 8404 62
8317 8318 144
8318 8317 144
8318 8334 139
8318 8440 93
8318 8465 182
8319 8260 39
8319 8215 94
8319 8422 108
8319 8432 100
8320 8177 96
8320 8257 78
8320 8368 78
8320 8417 78
8321 8143 172
8321 8203 73
8321 8424 75
8322 8291 34
8322 8407 139
8322 8407 134
8323 8280 26
8323 8338 11
8323 8351 33
8324 8214 96
8324 8245 68
8324 8409 93
8324 8426 97
8325 8274 69
8325 8354 73
8325 8425 77
8326 8316 194
8326 8230 58
8326 8330 96
8326 8414 62
8327 8297 21
8327 8350 49
8327 8384 45
8328 8146 125
8329 8268 36
8329 8267 51
8329 8386 50
8330 8326 96
8330 8343 54
8330 8419 79
8331 8263 54
8331 8406 75
8331 8416 84
8332 8248 159
8332 8198 104
8332 8381 39
8333 8305 21
8333 8071 168
8333 8365 28
8333 8462 117
8334 8318 139
8334 8497 123
8335 8253 138
8335 8346 11
8336 8290 39
8336 8369 39
8336 8439 105
8337 8266 52
8337 8208 118
8337 8403 55
8338 8323 11
8338 8301 32
8338 8359 26
8339 8231 78
8339 8260 97
8339 8397 89
8339 8422 65
8340 8262 67
8340 8107 143
8340 8347 5
8341 8237 81
8341 8294 50
8341 8438 105
8342 8148 128
8342 8278 90
8342 8377 74
8342 8444 86
8343 8330 54
8343 8299 33
8343 8505 157
8344 8345 302
8345 8344 302
8346 8235 72
8346 8335 11
8346 8390 85
8347 8340 5
8347 8410 75
8347 8971 559
8348 8306 62
8348 8372 33
8348 8464 100
8349 8272 45
8349 8353 92
8349 8433 57
8350 8238 82
8350 8327 49
8350 8405 90
8351 8263 83
8351 8323 33
8351 8359 9
8352 8227 110
8352 8295 59
8352 8415 62
8352 8481 136
8353 8349 92
8353 8279 45
8353 8434 56
8354 8325 73
8354 8443 73
8354 8466 314
8355 8292 45
8355 8371 147
8355 8513 109
8356 8304 77
8356 8361 70
8356 8364 10
8357 8289 70
8357 8978 548
8358 8204 104
8358 8363 62
8358 8410 31
8359 8351 9
8359 8338 26
8359 8478 133
8360 8257 80
8360 8298 90
8360 8417 78
8360 8446 74
8361 8356 70
8361 8366 77
8361 8536 121
8362 7736 787
8363 8358 62
8363 8223 95
8363 8370 55
8363 8491 94
8364 8356 10
8364 8473 135
8364 8535 116
8365 8333 28
8365 8463 87
8365 8488 97
8366 8361 77
8366 8248 111
8366 8367 76
8366 8539 120
8367 8366 76
8367 8373 80
8367 8541 122
8368 8219 106
8368 8320 78
8368 8647 219
8369 8336 39
8369 8453 100
8369 8534 116
8370 8363 55
8370 8224 96
8370 8428 39
8371 8355 147
8371 8293 52
8371 8374 47
8371 8467 82
8372 8189 130
8372 8348 33
8372 8432 90
8373 8367 80
8373 8381 62
8373 8550 124
8374 8371 47
8374 8375 47
8374 8468 81
8375 8374 47
8375 8300 52
8375 8380 101
8375 8454 70
8376 8270 71
8376 8442 52
8376 8524 110
8377 8176 137
8377 8342 74
8377 8389 20
8377 8476 90
8378 8314 48
8378 8379 58
8378 8459 73
8379 8378 58
8379 8302 54
8379 8382 57
8379 8593 142
8380 8375 101
8380 8309 51
8380 8456 69
8381 8373 62
8381 8332 39
8381 8391 96
8381 8449 57
8382 8379 57
8382 8310 54
8382 8383 10
8382 8595 145
8383 8382 10
8383 8311 54
8383 8394 6
8384 8385 38
8384 8327 45
8384 8408 21
8385 8384 38
8385 8423 78
8385 8489 106
8386 8329 50
8386 8411 22
8386 8574 142
8387 8195 135
8387 8388 90
8387 8492 85
8388 8387 90
8388 8392 77
8388 8554 117
8389 8187 136
8389 8377 20
8389 8418 59
8389 8501 90
8390 8274 75
8390 8346 85
8390 8425 73
8390 8460 74
8391 8381 96
8391 7965 280
8391 8450 56
8392 8388 77
8392 8286 64
8392 8393 75
8392 8555 118
8393 8392 75
8393 8395 76
8393 8558 118
8394 8383 6
8394 8477 75
8394 8596 141
8394 8600 138
8395 8393 76
8395 8396 41
8395 8499 78
8396 8395 41
8396 8308 64
8396 8404 161
8396 8458 64
8397 8298 77
8397 8339 89
8397 8446 92
8397 8475 76
8398 8261 99
8398 8448 48
8398 8494 111
8399 8267 101
8399 8400 15
8399 8540 112
8400 8399 15
8400 23803 256
8401 8402 72
8401 8455 90
8402 8401 72
8403 8337 55
8403 8264 130
8403 8447 58
8404 8396 161
8404 8316 62
8404 8414 191
8404 8470 62
8405 8278 84
8405 8350 90
8405 8423 15
8405 8444 89
8406 8331 75
8406 8416 110
8406 8447 55
8407 8322 139
8407 8322 134
8407 8437 58
8408 8384 21
8408 8411 43
8408 8489 67
8409 8313 91
8409 8324 93
8409 8481 96
8409 8512 100
8410 8347 75
8410 8358 31
8410 8491 90
8411 8386 22
8411 8408 43
8411 8489 75
8411 8629 145
8412 8413 1731
8413 8412 1731
8414 8404 191
8414 8326 62
8414 8419 147
8414 8482 61
8415 8290 110
8415 8352 62
8415 8436 29
8415 8599 144
8416 8406 110
8416 8331 84
8416 8469 75
8417 8320 78
8417 8360 78
8417 8495 74
8418 8225 133
8418 8389 59
8418 8445 82
8418 8538 94
8419 8414 147
8419 8330 79
8419 8519 80
8420 8421 25
8420 8435 20
8421 8420 25
8421 8720 378
8422 8339 65
8422 8319 108
8422 8457 73
8422 8480 62
8423 8405 15
8423 8385 78
8423 8452 90
8423 8542 93
8424 8294 168
8424 8321 75
8424 8486 54
8425 8325 77
8425 8390 73
8425 8518 72
8426 8324 97
8426 8427 35
8426 8512 92
8426 8531 99
8427 8426 35
8428 8370 39
8428 8431 56
8428 8498 54
8429 8430 268
8429 8471 140
8429 8640 282
8430 8429 268
8430 8271 367
8430 8471 48
8431 8428 56
8431 8226 135
8431 8433 80
8431 8493 51
8432 8319 100
8432 8372 90
8432 8480 116
8432 8545 88
8433 8431 80
8433 8349 57
8433 8434 91
8434 8433 91
8434 8353 56
8434 8508 50
8435 8420 20
8435 8634 334
8436 8415 29
8436 8439 11
8436 8656 158
8437 8173 188
8437 8407 58
8437 8510 109
8438 8341 105
8438 8486 123
8438 8494 50
8439 8336 105
8439 8436 11
8439 8453 36
8440 8318 93
8440 8441 90
8440 8516 96
8440 8694 163
8441 8440 90
8442 8376 52
8442 8188 181
8442 9588 724
8443 8354 73
8443 8616 176
8444 8342 86
8444 8405 89
8444 8452 13
8444 8476 74
8445 8265 133
8445 8418 82
8445 8474 100
8445 8597 98
8446 8360 74
8446 8397 92
8446 8495 73
8446 8557 80
8447 8403 58
8447 8406 55
8447 8469 203
8448 8398 48
8448 8543 156
8449 8381 57
8449 8450 99
8449 8553 60
8450 8449 99
8450 8391 56
8450 8504 28
8451 8315 110
8451 8462 17
8451 8474 18
8452 8444 13
8452 8423 90
8452 8509 74
8452 8576 78
8453 8369 100
8453 8439 36
8453 8500 42
8453 8609 104
8454 8375 70
8454 8456 94
8454 8472 12
8455 8401 90
8455 8464 7
8455 8511 54
8456 8454 94
8456 8380 69
8456 8459 53
8457 8422 73
8457 8475 18
8457 8547 50
8458 8396 64
8458 8470 182
8458 8496 18
8459 8456 53
8459 8378 73
8459 8586 67
8460 8390 74
8460 8461 50
8460 8518 73
8460 8587 70
8461 8460 50
8462 8333 117
8462 8451 17
8462 8485 25
8462 8487 10
8463 8365 87
8463 8485 14
8463 8488 50
8464 8455 7
8464 8348 100
8464 8479 13
8465 8318 182
8465 8497 25
8465 8516 55
8466 8354 314
8466 8520 42
8467 8371 82
8467 8468 48
8467 8562 54
8468 8467 48
8468 8374 81
8468 8472 52
8469 8447 203
8469 8416 75
8469 8478 87
8470 8458 182
8470 8404 62
8470 8482 193
8470 8573 57
8471 8430 48
8471 8429 140
8471 8640 123
8472 8468 52
8472 8454 12
8472 8570 55
8473 8364 135
8473 8507 13
8474 8451 18
8474 8445 100
8474 8487 14
8474 8529 25
8475 8397 76
8475 8457 18
8475 8557 89
8476 8377 90
8476 8444 74
8476 8501 22
8476 8509 12
8477 8394 75
8477 23804 63
8478 8469 87
8478 8359 133
8478 8483 74
8479 8464 13
8479 8502 7
8479 8511 24
8480 8422 62
8480 8432 116
8480 8547 80
8480 8635 92
8481 8352 136
8481 8409 96
8481 8599 91
8481 8608 96
8482 8470 193
8482 8414 61
8482 8519 181
8482 8583 55
8483 8478 74
8483 8301 187
8483 8490 24
8483 8523 24
8484 8232 242
8484 8506 11
8484 8507 20
8485 8463 14
8485 8462 25
8485 8517 17
8486 8438 123
8486 8424 54
8486 8510 53
8487 8462 10
8487 8474 14
8487 8517 23
8487 8601 65
8488 8365 97
8488 8463 50
8488 8641 97
8489 8385 106
8489 8408 67
8489 8411 75
8489 8542 92
8489 8644 94
8490 8483 24
8490 8491 15
8490 8523 19
8491 8490 15
8491 8410 90
8491 8363 94
8491 8498 56
8491 8549 45
8492 8387 85
8492 8504 29
8492 8551 47
8493 8431 51
8493 8498 56
8493 8508 172
8494 8398 111
8494 8438 50
8494 8543 39
8495 8417 74
8495 8446 73
8495 8613 76
8496 8458 18
8496 8499 13
8496 8560 42
8497 8334 123
8497 8465 25
8497 8540 48
8498 8491 56
8498 8428 54
8498 8493 56
8499 8395 78
8499 8496 13
8499 8560 39
8500 8453 42
8500 8534 48
8500 8609 98
8501 8389 90
8501 8476 22
8501 8521 12
8501 8538 60
8502 8479 7
8502 8503 26
8502 8511 30
8503 8502 26
8504 8450 28
8504 8492 29
8504 8546 34
8505 8343 157
8505 8528 15
8505 8530 40
8506 8484 11
8506 8525 11
8507 8484 20
8507 8473 13
8507 8522 10
8508 8493 172
8508 8434 50
8508 8513 61
8509 8476 12
8509 8452 74
8509 8521 22
8509 8621 74
8510 8486 53
8510 8200 211
8510 8437 109
8510 8645 170
8511 8455 54
8511 8479 24
8511 8514 7
8511 8502 30
8512 8409 100
8512 8426 92
8512 8608 95
8512 8639 95
8513 8508 61
8513 8355 109
8513 8561 82
8513 8569 37
8514 8515 5
8514 8511 7
8514 8527 10
8515 8514 5
8516 8440 96
8516 8465 55
8517 8485 17
8517 8487 23
8517 8617 64
8518 8425 72
8518 8460 73
8519 8482 181
8519 8419 80
8519 8528 74
8520 8466 42
8520 8532 182
8521 8501 12
8521 8509 22
8521 8556 61
8521 8636 73
8522 8507 10
8522 8533 47
8522 8537 27
8523 8483 24
8523 8490 19
8523 8544 20
8524 8376 110
8524 8627 83
8524 8697 110
8525 8506 11
8525 8537 13
8525 8618 184
8526 8527 4
8527 8526 4
8527 8514 10
8527 8545 31
8528 8519 74
8528 8505 15
8528 8530 38
8529 8474 25
8529 8610 60
8530 8528 38
8530 8505 40
8530 8544 363
8531 8426 99
8531 8639 97
8531 8688 111
8532 8228 394
8532 8520 182
8532 8877 292
8533 8522 47
8533 8535 53
8533 8845 188
8534 8369 116
8534 8500 48
8534 8745 150
8535 8533 53
8535 8364 116
8535 8536 81
8535 8842 179
8536 8535 81
8536 8361 121
8536 8539 73
8536 8838 173
8537 8525 13
8537 8522 27
8537 8852 188
8538 8418 94
8538 8501 60
8538 8556 12
8538 8597 82
8539 8536 73
8539 8366 120
8539 8541 78
8539 8831 165
8540 8399 112
8540 8497 48
8540 8574 69
8540 8670 127
8540 8704 103
8541 8539 78
8541 8367 122
8541 8550 71
8541 8819 160
8542 8423 93
8542 8489 92
8542 8602 93
8542 8691 98
8543 8494 39
8543 8448 156
8543 8645 90
8544 8530 363
8544 8523 20
8544 8549 40
8544 8598 39
8545 8432 88
8545 8527 31
8545 8635 118
8545 8713 111
8546 8504 34
8546 8553 79
8546 8565 16
8547 8457 50
8547 8480 80
8547 8626 99
8547 8698 95
8548 8305 179
8548 8641 59
8548 9868 799
8549 8544 40
8549 8491 45
8549 8552 16
8549 8568 20
8550 8541 71
8550 8373 124
8550 8553 75
8550 8812 152
8551 8492 47
8551 8554 43
8551 8577 18
8552 8549 16
8552 8568 16
8552 8569 297
8553 8550 75
8553 8449 60
8553 8546 79
8553 8565 83
8553 8696 86
8554 8551 43
8554 8388 117
8554 8555 74
8555 8554 74
8555 8392 118
8555 8558 76
8556 8538 12
8556 8521 61
8556 8651 67
8556 8676 167
8557 8446 80
8557 8475 89
8557 8613 79
8557 8626 43
8558 8555 76
8558 8393 118
8558 8560 79
8559 8269 248
8560 8558 79
8560 8499 39
8560 8496 42
8560 8573 202
8560 8594 15
8561 8513 82
8561 8562 77
8561 8650 63
8562 8561 77
8562 8467 54
8562 8570 99
8563 8564 141
8563 8584 132
8563 8673 72
8564 8563 141
8565 8553 83
8565 8546 16
8565 8623 42
8566 8567 158
8567 8566 158
8567 8604 25
8567 8721 98
8568 8549 20
8568 8552 16
8568 8607 33
8569 8552 297
8569 8648 51
8569 8649 92
8569 8513 37
8570 8562 99
8570 8472 55
8570 8575 40
8571 8572 109
8571 8863 323
8571 8972 341
8572 8571 109
8573 8560 202
8573 8470 57
8573 8583 191
8573 8603 14
8574 8386 142
8574 8540 69
8574 8629 71
8574 8743 103
8575 8570 40
8575 8586 107
8575 8659 56
8576 8452 78
8576 8602 13
8577 8551 18
8577 8578 44
8577 8622 38
8578 8577 44
8578 8582 75
8578 8795 127
8579 8580 56
8579 8581 21
8579 8584 7
8580 8579 56
8581 8579 21
8581 8702 170
8582 8578 75
8582 8590 76
8582 8798 127
8583 8573 191
8583 8482 55
8583 8585 17
8583 8606 13
8584 8579 7
8584 8563 132
8584 8632 34
8585 8583 17
8585 8589 29
8585 8589 34
8586 8575 107
8586 8459 67
8586 8593 54
8586 8666 56
8587 8460 70
8587 8588 83
8587 8706 77
8588 8587 83
8589 8585 29
8589 8585 34
8589 8631 503
8590 8582 76
8590 8594 78
8590 8806 127
8591 8592 132
8592 8591 132
8593 8586 54
8593 8379 142
8593 8595 34
8594 8590 78
8594 8560 15
8594 8603 203
8594 8669 54
8595 8593 34
8595 8382 145
8595 8596 2
8595 8684 56
8596 8595 2
8596 8394 141
8596 8685 56
8596 23804 7
8597 8445 98
8597 8538 82
8597 8620 88
8598 8544 39
8598 8631 151
8598 8638 30
8599 8415 144
8599 8481 91
8599 8703 66
8599 8722 97
8600 8394 138
8600 8605 122
8600 8687 56
8600 23804 7
8601 8487 65
8601 8610 35
8601 8617 34
8601 8777 107
8602 8576 13
8602 8542 93
8602 8621 83
8602 8757 99
8603 8594 203
8603 8573 14
8603 8606 190
8603 8699 58
8604 8567 25
8604 8625 74
8605 8600 122
8606 8603 190
8606 8583 13
8606 8642 551
8606 8705 58
8607 8568 33
8607 8630 30
8607 8638 42
8608 8481 96
8608 8512 95
8608 8722 94
8608 8739 98
8609 8500 98
8609 8453 104
8609 8637 13
8610 8601 35
8610 8529 60
8610 8620 10
8611 8612 92
8612 8611 92
8612 8633 18
8612 8657 136
8613 8495 76
8613 8557 79
8613 8647 67
8613 8681 49
8614 8284 233
8614 8675 121
8614 8761 97
8615 8616 135
8615 8628 36
8615 8658 97
8616 8615 135
8616 8443 176
8616 8658 39
8617 8517 64
8617 8601 34
8617 8672 42
8618 8023 392
8618 8619 49
8618 8525 184
8619 8618 49
8620 8610 10
8620 8597 88
8620 8676 43
8621 8509 74
8621 8602 83
8621 8636 20
8621 8963 219
8622 8577 38
8622 8623 22
8622 8792 99
8623 8565 42
8623 8622 22
8623 8680 44
8624 8625 52
8625 8624 52
8625 8604 74
8625 8721 73
8626 8557 43
8626 8547 99
8626 8681 79
8626 8764 92
8627 8283 248
8627 8524 83
8627 8717 163
8628 8615 36
8628 8734 105
8628 9062 291
8629 8411 145
8629 8574 71
8629 8763 80
8630 8607 30
8630 8646 152
8630 8731 38
8631 8589 503
8631 8598 151
8631 8646 367
8632 8584 34
8632 8701 69
8632 8760 167
8633 8612 18
8633 8655 22
8634 8435 334
8634 8924 231
8635 8480 92
8635 8545 118
8635 8698 85
8635 8724 61
8636 8521 73
8636 8621 20
8636 8651 63
8636 8783 94
8637 8609 13
8637 8643 10
8637 8664 78
8638 8598 30
8638 8607 42
8638 8668 18
8639 8512 95
8639 8531 97
8639 8693 45
8639 8739 88
8640 8471 123
8640 8429 282
8640 8686 30
8641 8548 59
8641 8488 97
8641 8817 101
8642 8606 551
8642 8654 91
8642 8663 366
8642 8899 366
8643 8637 10
8643 8775 103
8643 8840 159
8644 8489 94
8644 8691 61
8644 8787 85
8645 8543 90
8645 8510 170
8645 8690 53
8645 8799 219
8646 8630 152
8646 8648 95
8646 8631 367
8647 8368 219
8647 8613 67
8647 8688 46
8648 8646 95
8648 8569 51
8648 8649 71
8648 8662 11
8649 8648 71
8649 8569 92
8649 8674 15
8649 8650 33
8650 8561 63
8650 8659 186
8650 8682 16
8650 8649 33
8651 8556 67
8651 8636 63
8651 8729 121
8651 8803 85
8652 8653 43
8652 8692 36
8652 8786 81
8653 8652 43
8653 8884 209
8654 8642 91
8654 8667 61
8654 8747 56
8655 8633 22
8655 8715 57
8655 8868 145
8656 8436 158
8656 8703 32
8657 8612 136
8658 8615 97
8658 8616 39
8658 8665 6
8659 8650 186
8659 8575 56
8659 8666 106
8660 8661 42
8660 8664 41
8660 8932 216
8661 8660 42
8661 8752 65
8661 8759 66
8661 8874 125
8662 8663 94
8662 8648 11
8662 8674 78
8662 8778 58
8663 8662 94
8663 8732 137
8663 8642 366
8663 8899 366
8664 8660 41
8664 8637 78
8664 8840 91
8665 8658 6
8665 8725 51
8665 8734 36
8666 8659 106
8666 8586 56
8666 8684 85
8667 8654 61
8667 8668 11
8667 8695 9
8668 8667 11
8668 8638 18
8669 8594 54
8669 8689 147
8669 8809 73
8670 8540 127
8670 8671 67
8670 8824 111
8671 8670 67
8671 8694 93
8672 8617 42
8672 8728 70
8672 8744 35
8673 8563 72
8674 8662 78
8674 8649 15
8674 8765 51
8674 8682 34
8675 8614 121
8676 8620 43
8676 8556 167
8676 8746 34
8677 8678 18
8677 8679 61
8677 8740 36
8678 8677 18
8679 8677 61
8680 8623 44
8680 8696 119
8680 8791 61
8681 8613 49
8681 8626 79
8681 8774 115
8681 8832 90
8682 8650 16
8682 8683 29
8682 8719 21
8682 8674 34
8683 8682 29
8683 8707 340
8683 8719 27
8684 8666 85
8684 8595 56
8684 8685 4
8684 8707 12
8685 8684 4
8685 8596 56
8685 8687 14
8686 8640 30
8686 8711 32
8686 8716 49
8687 8685 14
8687 8600 56
8687 8711 325
8688 8531 111
8688 8647 46
8688 8774 55
8688 8780 86
8689 8669 147
8689 8699 56
8689 8818 71
8690 8645 53
8690 8749 32
8690 8773 97
8691 8542 98
8691 8644 61
8691 8757 99
8691 8862 105
8692 8652 36
8692 8726 37
8692 8816 78
8693 8639 45
8694 8671 93
8694 8440 163
8694 9204 349
8695 8667 9
8695 8964 213
8695 8738 35
8696 8553 86
8696 8680 119
8696 8804 61
8697 8524 110
8697 8712 94
8697 8826 76
8698 8547 95
8698 8635 85
8698 8764 86
8698 8790 61
8699 8689 56
8699 8603 58
8699 8700 89
8699 8908 130
8700 8699 89
8700 8705 99
8700 8897 126
8701 8632 69
8702 8581 170
8702 8718 13
8702 8740 46
8703 8656 32
8703 8599 66
8703 8775 45
8703 8847 97
8704 8540 103
8704 8743 67
8704 8875 114
8705 8700 99
8705 8606 58
8705 8710 76
8705 8890 117
8706 8587 77
8706 8726 138
8706 8822 71
8707 8683 340
8707 8684 12
8707 8708 4
8707 8800 55
8708 8707 4
8708 8709 15
8708 8802 55
8709 8708 15
8709 8735 356
8709 8805 55
8710 8705 76
8710 8723 195
8710 8906 149
8711 8687 325
8711 8686 32
8711 8716 74
8712 8697 94
8712 8717 131
8712 8728 173
8713 8545 111
8713 8714 51
8713 8811 118
8713 8859 98
8714 8713 51
8715 8655 57
8715 8748 196
8715 8772 36
8716 8711 74
8716 8686 49
8716 8717 3
8717 8716 3
8717 8627 163
8717 8712 131
8718 8702 13
8718 8730 8
8718 8793 147
8719 8682 21
8719 8683 27
8719 8769 89
8720 8421 378
8721 8625 73
8721 8567 98
8721 8745 17
8721 8868 102
8722 8599 97
8722 8608 94
8722 8844 93
8722 8847 83
8723 8710 195
8723 8727 85
8723 8829 81
8724 8635 61
8724 8790 85
8724 8811 55
8725 8665 51
8726 8692 37
8726 8706 138
8726 8849 79
8727 8723 85
8727 8733 56
8727 8885 136
8728 8672 70
8728 8712 173
8729 8651 121
8729 8755 46
8729 8870 91
8730 8718 8
8731 8732 35
8731 8737 42
8731 8630 38
8732 8731 35
8732 8663 137
8732 8750 13
8733 8727 56
8733 8741 125
8733 8758 23
8734 8628 105
8734 8665 36
8734 8751 8
8735 8709 356
8735 8736 58
8735 8794 141
8735 8839 59
8736 8735 58
8736 8742 113
8736 8794 90
8737 8738 20
8737 8731 42
8737 8767 41
8738 8737 20
8738 8766 36
8738 8695 35
8739 8608 98
8739 8639 88
8739 8844 95
8739 8858 97
8740 8702 46
8740 8677 36
8740 8851 78
8741 8733 125
8741 8747 74
8741 8843 81
8742 8736 113
8742 8826 112
8742 8754 179
8743 8574 103
8743 8704 67
8743 8801 87
8743 8931 125
8744 8672 35
8744 8753 58
8744 8756 12
8745 8721 17
8745 8534 150
8745 8752 9
8745 8873 99
8746 8676 34
8746 8770 19
8746 8777 37
8747 8741 74
8747 8654 56
8747 8891 129
8748 8715 196
8748 8814 187
8749 8690 32
8749 8785 30
8749 8808 48
8750 8732 13
8750 8767 32
8750 8768 19
8751 8734 8
8751 8828 81
8751 8836 58
8752 8745 9
8752 8661 65
8752 8759 5
8752 8876 98
8753 8754 14
8753 8744 58
8753 8817 168
8754 8753 14
8754 8742 179
8755 8729 46
8755 8770 30
8755 8905 96
8756 8744 12
8756 8776 22
8756 9052 267
8757 8602 99
8757 8691 99
8757 8904 105
8758 8733 23
8758 8843 71
8758 8968 170
8759 8752 5
8759 8661 66
8759 8883 101
8760 8632 167
8761 8614 97
8761 8813 28
8762 8763 44
8762 7981 447
8763 8762 44
8763 8629 80
8763 8801 25
8764 8626 92
8764 8698 86
8764 8832 84
8764 8856 61
8765 8674 51
8765 8789 17
8766 8738 36
8766 8767 87
8766 8900 129
8767 8766 87
8767 8737 41
8767 8750 32
8767 8835 49
8768 8750 19
8768 8771 120
8768 8797 24
8769 8719 89
8769 8796 122
8770 8746 19
8770 8755 30
8770 8779 23
8770 8850 45
8771 8768 120
8771 8778 63
8771 8925 99
8772 8715 36
8772 8814 33
8772 8948 122
8773 8690 97
8773 8813 51
8773 8914 90
8774 8688 55
8774 8681 115
8774 8837 82
8774 8901 93
8775 8643 103
8775 8703 45
8775 8893 85
8776 8756 22
8776 8781 28
8776 8853 46
8777 8601 107
8777 8746 37
8777 8779 1
8777 8781 7
8778 8771 63
8778 8662 58
8778 8782 25
8778 8815 28
8779 8777 1
8779 8770 23
8779 8781 7
8779 8834 28
8780 8688 86
8780 8837 35
8780 8858 79
8781 8777 7
8781 8779 7
8781 8776 28
8782 8778 25
8782 8784 38
8782 8815 24
8783 8636 94
8783 8825 63
8783 8916 92
8784 8782 38
8784 8789 51
8784 8951 147
8785 8749 30
8786 8652 81
8787 8644 85
8787 8788 62
8787 8821 20
8788 8787 62
8788 7977 440
8789 8784 51
8789 8765 17
8789 8833 135
8790 8698 61
8790 8724 85
8790 8807 21
8790 8869 57
8791 8680 61
8791 8804 123
8791 8880 60
8792 8622 99
8792 8864 73
8792 8969 110
8793 8718 147
8794 8735 141
8794 8736 90
8794 8939 97
8794 8977 121
8795 8578 127
8795 8798 73
8795 8864 43
8796 8769 122
8796 8800 156
8796 8888 79
8796 23807 47
8797 8768 24
8797 8835 41
8797 8935 119
8798 8795 73
8798 8582 127
8798 8806 76
8798 8911 74
8799 8645 219
8800 8796 156
8800 8707 55
8800 8802 4
8800 8887 59
8801 8763 25
8801 8743 87
8801 8898 72
8802 8800 4
8802 8708 55
8802 8805 14
8802 8886 59
8803 8651 85
8803 8825 12
8803 8846 63
8804 8696 61
8804 8791 123
8804 8812 71
8804 8892 62
8805 8802 14
8805 8709 55
8805 8810 48
8805 9026 142
8806 8798 76
8806 8590 127
8806 8809 79
8806 8952 92
8807 8790 21
8807 8841 67
8807 8841 40
8808 8749 48
8808 8920 75
8808 8980 126
8809 8806 79
8809 8669 73
8809 8818 146
8809 8946 84
8810 8805 48
8810 8820 144
8810 8902 65
8811 8724 55
8811 8713 118
8811 8869 84
8811 8872 48
8812 8550 152
8812 8804 71
8812 8819 73
8812 9022 138
8813 8761 28
8813 8773 51
8813 8859 81
8813 8930 82
8814 8748 187
8814 8772 33
8814 8986 111
8815 8778 28
8815 8782 24
8815 8925 99
8816 8692 78
8817 8641 101
8817 8753 168
8817 8949 86
8818 8809 146
8818 8689 71
8818 8917 68
8819 8541 160
8819 8812 73
8819 8831 73
8819 8903 61
8820 8810 144
8820 8827 58
8820 8913 64
8821 8787 20
8821 8862 61
8821 8871 37
8822 8706 71
8822 8823 40
8822 8861 63
8822 8929 72
8823 8822 40
8824 8670 111
8824 8875 89
8824 8907 60
8825 8803 12
8825 8783 63
8825 8959 91
8826 8697 76
8826 8742 112
8826 8939 76
8827 8820 58
8827 8839 109
8827 8922 64
8828 8751 81
8829 8830 61
8829 8723 81
8829 8885 67
8829 9044 186
8830 8829 61
8830 8973 183
8831 8539 165
8831 8819 73
8831 8838 68
8832 8681 90
8832 8764 84
8832 8901 113
8832 8999 121
8833 8789 135
8833 8860 73
8833 23807 73
8833 8951 109
8834 8779 28
8834 8850 25
8834 8853 27
8834 9920 618
8835 8767 49
8835 8797 41
8835 8978 148
8836 8751 58
8836 8878 44
8836 8884 82
8837 8780 35
8837 8774 82
8837 8960 92
8838 8536 173
8838 8831 68
8838 8842 81
8838 8927 60
8839 8827 109
8839 8735 59
8839 8848 83
8839 8942 66
8840 8664 91
8840 8643 159
8840 8918 58
8841 8807 67
8841 8807 40
8841 8856 26
8842 8535 179
8842 8838 81
8842 8845 12
8843 8758 71
8843 8741 81
8843 8891 59
8843 9040 171
8844 8722 93
8844 8739 95
8844 8909 114
8844 8955 99
8845 8533 188
8845 8842 12
8845 8852 78
8846 8803 63
8846 8870 62
8846 8992 103
8847 8703 97
8847 8722 83
8847 8909 47
8848 8839 83
8848 8975 86
8849 8726 79
8850 8834 25
8850 8770 45
8850 8928 51
8851 8740 78
8851 8857 37
8851 9067 169
8852 8537 188
8852 8845 78
8852 8857 96
8852 8947 60
8853 8776 46
8853 8834 27
8853 9284 259
8854 8855 231
8855 8854 231
8856 8764 61
8856 8841 26
8856 8936 58
8857 8852 96
8857 8851 37
8857 8965 67
8858 8739 97
8858 8780 79
8858 8955 93
8859 8713 98
8859 8813 81
8859 8950 115
8859 8979 86
8860 8833 73
8860 23807 73
8860 8943 64
8860 8991 119
8861 8822 63
8862 8691 105
8862 8821 61
8862 8904 89
8862 9025 115
8863 8571 323
8863 9518 581
8864 8792 73
8864 8795 43
8864 8879 27
8865 8866 120
8865 8867 61
8865 8997 239
8866 8865 120
8867 8865 61
8868 8655 145
8868 8721 102
8868 8873 4
8868 8896 26
8869 8790 57
8869 8811 84
8869 8882 27
8869 8941 49
8870 8729 91
8870 8846 62
8870 8905 69
8870 9023 103
8871 8821 37
8871 8985 79
8872 8811 48
8872 8941 83
8872 8950 51
8873 8868 4
8873 8745 99
8873 8876 2
8873 8896 24
8874 8661 125
8874 8957 81
8874 9094 248
8875 8704 114
8875 8824 89
8875 8931 70
8875 8961 55
8876 8873 2
8876 8752 98
8876 8883 12
8876 8896 24
8877 8532 292
8877 9167 326
8877 9163 331
8878 8836 44
8878 8945 39
8878 8958 89
8879 8864 27
8879 8911 55
8879 8938 42
8880 8791 60
8880 8892 117
8880 8970 52
8881 7140 1766
8881 7581 5541
8881 9170 539
8882 8869 27
8882 8936 59
8882 8941 67
8883 8876 12
8883 8759 101
8883 8926 46
8883 8957 53
8884 8836 82
8884 8653 209
8884 8958 46
8885 8829 67
8885 8727 136
8885 8968 68
8885 9114 186
8886 8802 59
8886 8887 3
8886 9026 84
8887 8800 59
8887 8886 3
8887 8889 46
8887 9138 156
8888 8796 79
8888 8889 59
8888 8923 22
8889 8888 59
8889 8887 46
8889 9024 82
8890 8705 117
8890 8897 95
8890 8906 13
8890 8934 21
8891 8843 59
8891 8747 129
8891 8964 56
8891 9096 172
8892 8804 62
8892 8880 117
8892 9010 69
8893 8775 85
8893 9039 107
8893 9094 161
8894 8895 49
8895 8894 49
8895 8982 56
8895 9001 89
8896 8868 26
8896 8873 24
8896 8876 24
8897 8700 126
8897 8890 95
8897 8908 80
8897 9061 100
8898 8801 72
8898 8976 51
8899 8900 216
8899 8642 366
8899 8663 366
8900 8899 216
8900 8766 129
8900 8966 46
8901 8774 93
8901 8832 113
8901 8962 78
8901 9233 224
8902 8810 65
8902 8912 118
8902 9004 60
8903 8819 61
8903 8910 49
8903 9047 87
8904 8757 105
8904 8862 89
8904 8963 87
8904 9077 114
8905 8755 96
8905 8870 69
8905 8928 31
8905 9068 102
8906 8890 13
8906 8710 149
8906 8934 16
8906 8973 57
8907 8824 60
8907 8961 73
8907 9018 68
8908 8699 130
8908 8897 80
8908 8917 65
8908 9070 100
8909 8847 47
8909 8844 114
8909 9133 141
8910 8903 49
8910 8919 47
8910 9058 94
8911 8879 55
8911 8798 74
8911 8952 80
8912 8902 118
8912 8913 36
8912 9015 60
8913 8912 36
8913 8820 64
8913 8921 10
8914 8773 90
8914 8915 48
8914 8930 10
8914 8953 20
8915 8914 48
8915 8920 29
8915 9033 98
8916 8783 92
8916 8959 68
8916 9139 151
8917 8818 68
8917 8908 65
8917 8937 89
8917 9034 73
8918 8840 58
8918 8932 10
8919 8910 47
8919 8927 48
8919 9076 100
8920 8915 29
8920 8808 75
8920 8994 54
8920 9031 71
8921 8913 10
8921 8922 37
8921 9016 60
8922 8921 37
8922 8827 64
8922 8942 108
8922 9021 63
8923 8888 22
8923 8956 33
8923 9024 77
8924 8634 231
8924 9005 79
8924 9014 55
8925 8771 99
8925 8815 99
8925 8944 8
8926 8883 46
8926 8948 39
8926 9003 60
8927 8838 60
8927 8919 48
8927 8933 51
8927 9087 106
8928 8850 51
8928 8905 31
8928 9123 128
8929 8822 72
8929 8974 70
8930 8813 82
8930 8914 10
8930 8953 17
8930 8979 83
8931 8743 125
8931 8875 70
8931 8976 86
8931 8993 49
8932 8918 10
8932 8660 216
8932 9039 93
8933 8927 51
8933 8940 49
8933 9104 114
8934 8890 21
8934 8906 16
8934 8967 20
8935 8797 119
8935 8954 23
8935 8971 29
8936 8856 58
8936 8882 59
8936 8999 93
8936 9075 105
8937 8917 89
8937 8946 57
8937 8995 47
8938 8879 42
8938 8969 49
8938 8983 33
8939 8794 97
8939 8826 76
8939 9085 104
8940 8933 49
8940 8947 66
8940 9120 122
8941 8869 49
8941 8872 83
8941 8882 67
8941 9011 52
8942 8922 108
8942 8839 66
8942 9030 58
8943 8860 64
8943 8956 11
8943 9057 109
8944 8925 8
8944 8954 8
8945 8878 39
8945 9000 89
8945 9017 63
8946 8809 84
8946 8937 57
8946 8952 82
8946 9081 92
8947 8852 60
8947 8940 66
8947 9135 130
8948 8772 122
8948 8926 39
8948 9013 71
8948 9046 70
8949 8817 86
8949 9052 73
8949 9677 450
8950 8872 51
8950 8859 115
8950 9011 85
8950 9053 83
8951 8784 147
8951 8833 109
8951 9006 52
8952 8911 80
8952 8806 92
8952 8946 82
8952 9020 44
8953 8930 17
8953 8914 20
8953 9033 59
8953 9063 72
8954 8935 23
8954 8944 8
8954 9107 148
8955 8844 99
8955 8858 93
8955 9065 94
8955 9173 176
8956 8943 11
8956 8923 33
8956 9019 52
8957 8883 53
8957 8874 81
8957 9003 51
8957 9073 98
8958 8878 89
8958 8884 46
8958 9000 33
8959 8825 91
8959 8916 68
8959 8992 64
8959 9080 86
8960 8837 92
8960 8962 1
8961 8875 55
8961 8907 73
8961 8993 66
8961 9049 64
8962 8960 1
8962 8901 78
8962 9009 70
8962 9032 53
8963 8621 219
8963 8904 87
8963 9124 116
8964 8891 56
8964 8695 213
8964 9158 172
8965 8857 67
8966 8900 46
8966 9119 136
8966 9339 234
8967 8934 20
8967 9054 66
8967 9056 61
8968 8885 68
8968 8758 170
8968 9040 70
8968 9179 187
8969 8792 110
8969 8938 49
8969 9345 224
8970 8880 52
8970 8990 56
8970 9347 221
8971 8935 29
8971 9132 155
8971 8347 559
8972 8571 341
8972 9008 300
8972 9384 284
8973 8906 57
8973 8830 183
8973 9044 64
8974 8929 70
8974 8996 16
8975 8848 86
8975 8977 44
8976 8898 51
8976 8931 86
8976 8985 24
8976 9007 24
8976 9066 60
8977 8975 44
8977 8794 121
8977 9037 38
8978 8835 148
8978 9322 288
8978 8357 548
8979 8859 86
8979 8930 83
8979 9053 103
8979 9095 82
8980 8808 126
8980 8981 28
8980 8981 28
8980 8989 21
8980 8989 21
8981 8980 28
8981 8980 28
8982 8895 56
8983 8938 33
8983 8984 63
8983 9225 149
8984 8983 63
8984 9038 38
8985 8871 79
8985 8976 24
8985 9007 13
8985 9025 62
8986 8814 111
8986 9013 29
8987 8988 55
8987 8996 15
8987 9012 69
8988 8987 55
8989 8980 21
8989 8980 21
8989 8994 29
8989 8994 29
8989 9091 75
8990 8970 56
8990 9010 52
8990 9069 52
8991 8860 119
8991 9057 63
8992 8846 103
8992 8959 64
8992 9023 61
8992 9109 81
8993 8931 49
8993 8961 66
8993 9082 63
8994 8920 54
8994 8989 29
8994 8989 29
8994 9031 46
8994 9031 46
8995 8937 47
8995 8998 13
8996 8974 16
8996 8987 15
8996 9071 52
8997 8865 239
8997 9001 94
8997 9108 181
8998 8995 13
8998 9034 69
8998 9283 163
8999 8832 121
8999 8936 93
8999 9157 108
9000 8945 89
9000 8958 33
9000 9090 61
9001 8895 89
9001 9002 62
9001 8997 94
9002 9001 62
9003 8926 60
9003 8957 51
9003 9046 50
9003 9130 103
9004 8902 60
9004 9015 116
9004 9099 62
9005 8924 79
9005 9012 139
9005 9042 55
9006 8951 52
9006 9074 66
9006 9101 90
9007 8985 13
9007 8976 24
9007 9043 63
9007 9072 46
9008 8972 300
9009 8962 70
9009 9065 84
9009 9079 56
9010 8892 69
9010 8990 52
9010 9022 71
9011 8941 52
9011 8950 85
9011 9075 87
9011 9122 82
9012 8987 69
9012 9005 139
9012 9029 36
9013 8986 29
9013 8948 71
9013 9117 74
9014 8924 55
9014 9287 245
9015 9004 116
9015 8912 60
9015 9016 46
9015 9102 60
9016 9015 46
9016 8921 60
9016 9021 33
9016 9060 38
9017 8945 63
9017 9055 44
9017 9090 120
9018 8907 68
9018 9049 56
9018 9147 84
9019 8956 52
9019 9113 72
9019 9126 104
9020 8952 44
9020 9038 92
9020 9089 46
9021 9016 33
9021 8922 63
9021 9030 113
9021 9116 62
9022 8812 138
9022 9010 71
9022 9047 73
9023 8870 103
9023 8992 61
9023 9068 89
9023 9118 65
9024 8923 77
9024 8889 82
9024 9138 86
9025 8862 115
9025 8985 62
9025 9043 11
9025 9077 90
9026 8886 84
9026 8805 142
9026 9159 85
9026 23804 264
9027 9028 149
9028 9027 149
9028 9048 61
9028 9067 34
9029 9012 36
9030 9021 113
9030 8942 58
9030 9037 125
9030 9125 65
9031 8920 71
9031 8994 46
9031 8994 46
9031 9041 14
9031 9041 14
9031 9059 21
9032 8962 53
9032 9079 67
9032 9150 85
9033 8953 59
9033 8915 98
9033 9041 4
9033 9045 5
9034 8998 69
9034 8917 73
9034 9078 26
9035 9036 62
9036 9035 62
9037 9030 125
9037 8977 38
9037 9143 74
9038 8984 38
9038 9020 92
9038 9212 109
9039 8932 93
9039 8893 107
9039 9094 44
9040 8968 70
9040 8843 171
9040 9096 55
9040 9285 186
9041 9033 4
9041 9031 14
9041 9031 14
9041 9045 3
9041 9045 3
9041 9059 16
9042 9005 55
9043 9025 11
9043 9007 63
9043 9093 91
9043 9189 104
9044 8973 64
9044 8829 186
9044 9114 70
9045 9033 5
9045 9041 3
9045 9041 3
9045 9063 32
9045 9063 32
9045 9208 105
9046 8948 70
9046 9003 50
9046 9117 120
9046 9180 103
9047 8903 87
9047 9022 73
9047 9058 47
9047 9144 64
9048 9028 61
9049 8961 64
9049 9018 56
9049 9064 25
9050 9051 95
9051 9050 95
9051 9084 62
9051 9100 36
9052 8949 73
9052 8756 267
9052 9141 59
9053 8950 83
9053 8979 103
9053 9122 94
9053 9169 81
9054 8967 66
9054 9061 80
9054 9244 112
9055 9017 44
9055 9062 9
9055 9161 157
9056 8967 61
9056 9088 25
9056 9103 31
9057 8991 63
9057 8943 109
9058 8910 94
9058 9047 47
9058 9076 49
9059 9041 16
9059 9031 21
9059 9152 65
9059 9203 91
9060 9016 38
9060 9102 37
9060 9105 31
9061 8897 100
9061 9054 80
9061 9070 80
9061 9255 110
9062 8628 291
9062 9055 9
9062 9115 44
9063 8953 72
9063 9045 32
9063 9045 32
9063 9095 48
9063 9095 48
9063 9202 88
9064 9049 25
9064 9082 38
9064 9195 92
9065 8955 94
9065 9009 84
9065 9134 60
9065 9193 174
9066 8976 60
9066 9106 29
9066 9129 50
9067 9028 34
9067 8851 169
9067 9086 21
9068 8905 102
9068 9023 89
9068 9121 35
9069 8990 52
9069 9144 190
9069 9155 55
9070 8908 100
9070 9061 80
9070 9078 63
9070 9263 109
9071 8996 52
9071 9100 47
9072 9007 46
9072 9142 50
9072 9154 55
9073 8957 98
9073 9130 55
9073 9166 103
9074 9006 66
9074 9209 122
9075 8936 105
9075 9011 87
9075 9157 109
9075 9185 78
9076 8919 100
9076 9058 49
9076 9087 46
9077 8904 114
9077 9025 90
9077 9093 14
9077 9124 90
9078 9034 26
9078 9070 63
9078 9274 109
9079 9009 56
9079 9032 67
9079 9134 76
9079 9190 83
9080 8959 86
9080 9109 65
9080 9177 65
9081 8946 92
9081 9089 84
9081 9258 100
9082 8993 63
9082 9064 38
9082 9129 84
9082 9242 99
9083 9084 62
9084 9083 62
9084 9051 62
9084 9131 33
9085 8939 104
9085 9146 52
9085 9191 70
9086 9067 21
9086 9108 74
9086 9174 64
9087 8927 106
9087 9076 46
9087 9104 51
9088 9056 25
9088 9103 19
9088 9232 128
9089 9020 46
9089 9081 84
9089 9171 51
9090 9017 120
9090 9000 61
9090 9161 44
9091 8989 75
9091 9092 50
9091 9152 83
9091 9256 162
9092 9091 50
9093 9077 14
9093 9043 91
9093 9148 90
9093 9262 102
9094 9039 44
9094 8893 161
9094 8874 248
9095 8979 82
9095 9063 48
9095 9063 48
9095 9169 102
9095 9169 102
9095 9202 77
9096 9040 55
9096 8891 172
9096 9158 57
9096 9342 184
9097 9098 53
9097 9112 39
9098 9097 53
9098 9112 9
9098 9110 113
9099 9004 62
9099 9102 117
9099 9201 62
9100 9051 36
9100 9071 47
9100 9131 63
9101 9006 90
9101 9107 24
9101 9132 30
9102 9099 117
9102 9015 60
9102 9060 37
9102 9105 39
9102 9211 65
9103 9056 31
9103 9088 19
9103 9243 79
9104 8933 114
9104 9087 51
9104 9120 48
9104 9186 54
9105 9102 39
9105 9060 31
9105 9116 40
9105 9206 61
9106 9066 29
9106 23809 194
9107 8954 148
9107 9101 24
9108 9086 74
9108 8997 181
9108 9235 80
9109 8992 81
9109 9080 65
9109 9118 64
9110 9111 72
9110 9098 113
9110 9196 57
9111 9110 72
9111 9326 181
9112 9098 9
9112 9097 39
9112 9196 102
9113 9019 72
9113 9175 51
9113 9213 88
9114 9044 70
9114 8885 186
9114 9179 66
9115 9062 44
9115 9163 70
9115 9222 89
9115 9259 182
9116 9105 40
9116 9021 62
9116 9125 113
9116 9206 73
9117 9013 74
9117 9046 120
9117 9145 23
9117 9168 36
9118 9023 65
9118 9109 64
9118 9121 103
9118 9210 55
9119 8966 136
9119 9181 59
9119 9355 159
9120 8940 122
9120 9104 48
9120 9135 57
9121 9068 35
9121 9118 103
9121 9123 42
9121 9223 60
9122 9011 82
9122 9053 94
9122 9185 90
9122 9224 65
9123 8928 128
9123 9121 42
9123 9216 55
9124 8963 116
9124 9077 90
9124 9139 21
9124 9148 13
9125 9116 113
9125 9030 65
9125 9143 102
9125 9240 62
9126 9019 104
9126 9213 70
9127 9128 49
9127 8060 664
9127 8109 664
9128 9127 49
9128 9216 51
9128 9323 106
9129 9066 50
9129 9082 84
9129 9356 133
9130 9003 103
9130 9073 55
9130 9180 66
9130 9275 87
9131 9084 33
9131 9100 63
9131 9160 40
9132 8971 155
9132 9101 30
9132 9209 62
9133 8909 141
9133 9149 13
9133 9173 83
9134 9065 60
9134 9079 76
9134 9269 84
9135 8947 130
9135 9120 57
9135 9151 61
9135 9239 59
9136 9137 168
9136 9140 8
9137 9136 168
9138 9024 86
9138 8887 156
9138 9159 13
9138 9182 22
9139 8916 151
9139 9124 21
9139 9156 11
9139 9177 69
9140 9136 8
9140 9200 44
9140 9248 92
9141 9052 59
9141 9162 15
9141 9194 98
9142 9072 50
9142 9835 295
9143 9125 102
9143 9037 74
9143 9146 13
9143 9247 59
9144 9047 64
9144 9069 190
9144 9176 84
9145 9117 23
9145 9168 34
9145 9178 38
9146 9143 13
9146 9085 52
9146 9191 33
9147 9018 84
9147 9195 60
9147 9389 149
9148 9124 13
9148 9093 90
9148 9156 21
9148 9652 305
9149 9133 13
9149 9166 206
9149 9251 62
9150 9032 85
9150 9190 58
9150 9299 88
9151 9135 61
9151 9153 43
9151 9260 60
9152 9059 65
9152 9091 83
9152 9203 59
9152 9256 60
9153 9151 43
9153 9172 100
9153 9268 58
9154 9072 55
9154 9189 54
9154 9379 134
9155 9069 55
9155 9250 51
9155 9279 258
9156 9139 11
9156 9148 21
9156 9198 67
9156 9671 306
9157 8999 108
9157 9075 109
9157 9233 99
9157 9310 85
9158 9096 57
9158 8964 172
9158 9405 184
9159 9138 13
9159 9026 85
9159 9197 27
9159 23808 4
9160 9131 40
9160 9328 96
9161 9055 157
9161 9090 44
9161 9259 51
9162 9141 15
9162 9217 92
9162 9586 251
9163 9115 70
9163 8877 331
9163 9222 33
9164 9165 35
9164 9186 66
9164 9318 79
9165 9164 35
9165 9176 18
9166 9073 103
9166 9149 206
9166 9275 93
9166 9395 139
9167 8877 326
9167 9187 35
9167 9253 58
9168 9145 34
9168 9117 36
9168 9291 69
9169 9053 81
9169 9095 102
9169 9095 102
9169 9207 42
9169 9207 42
9170 8881 539
9170 9237 490
9170 9710 325
9171 9089 51
9171 9192 40
9172 9153 100
9172 9188 53
9172 9304 65
9173 9133 83
9173 8955 176
9173 9193 11
9174 9086 64
9175 9113 51
9175 9199 15
9175 9182 15
9176 9165 18
9176 9144 84
9176 9279 51
9177 9080 65
9177 9139 69
9177 9198 13
9177 9210 146
9178 9145 38
9178 9204 28
9178 9327 84
9179 9114 66
9179 8968 187
9179 9218 30
9179 9285 70
9180 9046 103
9180 9130 66
9180 9291 123
9180 9336 93
9181 9119 59
9181 9346 109
9181 9453 150
9182 9183 9
9182 9138 22
9182 23808 9
9182 9175 15
9183 9182 9
9183 9184 8
9183 9199 9
9183 9219 16
9184 9183 8
9184 9236 40
9184 23808 40
9185 9075 78
9185 9122 90
9185 9311 100
9185 9350 100
9186 9104 54
9186 9164 66
9186 9316 63
9187 9167 35
9187 9290 53
9187 9298 154
9188 9172 53
9188 9229 87
9188 9486 167
9189 9043 104
9189 9154 54
9189 9262 87
9189 9425 133
9190 9079 83
9190 9150 58
9190 9269 72
9191 9146 33
9191 9085 70
9191 9404 119
9192 9171 40
9192 9212 54
9192 9313 59
9193 9173 11
9193 9065 174
9193 9251 56
9193 9337 122
9194 9141 98
9194 9217 22
9194 9226 19
9195 9064 92
9195 9147 60
9195 9242 44
9196 9112 102
9196 9110 57
9196 9413 115
9197 9159 27
9197 9201 39
9197 9236 26
9197 9301 63
9198 9177 13
9198 9156 67
9198 9264 309
9198 9370 103
9199 9175 15
9199 9183 9
9199 9219 11
9199 9309 76
9200 9140 44
9200 9294 46
9200 9332 111
9201 9197 39
9201 9099 62
9201 9211 117
9201 9301 48
9202 9095 77
9202 9063 88
9202 9205 2
9202 9289 41
9203 9059 91
9203 9152 59
9203 9208 8
9203 9293 42
9204 8694 349
9204 9178 28
9204 9363 81
9205 9202 2
9205 9208 13
9206 9105 61
9206 9116 73
9206 9211 36
9207 9169 42
9207 9169 42
9207 9224 58
9207 9224 58
9208 9045 105
9208 9203 8
9208 9205 13
9208 9292 40
9209 9132 62
9209 9074 122
9209 9308 66
9210 9118 55
9210 9177 146
9210 9223 109
9211 9201 117
9211 9102 65
9211 9206 36
9211 9349 72
9212 9038 109
9212 9192 54
9212 9231 39
9213 9126 70
9213 9113 88
9213 9309 66
9214 9215 1658
9215 9214 1658
9215 9237 12
9215 13075 3587
9216 9128 51
9216 9123 55
9216 9223 48
9216 9264 21
9217 9162 92
9217 9194 22
9217 9246 14
9218 9179 30
9218 9230 47
9219 9199 11
9219 9183 16
9219 9236 11
9219 9815 334
9220 9221 73
9220 9325 54
9221 9220 73
9221 8108 662
9221 8285 662
9222 9163 33
9222 9115 89
9222 9238 10
9222 9377 254
9223 9121 60
9223 9210 109
9223 9216 48
9224 9122 65
9224 9207 58
9224 9207 58
9224 9333 103
9224 9333 103
9225 8983 149
9225 9231 24
9226 9194 19
9226 9234 5
9226 9249 119
9227 9228 51
9228 9227 51
9229 9188 87
9229 9235 20
9229 9507 161
9230 9218 47
9230 9232 25
9230 9252 17
9231 9225 24
9231 9212 39
9231 9353 63
9232 9088 128
9232 9230 25
9232 9243 116
9232 9252 12
9233 8901 224
9233 9157 99
9233 9299 72
9234 9226 5
9234 9246 18
9234 9479 141
9235 9108 80
9235 9229 20
9235 9254 45
9236 9219 11
9236 9197 26
9236 9435 136
9236 9566 183
9236 9184 40
9236 23808 40
9237 9215 12
9237 9170 490
9238 9222 10
9238 9315 73
9238 9365 82
9239 9135 59
9239 9260 55
9239 9583 225
9240 9241 117
9240 9125 62
9240 9245 64
9241 9240 117
9241 9495 151
9242 9082 99
9242 9195 44
9242 9314 36
9243 9103 79
9243 9232 116
9243 9244 10
9243 9385 78
9244 9054 112
9244 9243 10
9244 9255 78
9244 9381 77
9245 9240 64
9245 9247 27
9245 9493 171
9246 9217 14
9246 9234 18
9246 9485 143
9247 9245 27
9247 9143 59
9247 9587 206
9248 9140 92
9249 9226 119
9250 9155 51
9250 9273 38
9251 9149 62
9251 9193 56
9251 9317 69
9252 9232 12
9252 9230 17
9252 9380 113
9252 9397 105
9253 9167 58
9253 9261 5
9253 9290 51
9254 9235 45
9254 9270 59
9254 9524 163
9255 9061 110
9255 9244 78
9255 9263 80
9255 9403 84
9256 9257 49
9256 9152 60
9256 9091 162
9256 9267 6
9257 9256 49
9258 9081 100
9258 9276 30
9258 9278 61
9258 9286 12
9259 9115 182
9259 9161 51
9259 9271 5
9260 9151 60
9260 9239 55
9260 9268 51
9260 9452 114
9261 9253 5
9261 9391 126
9261 9422 380
9262 9093 102
9262 9189 87
9262 9480 133
9263 9070 109
9263 9255 80
9263 9274 64
9263 9471 122
9264 9216 21
9264 9198 309
9264 9323 34
9265 9266 1124
9266 9265 1124
9267 9256 6
9267 9297 17
9268 9153 58
9268 9260 51
9268 9304 97
9268 9423 91
9269 9134 84
9269 9190 72
9269 9305 20
9270 9254 59
9270 9277 52
9270 9538 161
9271 9259 5
9271 9272 130
9271 9348 47
9272 9271 130
9272 9280 100
9273 9250 38
9273 9300 73
9273 9419 87
9274 9078 109
9274 9263 64
9274 9282 49
9275 9130 87
9275 9166 93
9275 9336 66
9275 9461 126
9276 9258 30
9276 9313 85
9277 9270 52
9277 9307 18
9278 9258 61
9278 9283 10
9278 9288 13
9279 9176 51
9279 9155 258
9279 9341 59
9279 9360 50
9280 9272 100
9280 9281 162
9281 9280 162
9281 9295 13
9281 9328 110
9282 9274 49
9282 9283 17
9282 9296 14
9283 9278 10
9283 8998 163
9283 9282 17
9283 9288 6
9284 8853 259
9284 9325 27
9284 9735 263
9285 9179 70
9285 9040 186
9285 9342 54
9285 9380 79
9286 9258 12
9286 9306 62
9286 9331 113
9286 9412 73
9287 9014 245
9287 9328 86
9288 9278 13
9288 9283 6
9288 9296 7
9288 9306 20
9289 9202 41
9289 9292 10
9289 9319 170
9289 9376 53
9290 9187 53
9290 9253 51
9290 9338 74
9291 9168 69
9291 9180 123
9291 9327 57
9291 9463 116
9292 9289 10
9292 9208 40
9292 9293 5
9292 9375 53
9293 9292 5
9293 9203 42
9293 9297 93
9293 9372 53
9294 9200 46
9294 9343 42
9294 9421 116
9295 9281 13
9295 9529 142
9296 9288 7
9296 9282 14
9296 9312 9
9297 9293 93
9297 9298 29
9297 9267 17
9298 9297 29
9298 9187 154
9298 9367 127
9299 9150 88
9299 9233 72
9299 9354 66
9299 9429 90
9300 9273 73
9300 9448 87
9301 9197 63
9301 9201 48
9301 9344 32
9302 9303 67
9303 9302 67
9304 9172 65
9304 9268 97
9304 9364 41
9305 9269 20
9305 9410 68
9305 9430 109
9306 9286 62
9306 9288 20
9306 9320 11
9307 9277 18
9307 9326 97
9307 9387 50
9308 9209 66
9308 9371 61
9308 9371 305
9309 9213 66
9309 9199 76
9309 9382 64
9309 9396 75
9310 9157 85
9310 9311 112
9310 9429 157
9310 9451 96
9311 9310 112
9311 9185 100
9311 9350 100
9312 9296 9
9312 9324 11
9312 9472 147
9313 9192 59
9313 9276 85
9313 9331 12
9313 9353 95
9314 9242 36
9314 9356 78
9314 9457 94
9315 9238 73
9316 9186 63
9316 9318 68
9317 9251 69
9317 9395 107
9317 9481 109
9318 9316 68
9318 9164 79
9318 9341 15
9319 9289 170
9319 9357 106
9319 9416 62
9320 9306 11
9320 9321 7
9320 9368 33
9321 9320 7
9321 9324 4
9321 9368 30
9322 8978 288
9322 9369 43
9322 9386 44
9323 9128 106
9323 9264 34
9323 9411 48
9324 9321 4
9324 9312 11
9324 9487 146
9325 9284 27
9325 9220 54
9325 9537 121
9326 9111 181
9326 9307 97
9326 9424 55
9327 9178 84
9327 9291 57
9327 9363 62
9328 9160 96
9328 9287 86
9328 9340 8
9328 9281 110
9329 9330 81
9330 9329 81
9331 9313 12
9331 9286 113
9331 9366 95
9331 9432 61
9332 9200 111
9333 9224 103
9333 9224 103
9333 9350 30
9333 9451 101
9333 9451 101
9334 9335 26
9334 9415 76
9334 9415 98
9335 9334 26
9335 9362 22
9335 9434 74
9336 9180 93
9336 9275 66
9336 9463 130
9336 9519 117
9337 9193 122
9337 9392 69
9337 9430 94
9338 9290 74
9338 9367 51
9338 9393 35
9339 8966 234
9339 9355 13
9339 9539 134
9340 9328 8
9340 9529 129
9341 9318 15
9341 9279 59
9341 9541 116
9342 9285 54
9342 9096 184
9342 9405 54
9343 9294 42
9344 9301 32
9344 9349 95
9344 9464 87
9345 8969 224
9345 9347 17
9345 9374 29
9346 9181 109
9346 9440 77
9346 9557 131
9347 8970 221
9347 9345 17
9347 9400 42
9348 9271 47
9348 9377 82
9348 9437 54
9349 9344 95
9349 9211 72
9349 9459 66
9350 9333 30
9350 9357 4
9350 9185 100
9350 9311 100
9351 9352 80
9352 9351 80
9353 9231 63
9353 9313 95
9353 9366 12
9353 9374 60
9354 9299 66
9354 9410 68
9354 9491 89
9355 9119 159
9355 9339 13
9355 9453 76
9355 9554 135
9356 9129 133
9356 9314 78
9356 9379 37
9357 9350 4
9357 9319 106
9357 9506 103
9358 9359 27
9358 9378 53
9358 9402 27
9359 9358 27
9360 9279 50
9360 9361 65
9360 9517 91
9361 9360 65
9361 9482 89
9362 9335 22
9362 9388 25
9362 9462 75
9363 9204 81
9363 9327 62
9363 9389 54
9363 9573 123
9364 9304 41
9364 9423 113
9364 9515 86
9365 9238 82
9365 9447 58
9365 9449 92
9366 9353 12
9366 9331 95
9366 9399 60
9366 9454 49
9367 9338 51
9367 9298 127
9368 9320 33
9368 9321 30
9368 9534 91
9369 9322 43
9369 9371 16
9369 9386 41
9369 9390 13
9370 9198 103
9370 9401 15
9370 9411 346
9371 9369 16
9371 9308 61
9371 9308 305
9371 9460 70
9372 9293 53
9372 9373 112
9372 9375 2
9372 9436 34
9373 9372 112
9374 9345 29
9374 9353 60
9374 9399 13
9375 9292 53
9375 9372 2
9375 9376 4
9375 9436 34
9376 9289 53
9376 9375 4
9376 9416 141
9376 9436 33
9377 9348 82
9377 9222 254
9377 9477 103
9378 9358 53
9379 9154 134
9379 9356 37
9379 9425 62
9379 9500 71
9380 9252 113
9380 9285 79
9380 9490 79
9380 9503 106
9381 9244 77
9381 9385 11
9381 9403 73
9381 9510 71
9382 9383 62
9382 9309 64
9382 9544 129
9383 9382 62
9383 9460 128
9384 8972 284
9384 9406 94
9384 9518 483
9385 9381 11
9385 9243 78
9385 9397 63
9385 9509 70
9386 9322 44
9386 9369 41
9386 9409 44
9387 9307 50
9387 9408 65
9387 9478 56
9388 9362 25
9388 9398 8
9388 9527 101
9389 9147 149
9389 9363 54
9389 9457 119
9389 9573 117
9390 9369 13
9390 9394 15
9390 9828 335
9391 9261 126
9392 9337 69
9392 9481 109
9392 9563 115
9393 9338 35
9393 9417 32
9393 9441 30
9394 9390 15
9394 9414 9
9394 9426 79
9394 9428 78
9394 9876 344
9395 9166 139
9395 9317 107
9395 9461 88
9395 9568 112
9396 9309 75
9396 9631 193
9397 9385 63
9397 9252 105
9397 9490 116
9398 9388 8
9398 9498 70
9399 9374 13
9399 9366 60
9399 9442 30
9400 9347 42
9400 9418 10
9400 9419 49
9401 9370 15
9401 9427 267
9401 9721 190
9402 9358 27
9403 9255 84
9403 9381 73
9403 9458 68
9404 9191 119
9404 9588 111
9404 9701 178
9405 9342 54
9405 9158 184
9405 9440 22
9405 9503 76
9406 9407 17
9406 9384 94
9406 9644 214
9407 9406 17
9408 9387 65
9408 9424 57
9408 9497 52
9409 9386 44
9409 9426 9
9409 9638 321
9410 9305 68
9410 9354 68
9410 9467 84
9411 9323 48
9411 9370 346
9411 9433 16
9412 9286 73
9412 9432 103
9412 9528 67
9413 9196 115
9413 9431 22
9413 9443 22
9414 9394 9
9414 9473 55
9414 9502 67
9415 9334 76
9415 9334 98
9415 9434 29
9415 9450 27
9416 9319 62
9416 9376 141
9416 9589 186
9417 9393 32
9418 9400 10
9418 9439 50
9418 9444 27
9419 9273 87
9419 9400 49
9419 9439 13
9419 9448 67
9420 9421 45
9421 9420 45
9421 9294 116
9421 9522 84
9421 9536 85
9421 9593 194
9422 9261 380
9423 9364 113
9423 9268 91
9423 9452 56
9424 9326 55
9424 9408 57
9424 9514 52
9425 9189 133
9425 9379 62
9425 9480 88
9425 9530 65
9426 9409 9
9426 9394 79
9426 9428 4
9426 9654 302
9427 9401 267
9427 9433 84
9427 9892 292
9428 9426 4
9428 9394 78
9428 9473 45
9428 9646 287
9429 9299 90
9429 9310 157
9429 9491 73
9429 9585 105
9430 9337 94
9430 9305 109
9430 9470 35
9431 9413 22
9431 9443 14
9431 9496 57
9432 9331 61
9432 9412 103
9432 9454 98
9432 9548 68
9433 9411 16
9433 9427 84
9433 9550 67
9434 9335 74
9434 9415 29
9434 9462 27
9435 9236 136
9435 9523 59
9435 9566 112
9436 9376 33
9436 9375 34
9436 9372 34
9437 9348 54
9437 9438 124
9437 9477 24
9438 9437 124
9439 9419 13
9439 9418 50
9439 9465 66
9439 9606 96
9440 9405 22
9440 9346 77
9440 9615 136
9440 9653 131
9441 9393 30
9441 9483 64
9441 9525 50
9442 9399 30
9442 9444 21
9442 9627 107
9443 9431 14
9443 9413 22
9443 9680 133
9444 9418 27
9444 9442 21
9444 9574 74
9445 9446 62
9446 9445 62
9447 9365 58
9447 9466 18
9448 9300 87
9448 9419 67
9448 9465 11
9448 9482 72
9449 9365 92
9449 9531 82
9449 9540 83
9450 9415 27
9451 9310 96
9451 9333 101
9451 9333 101
9451 9585 155
9451 9585 155
9452 9423 56
9452 9260 114
9452 9605 89
9453 9181 150
9453 9355 76
9453 9557 78
9453 9636 133
9454 9366 49
9454 9432 98
9454 9607 87
9455 9456 167
9455 9496 69
9456 9455 167
9457 9314 94
9457 9389 119
9457 9488 79
9457 9613 141
9458 9403 68
9458 9476 24
9458 9484 21
9459 9349 66
9459 9464 33
9459 9495 45
9460 9371 70
9460 9383 128
9460 9544 65
9461 9275 126
9461 9395 88
9461 9519 70
9461 9650 114
9462 9362 75
9462 9434 27
9462 9498 25
9463 9291 116
9463 9336 130
9463 9617 98
9463 9667 198
9464 9344 87
9464 9459 33
9464 9632 115
9464 23810 115
9465 9448 11
9465 9439 66
9465 9501 72
9465 9633 97
9466 9447 18
9466 9505 38
9466 9540 57
9467 9410 84
9467 9470 3
9467 9494 169
9468 9469 36
9469 9468 36
9470 9430 35
9470 9467 3
9470 9551 51
9470 9563 116
9471 9263 122
9471 9472 4
9471 9476 4
9472 9312 147
9472 9471 4
9472 9487 11
9473 9428 45
9473 9414 55
9473 9770 304
9474 9475 87
9474 9522 79
9475 9474 87
9475 9612 101
9476 9471 4
9476 9458 24
9476 9484 7
9477 9377 103
9477 9437 24
9477 9521 30
9478 9387 56
9478 9497 72
9478 9546 43
9479 9234 141
9479 9485 12
9479 9773 174
9480 9262 133
9480 9425 88
9480 9584 67
9481 9317 109
9481 9392 109
9481 9568 105
9481 9655 114
9482 9361 89
9482 9448 72
9482 9501 11
9482 9517 74
9483 9441 64
9484 9476 7
9484 9458 21
9484 9492 4
9485 9246 143
9485 9479 12
9485 9543 103
9485 9779 173
9486 9188 167
9486 9507 71
9486 9515 65
9486 9591 64
9487 9324 146
9487 9472 11
9487 9499 5
9488 9489 135
9488 9457 79
9488 9572 158
9489 9488 135
9489 23809 35
9490 9397 116
9490 9380 79
9490 9598 102
9490 9614 93
9491 9354 89
9491 9429 73
9491 9494 10
9491 9691 128
9492 9484 4
9492 9511 12
9492 9576 77
9493 9245 171
9493 9580 138
9493 9587 71
9494 9491 10
9494 9467 169
9494 9609 111
9495 9459 45
9495 9241 151
9495 9580 62
9496 9455 69
9496 9431 57
9496 9641 84
9497 9408 52
9497 9478 72
9497 9504 24
9498 9398 70
9498 9462 25
9498 9527 28
9498 9532 22
9499 9487 5
9499 9508 7
9499 9516 35
9500 9379 71
9500 9530 54
9501 9482 11
9501 9465 72
9501 9533 73
9501 9672 98
9502 9414 67
9502 9596 69
9502 9727 190
9503 9380 106
9503 9405 76
9503 9598 77
9504 9497 24
9504 9514 50
9504 9618 68
9505 9466 38
9505 9565 77
9505 9582 66
9506 9357 103
9506 9589 59
9506 9726 155
9507 9229 161
9507 9486 71
9507 9524 59
9508 9499 7
9508 9511 7
9508 9516 38
9508 9645 85
9509 9385 70
9509 9510 11
9509 9614 128
9509 9674 95
9510 9381 71
9510 9509 11
9510 9576 100
9510 9668 93
9511 9508 7
9511 9492 12
9511 9590 75
9512 9513 60
9512 9656 157
9513 9512 60
9513 9561 86
9513 9604 169
9514 9424 52
9514 9504 50
9514 9716 117
9515 9486 65
9515 9364 86
9515 9535 34
9516 9499 35
9516 9508 38
9516 9534 74
9517 9360 91
9517 9482 74
9517 9533 10
9517 9541 66
9518 9384 483
9518 8863 581
9518 10088 344
9519 9336 117
9519 9461 70
9519 9617 126
9519 9706 116
9520 9521 75
9521 9520 75
9521 9477 30
9521 9639 72
9522 9474 79
9522 9421 84
9522 9612 82
9522 9621 74
9523 9435 59
9523 9603 55
9523 9705 163
9523 23810 27
9524 9254 163
9524 9507 59
9524 9538 65
9524 9628 65
9525 9441 50
9525 9526 31
9525 9562 65
9525 9602 49
9526 9525 31
9527 9388 101
9527 9498 28
9527 9542 13
9528 9412 67
9528 9545 13
9528 9548 94
9529 9295 142
9529 9340 129
9529 9556 19
9530 9425 65
9530 9500 54
9530 9572 55
9531 9449 82
9531 9555 45
9531 9620 97
9532 9498 22
9533 9517 10
9533 9501 73
9533 9560 69
9533 9713 102
9534 9368 91
9534 9516 74
9534 9545 72
9534 9665 75
9535 9515 34
9535 9592 108
9535 9666 74
9536 9421 85
9536 9621 81
9536 9630 75
9537 9325 121
9537 9675 80
9537 9735 109
9538 9270 161
9538 9524 65
9538 9546 49
9539 9339 134
9539 9554 12
9539 9559 21
9540 9449 83
9540 9466 57
9540 9547 6
9541 9341 116
9541 9517 66
9541 9560 9
9541 9583 99
9542 9527 13
9543 9485 103
9543 9549 15
9543 9714 99
9544 9460 65
9544 9382 129
9544 9631 72
9545 9528 13
9545 9534 72
9545 9579 95
9545 9685 77
9546 9478 43
9546 9538 49
9546 9558 35
9546 9663 66
9547 9540 6
9547 9582 38
9547 9620 59
9548 9432 68
9548 9528 94
9548 9579 19
9549 9543 15
9549 9578 18
9549 9586 74
9550 9433 67
9550 9669 65
9550 9932 198
9551 9470 51
9551 9642 56
9551 9649 113
9552 9553 366
9552 9564 7
9553 9552 366
9554 9355 135
9554 9539 12
9554 9567 7
9555 9531 45
9555 9597 35
9555 9681 201
9556 9529 19
9556 9569 9
9556 9570 30
9557 9346 131
9557 9453 78
9557 9653 73
9557 9761 137
9558 9546 35
9558 9611 80
9558 9670 65
9559 9539 21
9559 9564 7
9559 9571 10
9560 9541 9
9560 9533 69
9560 9583 97
9560 9762 111
9561 9513 86
9561 9623 99
9561 9732 173
9562 9525 65
9563 9392 115
9563 9470 116
9563 9649 54
9563 9655 109
9564 9559 7
9564 9552 7
9564 9577 10
9564 9599 47
9565 9505 77
9565 9634 46
9565 9639 92
9566 9236 183
9566 9435 112
9566 9705 79
9567 9554 7
9567 9575 13
9567 9637 49
9568 9395 112
9568 9481 105
9568 9650 97
9568 9764 114
9569 9556 9
9569 9622 60
9569 9788 143
9570 9556 30
9570 9644 141
9570 9644 176
9571 9559 10
9571 9575 6
9571 9577 8
9572 9530 55
9572 9488 158
9572 9584 32
9573 9389 117
9573 9363 123
9573 9667 52
9574 9444 74
9574 9606 66
9574 9982 213
9575 9567 13
9575 9571 6
9575 9651 50
9576 9492 77
9576 9510 100
9576 9590 11
9576 9683 76
9577 9571 8
9577 9564 10
9577 9581 4
9577 9619 47
9578 9549 18
9578 9610 51
9578 9718 81
9579 9548 19
9579 9545 95
9579 9594 50
9579 9707 69
9580 9495 62
9580 9493 138
9580 9632 50
9580 9801 137
9581 9577 4
9581 9625 48
9581 9651 59
9582 9547 38
9582 9505 66
9582 9662 49
9582 9676 88
9583 9239 225
9583 9541 99
9583 9560 97
9583 9601 56
9583 9899 182
9584 9480 67
9584 9572 32
9584 9623 22
9584 9652 87
9585 9429 105
9585 9451 155
9585 9451 155
9585 9691 78
9585 9691 78
9586 9162 251
9586 9549 74
9586 9624 22
9587 9493 71
9587 9247 206
9587 9728 85
9588 9404 111
9588 8442 724
9588 9806 118
9589 9506 59
9589 9416 186
9589 9717 80
9589 9726 138
9590 9511 75
9590 9576 11
9590 9704 79
9590 9784 104
9591 9486 64
9591 9628 126
9591 9698 63
9592 9535 108
9592 9605 23
9592 9711 82
9593 9421 194
9593 9723 10
9594 9595 50
9594 9579 50
9594 9607 53
9594 9719 69
9595 9594 50
9596 9502 69
9596 9695 71
9596 9838 192
9597 9555 35
9597 9648 47
9597 9692 86
9598 9490 102
9598 9503 77
9598 9615 13
9598 9737 96
9599 9564 47
9599 9608 9
9599 9619 12
9600 7237 9004
9601 9583 56
9601 9605 56
9601 9733 75
9602 9525 49
9602 9629 39
9602 9681 47
9603 9523 55
9603 9699 62
9603 9895 221
9604 9513 169
9604 9720 80
9604 23809 113
9605 9592 23
9605 9452 89
9605 9601 56
9606 9439 96
9606 9574 66
9606 9633 62
9606 9749 72
9607 9454 87
9607 9594 53
9607 9627 90
9607 9742 70
9608 9599 9
9608 9626 12
9608 9638 130
9609 9494 111
9609 9642 38
9609 9820 162
9610 9578 51
9610 9616 12
9610 9616 65
9611 9558 80
9611 9618 11
9611 9670 71
9612 9475 101
9612 9522 82
9612 9715 75
9612 9725 99
9613 9457 141
9613 9656 26
9613 9660 26
9614 9509 128
9614 9490 93
9614 9697 58
9614 9737 98
9615 9598 13
9615 9440 136
9615 9763 97
9615 9780 124
9616 9610 12
9616 9624 26
9616 9610 65
9617 9463 98
9617 9519 126
9617 9796 172
9617 9827 119
9618 9504 68
9618 9611 11
9618 9684 45
9619 9577 47
9619 9599 12
9619 9625 4
9619 9626 10
9620 9531 97
9620 9547 59
9620 9692 48
9621 9522 74
9621 9536 81
9621 9696 51
9621 9715 82
9622 9569 60
9623 9584 22
9623 9561 99
9623 9682 87
9623 9852 139
9623 9870 132
9624 9586 22
9624 9616 26
9624 9753 70
9625 9581 48
9625 9619 4
9625 9635 10
9625 9734 60
9626 9619 10
9626 9608 12
9626 9635 4
9626 9659 58
9627 9442 107
9627 9607 90
9627 9774 73
9628 9524 65
9628 9591 126
9628 9663 118
9628 9736 59
9629 9602 39
9630 9536 75
9631 9544 72
9631 9396 193
9631 9730 73
9632 9464 115
9632 23810 115
9632 9580 50
9632 9874 141
9633 9465 97
9633 9606 62
9633 9672 72
9634 9565 46
9634 9676 28
9634 9741 100
9635 9625 10
9635 9626 4
9635 9673 61
9635 9747 60
9636 9453 133
9636 9637 12
9636 9643 7
9636 9761 78
9637 9636 12
9637 9567 49
9637 9643 5
9637 9651 11
9638 9409 321
9638 9608 130
9638 9657 9
9639 9565 92
9639 9521 72
9639 9702 47
9639 9766 103
9640 9641 14
9641 9640 14
9641 9496 84
9641 9680 56
9642 9551 56
9642 9609 38
9642 9748 111
9642 9777 77
9643 9636 7
9643 9637 5
9643 9658 11
9643 9769 77
9644 9570 141
9644 9406 214
9644 9570 176
9645 9508 85
9645 9665 74
9645 9813 86
9646 9428 287
9646 9654 14
9646 9770 68
9647 9648 7
9648 9647 7
9648 9597 47
9648 9782 117
9649 9563 54
9649 9551 113
9649 9748 56
9649 9755 108
9650 9461 114
9650 9568 97
9650 9706 69
9651 9637 11
9651 9575 50
9651 9581 59
9651 9658 5
9652 9148 305
9652 9584 87
9652 9671 28
9652 9682 18
9653 9440 131
9653 9557 73
9653 9780 84
9653 9867 142
9654 9426 302
9654 9646 14
9654 9657 20
9654 9664 21
9655 9481 114
9655 9563 109
9655 9755 57
9655 9764 111
9656 9512 157
9656 9613 26
9656 9660 24
9656 9720 106
9657 9638 9
9657 9654 20
9657 9661 67
9657 9664 4
9658 9643 11
9658 9651 5
9658 9734 76
9658 9781 77
9659 9626 58
9659 9661 12
9659 9673 9
9660 9656 24
9660 9613 26
9660 9667 52
9660 9703 32
9661 9659 12
9661 9657 67
9661 9664 64
9661 9673 19
9662 9582 49
9662 9791 69
9662 9819 125
9663 9546 66
9663 9628 118
9663 9775 59
9664 9657 4
9664 9654 21
9664 9661 64
9664 9795 67
9665 9534 75
9665 9645 74
9665 9685 72
9665 9847 91
9666 9535 74
9666 9698 51
9666 9711 61
9667 9660 52
9667 9573 52
9667 9463 198
9667 9796 90
9668 9510 93
9668 9674 22
9668 9683 21
9669 9550 65
9669 10627 402
9670 9611 71
9670 9558 65
9671 9156 306
9671 9652 28
9671 9700 19
9671 9721 77
9672 9501 98
9672 9633 72
9672 9688 28
9673 9635 61
9673 9659 9
9673 9661 19
9673 9789 58
9674 9668 22
9674 9509 95
9674 9712 32
9675 9537 80
9675 10582 399
9676 9582 88
9676 9634 28
9676 9741 52
9677 8949 450
9677 9868 106
9677 9871 100
9678 9679 65
9678 9771 56
9679 9678 65
9679 9823 92
9680 9641 56
9680 9443 133
9680 9724 53
9681 9602 47
9681 9555 201
9681 9807 90
9682 9652 18
9682 9623 87
9682 9700 29
9682 9931 130
9683 9576 76
9683 9668 21
9683 9704 17
9684 9618 45
9684 9740 37
9684 9775 198
9685 9545 77
9685 9665 72
9685 9707 91
9685 9708 13
9686 9687 38
9686 9861 123
9687 9686 38
9687 9717 36
9687 9768 38
9688 9672 28
9688 9713 47
9688 9778 49
9689 9690 65
9690 9689 65
9690 9693 62
9690 9722 76
9691 9491 128
9691 9585 78
9691 9585 78
9691 9709 14
9691 9709 14
9692 9597 86
9692 9620 48
9692 9782 45
9692 9791 82
9693 9690 62
9693 9694 503
9693 9738 75
9694 9693 503
9695 9596 71
9695 9800 68
9695 10000 242
9696 9621 51
9697 9614 58
9697 9712 56
9697 9804 70
9697 9822 98
9698 9591 63
9698 9666 51
9698 9736 135
9698 9826 83
9699 9603 62
9699 9790 52
9699 9964 207
9700 9671 19
9700 9682 29
9700 9772 81
9700 9945 127
9701 9404 178
9701 9878 136
9701 10005 173
9702 9639 47
9702 9765 50
9702 9816 97
9703 9660 32
9703 9853 92
9703 9866 116
9704 9590 79
9704 9683 17
9704 9750 18
9705 9566 79
9705 9523 163
9705 9836 73
9706 9519 116
9706 9650 69
9706 9827 127
9706 9912 109
9707 9579 69
9707 9685 91
9707 9719 51
9708 9685 13
9708 9760 142
9708 9880 80
9709 9691 14
9709 9691 14
9709 9746 19
9710 9170 325
9711 9666 61
9711 9592 82
9711 9751 69
9711 9826 73
9712 9674 32
9712 9697 56
9712 9754 20
9713 9533 102
9713 9688 47
9713 9762 59
9714 9543 99
9714 9817 55
9715 9612 75
9715 9621 82
9715 9873 95
9715 9911 163
9716 9514 117
9716 9724 3
9716 9740 9
9717 9589 80
9717 9687 36
9717 9936 191
9718 9578 81
9718 9829 56
9719 9594 69
9719 9707 51
9719 9742 53
9719 9760 14
9720 9604 80
9720 9656 106
9720 9866 86
9721 9401 190
9721 9671 77
9721 9752 36
9722 9723 64
9722 9690 76
9722 9818 51
9722 9872 155
9723 9722 64
9723 9593 10
9724 9680 53
9724 9716 3
9724 9740 8
9725 9612 99
9726 9506 155
9726 9589 138
9726 9830 63
9727 9502 190
9727 9756 17
9727 9838 64
9728 9729 103
9728 9587 85
9728 9801 46
9729 9728 103
9730 9631 73
9730 9731 102
9730 9815 58
9731 9730 102
9732 9561 173
9732 9834 67
9732 9852 151
9733 9601 75
9733 9745 5
9733 9759 9
9734 9658 76
9734 9625 60
9734 9747 9
9734 9879 74
9735 9284 263
9735 9537 109
9735 9773 55
9735 9792 26
9736 9628 59
9736 9698 135
9736 9775 115
9736 9840 52
9737 9614 98
9737 9598 96
9737 9763 13
9737 9822 57
9738 9693 75
9738 9739 87
9738 9810 68
9739 9738 87
9740 9724 8
9740 9716 9
9740 9684 37
9740 9875 234
9740 9787 33
9741 9676 52
9741 9634 100
9741 9765 11
9741 9785 27
9742 9607 70
9742 9719 53
9742 9774 96
9743 9744 57
9743 9787 59
9743 9962 147
9744 9743 57
9744 9897 124
9745 9733 5
9745 9757 6
9746 9709 19
9746 9820 45
9746 9820 45
9747 9734 9
9747 9635 60
9747 9789 73
9747 9885 74
9748 9649 56
9748 9642 111
9748 9854 112
9748 9926 101
9749 9606 72
9749 9794 141
9749 9883 66
9750 9704 18
9750 9784 80
9750 9793 26
9751 9711 69
9751 9759 37
9751 9805 30
9752 9721 36
9752 9803 89
9752 9832 113
9753 9624 70
9753 9871 64
9753 10071 184
9754 9712 20
9754 9804 26
9755 9655 57
9755 9649 108
9755 9783 16
9756 9727 17
9756 9776 30
9756 10000 144
9757 9745 6
9757 9758 82
9757 9767 6
9758 9757 82
9759 9751 37
9759 9733 9
9759 9767 6
9760 9719 14
9760 9708 142
9760 9786 119
9760 10046 310
9761 9557 137
9761 9636 78
9761 9769 7
9761 9867 70
9762 9560 111
9762 9713 59
9762 9857 53
9763 9737 13
9763 9615 97
9763 9846 57
9763 9941 140
9764 9568 114
9764 9655 111
9764 9837 91
9764 9894 72
9765 9741 11
9765 9702 50
9765 9785 26
9765 9887 99
9766 9639 103
9766 9816 46
9766 9844 65
9767 9759 6
9767 9757 6
9767 9797 20
9768 9687 38
9768 9944 100
9768 9952 110
9769 9761 7
9769 9643 77
9769 9781 13
9769 9886 72
9770 9646 68
9770 9473 304
9770 9795 61
9770 9898 73
9771 9678 56
9771 9823 48
9771 9915 118
9772 9700 81
9772 9799 35
9772 9985 120
9773 9479 174
9773 9735 55
9773 9779 12
9774 9627 73
9774 9742 96
9774 9825 29
9775 9663 59
9775 9736 115
9775 9684 198
9775 9875 49
9776 9756 30
9776 9814 45
9776 10022 146
9777 9642 77
9777 9812 21
9777 9869 92
9778 9688 49
9778 9794 9
9778 9857 107
9779 9485 173
9779 9773 12
9779 9851 126
9779 9903 65
9780 9615 124
9780 9653 84
9780 9855 37
9781 9769 13
9781 9658 77
9781 9879 91
9781 9884 62
9782 9648 117
9782 9692 45
9782 9860 67
9782 10116 193
9783 9755 16
9783 9854 39
9783 9894 115
9784 9590 104
9784 9750 80
9784 9808 12
9784 9813 73
9785 9741 27
9785 9765 26
9785 9819 36
9786 9760 119
9786 9825 39
9786 10147 199
9787 9743 59
9787 9908 132
9787 9943 99
9787 9740 33
9788 9569 143
9788 9833 83
9789 9747 73
9789 9673 58
9789 9795 92
9789 9940 75
9790 9699 52
9790 9904 67
9790 10031 197
9791 9692 82
9791 9662 69
9791 9860 39
9791 9891 81
9792 9735 26
9792 9893 51
9792 9933 69
9793 9750 26
9793 9808 85
9793 9824 28
9794 9778 9
9794 9749 141
9794 9877 107
9794 9905 60
9795 9664 67
9795 9770 61
9795 9789 92
9795 9935 68
9796 9667 90
9796 9617 172
9796 9853 45
9796 9956 111
9797 9767 20
9797 9798 65
9798 9797 65
9798 9831 42
9799 9772 35
9799 9864 111
9799 9888 110
9800 9695 68
9800 9863 41
9800 10096 246
9801 9580 137
9801 9728 46
9801 9845 36
9802 9803 31
9802 9809 12
9802 9889 99
9803 9802 31
9803 9752 89
9803 9809 24
9804 9754 26
9804 9697 70
9804 9821 15
9804 9929 96
9805 9751 30
9805 9918 59
9805 9930 175
9806 9588 118
9806 10005 124
9806 10385 323
9807 9681 90
9808 9784 12
9808 9793 85
9808 9841 72
9808 9991 122
9809 9802 12
9809 9803 24
9809 9832 13
9809 9889 96
9810 9738 68
9810 9811 119
9810 9915 63
9811 9810 119
9812 9777 21
9812 9869 29
9812 9926 106
9813 9645 86
9813 9784 73
9813 9841 13
9813 9847 65
9814 9776 45
9814 9856 41
9814 10056 146
9815 9730 58
9815 9219 334
9815 9836 13
9815 9839 12
9816 9702 97
9816 9766 46
9816 9887 51
9816 9921 75
9817 9714 55
9817 9851 15
9818 9722 51
9818 9890 112
9818 9906 43
9819 9662 125
9819 9785 36
9819 9891 50
9819 9953 106
9820 9609 162
9820 9746 45
9820 9746 45
9820 9994 106
9820 23813 106
9820 9994 106
9820 23813 106
9821 9804 15
9821 9824 43
9821 9924 58
9821 9948 95
9822 9697 98
9822 9737 57
9822 9929 70
9823 9771 48
9823 9679 92
9823 9897 52
9823 9942 73
9824 9793 28
9824 9821 43
9824 9924 45
9825 9774 29
9825 9786 39
9825 10147 170
9826 9698 83
9826 9711 73
9826 9930 63
9827 9617 119
9827 9706 127
9827 9956 132
9827 10007 108
9828 9390 335
9828 9839 7
9828 9876 29
9829 9718 56
9829 9986 85
9830 9726 63
9830 9936 58
9831 9798 42
9831 9918 104
9831 9947 58
9832 9809 13
9832 9752 113
9832 9864 12
9832 9909 99
9833 9788 83
9833 9844 4
9834 9732 67
9834 9835 136
9834 10013 111
9835 9834 136
9835 9142 295
9836 9815 13
9836 9705 73
9836 9862 11
9836 9895 39
9837 9764 91
9837 9912 76
9837 10033 117
9838 9727 64
9838 9596 192
9839 9828 7
9839 9815 12
9839 9862 12
9839 9902 32
9840 9736 52
9840 9875 117
9840 9930 144
9841 9813 13
9841 9808 72
9841 9881 67
9841 10078 165
9842 9843 698
9843 9842 698
9843 9911 222
9843 9934 77
9844 9766 65
9844 9833 4
9844 9850 5
9845 9801 36
9845 9874 23
9845 9878 19
9846 9763 57
9846 9941 160
9846 9951 69
9847 9665 91
9847 9813 65
9847 9880 65
9847 9881 13
9848 9849 418
9848 9865 224
9848 9913 42
9849 9848 418
9850 9844 5
9850 9921 41
9850 10244 237
9851 9817 15
9851 9779 126
9851 9977 70
9852 9623 139
9852 9732 151
9852 9870 31
9852 10103 168
9853 9703 92
9853 9796 45
9853 9987 122
9853 10009 100
9854 9783 39
9854 9748 112
9854 9959 114
9854 10016 103
9855 9780 37
9855 9910 140
9855 9954 62
9856 9814 41
9856 9898 50
9856 10084 147
9857 9762 53
9857 9778 107
9857 9877 9
9857 9899 63
9858 9859 58
9858 9859 51
9858 9957 204
9859 9858 58
9859 9861 42
9859 9858 51
9860 9782 67
9860 9791 39
9860 9937 71
9860 10020 126
9861 9686 123
9861 9859 42
9861 9944 55
9862 9839 12
9862 9836 11
9862 9955 51
9862 10060 155
9863 9800 41
9863 9882 15
9863 10040 155
9864 9832 12
9864 9799 111
9864 9888 10
9864 9928 100
9865 9848 224
9866 9720 86
9866 9703 116
9866 9987 83
9867 9653 142
9867 9761 70
9867 9886 9
9867 9910 24
9868 8548 799
9868 9677 106
9868 10333 269
9869 9812 29
9869 9777 92
9869 9994 77
9870 9623 132
9870 9852 31
9870 9931 90
9870 10154 163
9871 9677 100
9871 9753 64
9871 9971 56
9872 9722 155
9872 9923 32
9872 10003 89
9873 9715 95
9873 9922 20
9874 9632 141
9874 9845 23
9874 9901 17
9874 9904 27
9875 9775 49
9875 9840 117
9875 9740 234
9876 9394 344
9876 9828 29
9876 9882 12
9876 9902 20
9877 9857 9
9877 9794 107
9877 9919 63
9877 9974 57
9878 9845 19
9878 9701 136
9878 9901 23
9879 9781 91
9879 9734 74
9879 9885 8
9879 9984 65
9880 9708 80
9880 9847 65
9880 9900 13
9881 9847 13
9881 9841 67
9881 9900 65
9881 10064 110
9882 9863 15
9882 9876 12
9882 9927 27
9883 9749 66
9883 9905 118
9883 9990 60
9884 9781 62
9884 9886 17
9884 9896 12
9884 9907 12
9884 9984 106
9885 9879 8
9885 9747 74
9885 9940 92
9885 9989 65
9886 9867 9
9886 9769 72
9886 9884 17
9886 9896 12
9886 9916 17
9887 9765 99
9887 9816 51
9887 9953 61
9887 9969 98
9888 9864 10
9888 9799 110
9888 9950 104
9889 9802 99
9889 9809 96
9889 9892 13
9890 9818 112
9891 9791 81
9891 9819 50
9891 9937 38
9891 9966 68
9892 9427 292
9892 9889 13
9892 9949 130
9893 9792 51
9893 9903 30
9893 10042 115
9894 9764 72
9894 9783 115
9894 9959 40
9895 9836 39
9895 9603 221
9895 9964 52
9896 9886 12
9896 9884 12
9896 9907 7
9896 10049 199
9897 9823 52
9897 9744 124
9897 9962 51
9897 9992 72
9898 9770 73
9898 9856 50
9898 9935 84
9898 10014 71
9899 9583 182
9899 9857 63
9899 9919 9
9899 9947 62
9900 9880 13
9900 9881 65
9900 10046 85
9901 9874 17
9901 9878 23
9901 9938 29
9902 9876 20
9902 9839 32
9902 9939 18
9903 9779 65
9903 9893 30
9903 9977 127
9904 9790 67
9904 9874 27
9904 9938 19
9904 10129 195
9905 9794 60
9905 9883 118
9905 9974 112
9905 9993 55
9906 9818 43
9906 9965 56
9907 9896 7
9907 9884 12
9907 9917 10
9907 9925 8
9908 9787 132
9908 9961 96
9908 10036 79
9909 9832 99
9909 10012 189
9910 9855 140
9910 9867 24
9910 9916 10
9910 9976 60
9911 9843 222
9911 9715 163
9911 10113 200
9912 9706 109
9912 9837 76
9912 9946 36
9913 9848 42
9913 9914 38
9913 9960 30
9914 9913 38
9915 9810 63
9915 9771 118
9915 9996 63
9916 9910 10
9916 9886 17
9916 10035 172
9917 9907 10
9917 9925 12
9917 9999 92
9918 9805 59
9918 9831 104
9918 9998 130
9918 10010 57
9919 9899 9
9919 9877 63
9919 9958 61
9919 10210 167
9920 8834 618
9920 9932 31
9920 9933 29
9920 10012 54
9921 9816 75
9921 9850 41
9921 9969 32
9921 10089 141
9922 9923 19
9922 9873 20
9923 9922 19
9923 9872 32
9923 9973 46
9924 9824 45
9924 9821 58
9924 9991 55
9924 10029 97
9925 9907 8
9925 9917 12
9925 10053 77
9926 9748 101
9926 9812 106
9926 10016 109
9926 10070 101
9927 9882 27
9927 9939 10
9927 9988 66
9928 9864 100
9928 10034 192
9929 9804 96
9929 9822 70
9929 9948 15
9929 9951 18
9930 9840 144
9930 9826 63
9930 9805 175
9930 9998 75
9930 9978 40
9931 9682 130
9931 9870 90
9931 10180 147
9932 9920 31
9932 9550 198
9932 9949 16
9933 9792 69
9933 9920 29
9933 9981 41
9934 9843 77
9935 9795 68
9935 9898 84
9935 9940 118
9935 10051 70
9936 9830 58
9936 9717 191
9936 10015 93
9936 10058 85
9937 9860 71
9937 9891 38
9937 10030 98
9938 9904 19
9938 9901 29
9938 9968 29
9938 9995 39
9938 10041 101
9939 9927 10
9939 9902 18
9939 9955 12
9939 10299 203
9940 9885 92
9940 9789 75
9940 9935 118
9940 10043 64
9941 9763 140
9941 9846 160
9941 9954 12
9942 9823 73
9942 9992 50
9942 10004 55
9943 9787 99
9943 10002 60
9943 10027 68
9944 9768 100
9944 9861 55
9944 9957 16
9944 9952 74
9945 9700 127
9945 9985 84
9946 9912 36
9946 10007 87
9946 10136 120
9947 9831 58
9947 9899 62
9947 9958 8
9947 10010 107
9948 9821 95
9948 9929 15
9948 9967 18
9948 10029 60
9949 9932 16
9949 9892 130
9949 9970 16
9950 9888 104
9950 10008 105
9950 10024 47
9951 9929 18
9951 9846 69
9951 9967 15
9951 10072 161
9952 9768 110
9952 9944 74
9952 10058 145
9953 9819 106
9953 9887 61
9953 9997 57
9953 10025 121
9954 9941 12
9954 9855 62
9954 9983 26
9955 9939 12
9955 9862 51
9955 10295 194
9956 9796 111
9956 9827 132
9956 10009 70
9956 10120 106
9957 9944 16
9957 9858 204
9957 10018 38
9958 9947 8
9958 9919 61
9958 10023 108
9958 10047 58
9959 9894 40
9959 9854 114
9959 10019 72
9959 10123 106
9960 9913 30
9960 10086 133
9961 9908 96
9961 9963 109
9961 10062 74
9962 9897 51
9962 9743 147
9962 10027 58
9963 9961 109
9963 9978 159
9963 10100 129
9964 9895 52
9964 9699 207
9964 10031 54
9965 9906 56
9965 9975 207
9965 9975 122
9966 9891 68
9967 9948 18
9967 9951 15
9967 10001 34
9967 10044 60
9968 9938 29
9968 9995 45
9968 10294 208
9969 9887 98
9969 9921 32
9969 10025 40
9970 9949 16
9970 10038 31
9971 9871 56
9971 10142 102
9971 10171 193
9972 9973 22
9973 9972 22
9973 9923 46
9973 10011 26
9974 9877 57
9974 9905 112
9974 10057 55
9975 9965 207
9975 9965 122
9975 9996 183
9976 9910 60
9976 10028 110
9977 9851 70
9977 9903 127
9977 9986 16
9977 10074 60
9978 9963 159
9978 10100 86
9978 10204 152
9978 9930 40
9979 9980 17
9980 9979 17
9980 10173 143
9981 9933 41
9981 10021 23
9981 10042 70
9982 9574 213
9982 9990 62
9982 10316 184
9983 9954 26
9983 10037 32
9983 10050 49
9984 9884 106
9984 9879 65
9984 9989 8
9984 9999 10
9985 9772 120
9985 9945 84
9985 10017 52
9985 10276 167
9986 9829 85
9986 9977 16
9986 10071 208
9986 10080 60
9987 9866 83
9987 9853 122
9987 10013 24
9987 10108 84
9988 9927 66
9988 10026 72
9988 10323 185
9989 9984 8
9989 9885 65
9989 10006 10
9989 10043 109
9990 9883 60
9990 9982 62
9990 9993 97
9990 10095 62
9991 9808 122
9991 9924 55
9991 10078 74
9991 10112 96
9992 9942 50
9992 9897 72
9992 10125 111
9993 9905 55
9993 9990 97
9993 10057 116
9993 10091 65
9994 9869 77
9994 9820 106
9994 23813 106
9994 9820 106
9994 23813 106
9994 10055 86
9994 10055 86
9995 9968 45
9995 9938 39
9995 10164 97
9996 9915 63
9996 10004 5
9996 9975 183
9997 9953 57
9997 10030 29
9997 10075 131
9998 9930 75
9998 9918 130
9998 10069 63
9999 9917 92
9999 9984 10
9999 10006 8
9999 10085 55
10000 9756 144
10000 9695 242
10000 10022 28
10000 10105 67
10001 9967 34
10001 10092 132
10002 9943 60
10002 10068 52
10002 10146 117
10003 9872 89
10003 10045 75
10003 10121 127
10004 9996 5
10004 9942 55
10004 10236 163
10005 9701 173
10005 9806 124
10005 10164 88
10006 9999 8
10006 9989 10
10006 10061 111
10006 10109 62
10007 9827 108
10007 9946 87
10007 10081 101
10007 10233 129
10008 9950 105
10008 10039 33
10008 10087 51
10009 9853 100
10009 9956 70
10009 10108 115
10009 10176 108
10010 9918 57
10010 9947 107
10010 10023 9
10010 10069 100
10011 9973 26
10011 10045 54
10011 10113 101
10012 9920 54
10012 9909 189
10012 10034 13
10012 10114 188
10013 9834 111
10013 9987 24
10013 10103 157
10013 10128 79
10014 9898 71
10014 10032 10
10014 10051 103
10015 9936 93
10015 10090 88
10015 10157 88
10016 9854 103
10016 9926 109
10016 10123 117
10016 10168 94
10017 9985 52
10017 10059 69
10017 10310 167
10018 9957 38
10018 10048 42
10018 10117 574
10019 9959 72
10019 10033 14
10019 10104 54
10020 9860 126
10021 9981 23
10021 10083 29
10022 9776 146
10022 10000 28
10022 10056 44
10023 10010 9
10023 9958 108
10023 10077 95
10023 10122 56
10024 9950 47
10024 10087 105
10024 10145 69
10025 9953 121
10025 9969 40
10025 10065 28
10025 10079 82
10026 9988 72
10026 10040 26
10026 10348 177
10027 9962 58
10027 9943 68
10027 10067 33
10028 9976 110
10028 10035 4
10029 9924 97
10029 9948 60
10029 10044 14
10029 10112 63
10030 9937 98
10030 9997 29
10030 10139 151
10031 9964 54
10031 9790 197
10031 10129 73
10032 10014 10
10032 10066 106
10032 10144 68
10033 9837 117
10033 10019 14
10033 10136 113
10034 10012 13
10034 9928 192
10034 10126 49
10034 10138 185
10035 10028 4
10035 9916 172
10035 10037 2
10035 10049 10
10036 9908 79
10036 10146 101
10036 10167 86
10037 9983 32
10037 10035 2
10037 10050 27
10037 10052 11
10038 10039 13
10038 9970 31
10039 10038 13
10039 10008 33
10039 10106 45
10040 9863 155
10040 10026 26
10040 10054 26
10041 9938 101
10041 10460 171
10042 9893 115
10042 9981 70
10042 10074 60
10043 9989 109
10043 9940 64
10043 10051 139
10043 10061 11
10044 10029 14
10044 9967 60
10044 10135 63
10044 10205 201
10045 10003 75
10045 10011 54
10045 10094 116
10046 9900 85
10046 10076 19
10046 9760 310
10047 9958 58
10047 10122 107
10047 10279 126
10048 10018 42
10048 10194 83
10048 10201 151
10049 10035 10
10049 9896 199
10049 10052 2
10049 10149 52
10050 9983 49
10050 10037 27
10050 10073 55
10051 9935 70
10051 10014 103
10051 10043 139
10051 10066 9
10052 10037 11
10052 10049 2
10052 10098 77
10052 10151 52
10053 9925 77
10053 10093 24
10053 10101 84
10054 10040 26
10054 10096 75
10054 10363 167
10055 9994 86
10055 9994 86
10055 10070 14
10056 9814 146
10056 10022 44
10056 10084 39
10057 9974 55
10057 9993 116
10057 10110 28
10058 9936 85
10058 9952 145
10058 10157 96
10058 10201 83
10059 10017 69
10059 10145 131
10059 10346 166
10060 9862 155
10060 10107 25
10060 10212 111
10061 10006 111
10061 10043 11
10061 10066 143
10061 10203 69
10062 9961 74
10062 10063 17
10062 10167 70
10063 10062 17
10063 10137 76
10064 9881 110
10064 10076 75
10064 10224 96
10065 10025 28
10065 10097 20
10065 10182 96
10066 10051 9
10066 10032 106
10066 10061 143
10066 10202 67
10067 10027 33
10067 10125 38
10067 10141 58
10068 10002 52
10068 10141 50
10068 10228 117
10069 9998 63
10069 10010 100
10069 10077 10
10070 9926 101
10070 10055 14
10070 10168 110
10070 10179 52
10071 9753 184
10071 9986 208
10072 9951 161
10072 10073 11
10072 10092 14
10073 10072 11
10073 10050 55
10073 10098 16
10074 9977 60
10074 10042 60
10074 10080 16
10075 9997 131
10075 10097 20
10076 10046 19
10076 10064 75
10076 10225 71
10077 10069 10
10077 10023 95
10077 10166 75
10078 9841 165
10078 9991 74
10078 10206 96
10078 10224 103
10079 10025 82
10079 10089 27
10079 10182 46
10080 9986 60
10080 10074 16
10080 10127 50
10081 10007 101
10081 10120 33
10081 10307 147
10082 10083 13
10082 10102 51
10082 10119 25
10083 10082 13
10083 10021 29
10084 9856 147
10084 10056 39
10084 10144 60
10085 9999 55
10085 10101 7
10086 9960 133
10086 10111 110
10086 10115 85
10087 10008 51
10087 10024 105
10087 10185 98
10087 10208 63
10088 9518 344
10088 10357 166
10088 11244 1339
10089 10079 27
10089 9921 141
10090 10015 88
10090 10200 97
10090 10242 90
10090 23813 105
10091 9993 65
10091 10095 75
10091 10110 131
10092 10001 132
10092 10072 14
10092 10099 4
10093 10053 24
10093 10149 155
10093 10266 91
10094 10045 116
10094 10184 45
10095 10091 75
10095 9990 62
10095 10217 59
10096 9800 246
10096 10054 75
10096 10105 11
10097 10075 20
10097 10065 20
10097 10143 25
10097 10240 116
10098 10073 16
10098 10052 77
10098 10099 18
10098 10148 25
10099 10092 4
10099 10098 18
10099 10140 19
10100 9963 129
10100 9978 86
10100 10209 70
10100 10277 143
10101 10053 84
10101 10085 7
10101 10109 9
10102 10082 51
10102 10158 84
10102 10189 89
10103 9852 168
10103 10013 157
10103 10154 75
10103 10275 107
10104 10019 54
10105 10000 67
10105 10096 11
10105 10155 78
10105 10257 82
10106 10039 45
10106 10126 32
10106 10185 41
10107 10060 25
10107 10118 80
10107 10280 94
10108 9987 84
10108 10009 115
10108 10256 103
10109 10101 9
10109 10006 62
10109 10156 69
10109 10241 68
10110 10057 28
10110 10091 131
10110 10187 35
10111 10086 110
10111 10272 233
10111 10395 154
10112 9991 96
10112 10029 63
10112 10135 14
10112 10206 65
10113 9911 200
10113 10011 101
10113 10134 125
10114 10012 188
10114 10170 97
10115 10086 85
10115 10124 53
10115 10325 117
10116 10117 163
10116 9782 193
10116 10393 276
10117 10116 163
10117 10018 574
10117 10222 138
10118 10107 80
10119 10082 25
10119 10126 23
10119 10207 48
10120 9956 106
10120 10081 33
10120 10176 55
10121 10003 127
10121 10150 18
10121 10239 69
10122 10023 56
10122 10047 107
10122 10166 53
10123 9959 106
10123 10016 117
10123 10226 60
10124 10115 53
10124 10134 177
10124 10263 78
10125 9992 111
10125 10067 38
10125 10236 76
10126 10034 49
10126 10106 32
10126 10119 23
10126 10823 372
10127 10080 50
10127 10170 47
10127 10171 74
10128 10013 79
10128 10169 41
10128 10268 105
10129 10031 73
10129 9904 195
10129 10191 45
10130 10131 228
10130 10132 118
10130 10402 560
10131 10130 228
10132 10130 118
10132 10133 59
10132 10267 197
10133 10132 59
10134 10124 177
10134 10113 125
10134 10249 62
10135 10112 14
10135 10044 63
10135 10229 64
10135 10339 173
10136 9946 120
10136 10033 113
10136 10233 94
10136 10253 73
10137 10063 76
10137 10209 62
10137 10259 103
10138 10034 185
10138 10230 137
10139 10030 151
10139 10143 9
10139 10406 189
10140 10099 19
10140 10197 29
10141 10067 58
10141 10068 50
10141 10219 52
10141 10285 119
10142 9971 102
10142 10258 140
10142 10322 106
10143 10139 9
10143 10097 25
10143 10255 113
10143 10314 99
10144 10032 68
10144 10084 60
10144 10202 125
10144 10232 46
10145 10024 69
10145 10059 131
10145 10208 105
10145 10262 73
10146 10002 117
10146 10036 101
10146 10228 53
10146 10278 106
10147 9825 170
10147 9786 199
10147 10498 187
10148 10098 25
10148 10175 17
10149 10049 52
10149 10093 155
10149 10151 3
10149 10291 79
10150 10121 18
10150 10595 285
10151 10052 52
10151 10149 3
10151 10175 75
10151 10292 79
10152 10153 64
10153 10152 64
10153 10186 88
10153 10194 37
10154 9870 163
10154 10103 75
10154 10227 104
10154 10349 115
10155 10105 78
10155 10232 101
10155 10283 69
10156 10109 69
10156 10203 62
10156 10365 117
10157 10015 88
10157 10058 96
10157 10242 83
10157 10287 86
10158 10102 84
10158 10213 88
10158 10264 61
10159 10160 106
10160 10159 106
10160 10161 39
10160 10244 75
10161 10160 39
10162 10163 12
10162 10165 39
10163 10162 12
10164 9995 97
10164 10005 88
10164 10381 123
10165 10162 39
10166 10077 75
10166 10122 53
10166 10198 64
10167 10036 86
10167 10062 70
10167 10188 12
10168 10016 94
10168 10070 110
10168 10234 120
10168 10237 40
10169 10128 41
10169 10231 63
10169 10320 97
10170 10127 47
10170 10114 97
10170 10196 34
10171 10172 144
10171 10127 74
10171 9971 193
10171 10196 13
10172 10171 144
10173 10174 21
10173 9980 143
10174 10173 21
10175 10148 17
10175 10151 75
10175 10197 29
10176 10009 108
10176 10120 55
10176 10190 8
10176 10256 109
10177 10178 31
10177 10193 59
10177 10410 126
10178 10177 31
10178 10444 188
10179 10070 52
10179 10250 86
10179 10270 63
10180 9931 147
10180 10181 4
10180 10195 26
10180 10227 27
10181 10180 4
10182 10065 96
10182 10079 46
10182 10240 45
10183 10184 85
10183 10192 94
10184 10183 85
10184 10094 45
10184 10239 47
10184 10243 46
10185 10106 41
10185 10087 98
10185 10274 53
10186 10153 88
10186 10220 141
10186 10301 68
10187 10110 35
10187 10210 62
10187 10235 28
10188 10167 12
10188 10259 56
10188 10278 81
10189 10102 89
10189 10207 14
10189 10223 58
10190 10176 8
10190 10265 108
10190 10307 81
10191 10129 45
10191 10293 42
10192 10183 94
10192 10249 205
10192 10312 100
10193 10177 59
10193 10413 122
10194 10048 83
10194 10153 37
10194 10301 147
10194 10306 107
10195 10180 26
10195 10211 12
10196 10171 13
10196 10170 34
10196 10258 119
10196 10322 214
10197 10140 29
10197 10175 29
10197 10205 11
10198 10166 64
10198 10199 41
10198 10218 46
10199 10198 41
10199 10218 28
10200 10090 97
10200 10270 79
10200 10327 93
10201 10058 83
10201 10048 151
10201 10287 96
10201 10326 89
10202 10066 67
10202 10144 125
10202 10214 131
10202 10304 60
10203 10156 62
10203 10061 69
10203 10214 28
10203 10354 88
10204 9978 152
10204 10277 57
10204 10335 87
10205 10197 11
10205 10044 201
10205 10315 64
10206 10078 96
10206 10112 65
10206 10229 14
10206 10352 111
10207 10189 14
10207 10119 48
10207 10298 50
10208 10087 63
10208 10145 105
10208 10274 112
10208 10342 79
10209 10137 62
10209 10100 70
10209 10289 72
10209 10372 116
10210 9919 167
10210 10187 62
10210 10370 92
10211 10195 12
10212 10060 111
10212 10379 36
10213 10158 88
10213 10230 50
10213 10311 61
10214 10203 28
10214 10202 131
10214 10304 147
10215 10216 12
10215 10238 37
10216 10215 12
10217 10095 59
10217 10235 202
10217 10317 60
10218 10198 46
10218 10199 28
10218 10279 72
10219 10141 52
10219 10290 57
10219 10359 119
10220 10186 141
10220 10221 88
10220 10336 67
10221 10220 88
10221 10222 88
10221 10328 65
10222 10221 88
10222 10117 138
10222 10330 65
10223 10189 58
10223 10264 85
10223 10321 63
10224 10064 96
10224 10078 103
10224 10225 119
10224 10300 59
10224 10352 105
10225 10076 71
10225 10224 119
10225 10392 101
10226 10123 60
10226 10234 7
10226 10234 7
10226 10234 7
10226 10296 47
10226 10361 215
10227 10180 27
10227 10154 104
10227 10247 15
10227 10276 95
10228 10068 117
10228 10146 53
10228 10285 50
10228 10343 99
10229 10206 14
10229 10135 64
10229 10356 113
10229 10364 104
10230 10138 137
10230 10213 50
10230 10252 47
10231 10169 63
10231 10275 57
10231 10367 92
10232 10144 46
10232 10155 101
10232 10284 73
10232 10313 50
10233 10007 129
10233 10136 94
10233 10376 164
10233 10423 115
10234 10226 7
10234 10226 7
10234 10226 7
10234 10168 120
10234 10329 78
10235 10187 28
10235 10217 202
10235 10332 61
10236 10004 163
10236 10125 76
10236 10290 59
10236 10309 55
10237 10168 40
10237 10250 11
10237 10329 125
10238 10215 37
10239 10184 47
10239 10121 69
10239 10269 29
10240 10097 116
10240 10182 45
10240 10255 13
10241 10109 68
10241 10266 112
10241 10391 81
10242 10090 90
10242 10157 83
10242 10327 96
10242 10382 91
10243 10184 46
10243 10312 53
10243 10334 76
10244 9850 237
10244 10160 75
10244 10286 36
10244 10302 87
10245 10246 29
10245 10297 91
10246 10245 29
10246 10251 41
10246 10271 174
10247 10227 15
10247 10248 4
10247 10260 26
10247 10422 99
10248 10247 4
10249 10134 62
10249 10192 205
10250 10237 11
10250 10179 86
10250 10345 60
10250 10369 151
10251 10246 41
10251 10362 70
10252 10230 47
10252 10288 66
10252 10366 70
10252 10425 106
10253 10136 73
10253 10254 117
10253 10361 66
10254 10253 117
10255 10143 113
10255 10240 13
10255 10344 49
10256 10108 103
10256 10176 109
10256 10265 8
10256 10268 18
10257 10105 82
10257 10283 87
10257 10394 75
10258 10142 140
10258 10196 119
10258 10387 205
10259 10188 56
10259 10137 103
10259 10318 53
10259 10372 84
10260 10261 13
10260 10247 26
10261 10260 13
10262 10145 73
10262 10342 114
10262 10428 93
10263 10124 78
10263 10324 62
10264 10158 61
10264 10223 85
10264 10311 86
10264 10373 63
10265 10256 8
10265 10190 108
10265 10282 18
10265 10431 106
10266 10093 91
10266 10241 112
10266 10291 131
10266 10417 79
10267 10132 197
10267 10649 222
10268 10128 105
10268 10256 18
10268 10282 9
10268 10320 68
10269 10239 29
10269 10334 46
10270 10179 63
10270 10200 79
10270 10345 85
10270 10414 93
10271 10246 174
10272 10273 120
10272 10111 233
10272 10338 62
10273 10272 120
10274 10185 53
10274 10208 112
10274 10445 87
10275 10103 107
10275 10231 57
10275 10349 96
10275 10403 90
10276 9985 167
10276 10227 95
10276 10310 50
10276 10483 115
10277 10100 143
10277 10204 57
10277 10377 72
10278 10146 106
10278 10188 81
10278 10308 24
10279 10218 72
10279 10047 126
10279 10370 95
10280 10107 94
10280 10281 61
10280 10295 93
10280 10432 77
10281 10280 61
10281 10424 85
10282 10268 9
10282 10265 18
10282 10337 70
10282 10415 88
10283 10155 69
10283 10257 87
10283 10313 95
10283 10420 72
10284 10232 73
10284 10355 75
10284 10469 93
10285 10141 119
10285 10228 50
10285 10359 52
10285 10405 93
10286 10244 36
10286 10399 153
10286 10566 155
10287 10157 86
10287 10201 96
10287 10382 86
10287 10426 80
10288 10252 66
10288 10488 244
10288 10493 244
10289 10209 72
10289 10377 70
10289 10466 126
10290 10236 59
10290 10219 57
10290 10360 60
10291 10149 79
10291 10266 131
10291 10292 4
10291 10455 81
10292 10151 79
10292 10291 4
10292 10315 113
10292 10457 81
10293 10294 45
10293 10191 42
10294 10293 45
10294 9968 208
10294 10368 63
10295 9955 194
10295 10280 93
10295 10299 11
10295 10384 47
10296 10226 47
10296 10319 20
10296 10380 217
10296 10400 201
10297 10245 91
10297 10338 67
10297 10362 91
10298 10207 50
10298 10321 44
10298 10471 88
10299 9939 203
10299 10295 11
10299 10323 88
10299 10390 47
10300 10224 59
10300 10392 69
10300 10464 107
10301 10194 147
10301 10186 68
10301 10305 7
10302 10244 87
10302 10303 84
10302 10340 46
10303 10302 84
10304 10214 147
10304 10202 60
10304 10355 30
10305 10301 7
10305 10336 134
10305 10441 68
10306 10194 107
10306 10326 44
10306 10397 139
10307 10190 81
10307 10081 147
10307 10376 48
10307 10431 102
10308 10278 24
10308 10343 27
10308 10386 55
10309 10236 55
10309 10389 53
10309 10462 115
10310 10017 167
10310 10276 50
10310 10346 62
10310 10518 114
10311 10213 61
10311 10264 86
10311 10366 95
10311 10409 50
10312 10192 100
10312 10243 53
10312 10404 74
10313 10232 50
10313 10283 95
10313 10454 69
10314 10143 99
10314 10344 114
10314 10406 47
10315 10205 64
10315 10292 113
10315 10339 89
10315 10447 62
10316 9982 184
10316 10317 60
10316 10605 150
10317 10217 60
10317 10316 60
10317 10332 191
10317 10440 59
10318 10259 53
10318 10386 52
10318 10453 84
10319 10296 20
10319 10329 27
10319 10369 29
10320 10169 97
10320 10268 68
10320 10337 8
10320 10367 59
10321 10223 63
10321 10298 44
10321 10373 86
10321 10486 85
10322 10142 106
10322 10196 214
10322 10333 17
10322 10468 71
10323 9988 185
10323 10299 88
10323 10348 61
10323 10513 95
10324 10263 62
10324 10325 6
10325 10115 117
10325 10324 6
10325 10347 93
10326 10201 89
10326 10306 44
10326 10426 97
10327 10200 93
10327 10242 96
10327 10414 78
10327 10479 90
10328 10221 65
10328 10330 86
10328 10336 87
10328 10435 49
10329 10319 27
10329 10234 78
10329 10237 125
10330 10328 86
10330 10222 65
10330 10331 52
10330 10438 49
10331 10330 52
10331 10393 34
10332 10235 61
10332 10317 191
10332 10448 55
10333 9868 269
10333 10322 17
10333 10385 79
10333 11118 451
10334 10243 76
10334 10269 46
10334 10404 48
10335 10204 87
10335 10371 87
10335 10474 94
10336 10305 134
10336 10220 67
10336 10328 87
10336 10427 43
10337 10320 8
10337 10282 70
10337 10388 60
10337 10485 84
10338 10297 67
10338 10272 62
10338 10442 82
10339 10135 173
10339 10315 89
10339 10353 69
10339 10472 67
10340 10302 46
10340 10341 70
10340 10399 31
10341 10340 70
10342 10208 79
10342 10262 114
10342 10445 142
10342 10491 88
10343 10228 99
10343 10308 27
10343 10405 50
10344 10314 114
10344 10255 49
10344 10421 43
10345 10250 60
10345 10270 85
10345 10503 99
10345 10507 145
10346 10059 166
10346 10310 62
10346 10428 116
10346 10552 116
10347 10325 93
10347 10401 48
10348 10026 177
10348 10323 61
10348 10363 48
10348 10451 48
10349 10154 115
10349 10275 96
10349 10422 105
10349 10505 86
10350 10351 142
10351 10350 142
10351 10357 22
10351 10679 224
10352 10224 105
10352 10206 111
10352 10364 20
10352 10464 67
10353 10339 69
10353 10356 23
10353 10480 65
10354 10203 88
10354 10355 158
10354 10365 53
10354 10514 81
10355 10354 158
10355 10304 30
10355 10284 75
10355 10383 13
10356 10229 113
10356 10353 23
10356 10375 81
10357 10351 22
10357 10088 166
10357 10358 12
10358 10357 12
10358 10700 251
10359 10219 119
10359 10285 52
10359 10446 54
10359 10477 86
10360 10290 60
10360 10446 59
10360 10462 61
10361 10253 66
10361 10226 215
10361 10380 10
10361 10423 98
10362 10251 70
10362 10297 91
10362 10450 44
10363 10054 167
10363 10348 48
10363 10394 72
10364 10352 20
10364 10229 104
10364 10374 8
10364 10374 8
10364 10375 75
10365 10156 117
10365 10354 53
10365 10391 63
10366 10252 70
10366 10311 95
10366 10425 81
10366 10495 68
10367 10231 92
10367 10320 59
10367 10388 8
10367 10403 40
10368 10294 63
10368 10381 21
10369 10319 29
10369 10250 151
10369 10467 49
10370 10279 95
10370 10210 92
10370 10448 81
10370 10517 78
10371 10335 87
10371 10478 85
10371 10567 131
10372 10259 84
10372 10209 116
10372 10453 53
10372 10466 56
10373 10264 63
10373 10321 86
10373 10433 70
10373 10530 83
10374 10364 8
10374 10364 8
10374 10527 77
10374 10540 115
10375 10356 81
10375 10364 75
10375 10511 67
10376 10307 48
10376 10233 164
10376 10526 91
10377 10289 70
10377 10277 72
10377 10416 26
10378 10379 96
10378 10429 27
10379 10378 96
10379 10212 36
10380 10361 10
10380 10296 217
10380 10400 10
10380 10439 99
10381 10368 21
10381 10164 123
10381 10387 6
10381 10412 13
10382 10242 91
10382 10287 86
10382 10479 93
10382 10516 77
10383 10355 13
10383 10481 50
10383 10492 75
10384 10295 47
10384 10390 11
10384 10482 50
10385 9806 323
10385 10333 79
10385 10412 34
10385 10961 317
10386 10308 55
10386 10318 52
10386 10463 53
10386 10508 84
10387 10381 6
10387 10258 205
10387 10461 44
10388 10367 8
10388 10337 60
10388 10418 39
10388 10544 91
10389 10309 53
10389 10610 123
10389 10618 144
10390 10299 47
10390 10384 11
10390 10398 54
10390 10484 51
10391 10241 81
10391 10365 63
10391 10417 116
10391 10535 79
10392 10225 101
10392 10300 69
10392 10411 7
10393 10331 34
10393 10116 276
10393 10434 17
10394 10257 75
10394 10363 72
10394 10420 95
10394 10550 82
10395 10111 154
10395 10396 9
10395 10408 39
10396 10395 9
10396 10401 55
10396 10502 59
10397 10306 139
10397 10441 164
10397 10476 81
10398 10390 54
10399 10286 153
10399 10340 31
10399 10512 169
10400 10380 10
10400 10296 201
10400 10456 100
10400 10599 117
10401 10347 48
10401 10396 55
10401 10638 131
10402 10130 560
10403 10275 90
10403 10367 40
10403 10418 8
10403 10505 127
10404 10312 74
10404 10334 48
10404 10707 256
10405 10285 93
10405 10343 50
10405 10477 55
10406 10139 189
10406 10314 47
10406 10421 135
10406 10490 45
10407 10408 40
10407 10497 241
10408 10407 40
10408 10395 39
10408 10541 85
10409 10311 50
10409 10419 11
10409 10433 25
10410 10177 126
10410 10413 59
10410 10496 104
10411 10392 7
10411 10437 40
10411 10624 120
10412 10381 13
10412 10385 34
10412 10429 25
10412 10520 58
10413 10193 122
10413 10410 59
10413 10532 64
10414 10270 93
10414 10327 78
10414 10503 86
10414 10564 89
10415 10282 88
10415 10430 11
10415 10611 121
10416 10377 26
10416 10474 46
10416 10577 135
10417 10266 79
10417 10391 116
10417 10455 124
10417 10561 79
10418 10403 8
10418 10388 39
10418 10587 92
10418 10676 168
10419 10409 11
10419 10458 16
10420 10283 72
10420 10394 95
10420 10454 84
10420 10573 82
10421 10406 135
10421 10344 43
10421 10554 77
10422 10247 99
10422 10349 105
10422 10483 99
10422 10585 96
10423 10233 115
10423 10361 98
10423 10439 6
10423 10526 151
10424 10281 85
10424 10432 35
10425 10252 106
10425 10366 81
10425 10487 37
10426 10287 80
10426 10326 97
10426 10516 86
10426 10570 85
10427 10336 43
10427 10435 83
10427 10441 131
10427 10565 78
10428 10262 93
10428 10346 116
10428 10491 107
10428 10615 109
10429 10378 27
10429 10412 25
10429 10475 28
10429 10500 253
10430 10415 11
10430 10485 73
10430 10593 103
10431 10265 106
10431 10307 102
10431 10504 49
10432 10280 77
10432 10424 35
10432 10470 19
10433 10409 25
10433 10373 70
10433 10473 27
10434 10393 17
10434 10438 56
10434 10443 34
10434 10574 79
10435 10427 83
10435 10328 49
10435 10438 89
10435 10575 77
10436 10437 78
10436 10444 47
10437 10436 78
10437 10411 40
10437 10559 77
10438 10435 89
10438 10330 49
10438 10434 56
10438 10580 78
10439 10423 6
10439 10380 99
10439 10456 9
10439 10538 146
10440 10317 59
10440 10449 92
10440 10568 73
10441 10305 68
10441 10427 131
10441 10397 164
10441 10596 84
10442 10338 82
10442 10450 57
10442 10510 49
10443 10434 34
10443 10529 49
10443 10619 188
10444 10178 188
10444 10436 47
10444 10496 33
10445 10274 87
10445 10342 142
10445 10555 61
10446 10360 59
10446 10359 54
10446 10542 83
10447 10315 62
10447 10457 125
10447 10472 84
10447 10616 92
10448 10370 81
10448 10332 55
10448 10449 92
10449 10440 92
10449 10448 92
10449 10489 34
10450 10362 44
10450 10442 57
10450 10649 287
10451 10348 48
10451 10452 20
10451 10465 45
10452 10451 20
10453 10318 84
10453 10372 53
10453 10508 50
10453 10634 128
10454 10313 69
10454 10420 84
10454 10469 70
10454 10590 78
10455 10291 81
10455 10417 124
10455 10457 4
10455 10598 79
10456 10439 9
10456 10400 100
10456 10553 147
10456 10613 93
10457 10292 81
10457 10455 4
10457 10447 125
10457 10601 79
10458 10419 16
10458 10473 25
10458 10495 74
10459 10460 59
10459 10461 118
10459 10470 36
10460 10459 59
10460 10041 171
10461 10459 118
10461 10387 44
10462 10309 115
10462 10360 61
10462 10533 57
10462 10670 174
10463 10386 53
10463 10524 54
10463 10571 83
10464 10300 107
10464 10352 67
10464 10624 116
10465 10451 45
10466 10372 56
10466 10289 126
10466 10577 83
10467 10369 49
10467 10507 28
10467 10549 92
10468 10322 71
10468 10488 176
10468 10677 130
10469 10284 93
10469 10454 70
10469 10481 74
10470 10432 19
10470 10459 36
10470 10482 89
10471 10298 88
10471 10486 28
10471 10581 59
10472 10339 67
10472 10447 84
10472 10480 66
10472 10641 88
10473 10433 27
10473 10458 25
10473 10586 65
10474 10416 46
10474 10335 94
10474 10567 85
10474 10672 137
10475 10429 28
10475 10520 23
10476 10397 81
10476 10570 103
10476 10614 81
10477 10359 86
10477 10405 55
10477 10542 51
10478 10371 85
10478 10640 108
10478 10669 134
10479 10327 90
10479 10382 93
10479 10564 88
10479 10608 80
10480 10353 65
10480 10472 66
10480 10511 109
10480 10654 88
10481 10383 50
10481 10469 74
10481 10492 58
10481 10635 78
10482 10384 50
10482 10470 89
10482 10484 11
10482 10500 11
10483 10276 115
10483 10422 99
10483 10518 51
10483 10663 98
10484 10390 51
10484 10482 11
10484 10506 12
10484 10513 97
10485 10337 84
10485 10430 73
10485 10544 65
10485 10668 108
10486 10321 85
10486 10471 28
10486 10530 76
10486 10661 96
10487 10425 37
10487 10558 42
10487 10588 55
10488 10468 176
10488 10288 244
10488 10493 244
10489 10449 34
10489 10501 15
10489 10519 147
10489 10639 77
10490 10406 45
10490 10548 34
10490 10554 173
10491 10342 88
10491 10428 107
10491 10537 75
10491 10673 112
10492 10383 75
10492 10481 58
10492 10514 99
10492 10657 100
10493 10494 130
10493 10617 263
10493 10288 244
10493 10488 244
10494 10493 130
10494 10499 37
10494 10851 231
10495 10366 68
10495 10458 74
10495 10558 105
10495 10646 82
10496 10410 104
10496 10444 33
10496 10559 81
10496 10650 88
10497 10407 241
10497 10510 22
10497 10531 25
10498 10147 187
10498 10532 45
10498 10606 58
10499 10494 37
10499 10521 82
10499 10525 13
10500 10482 11
10500 10429 253
10500 10506 12
10500 10521 10
10501 10489 15
10501 10568 71
10502 10396 59
10502 10547 32
10502 10625 208
10503 10345 99
10503 10414 86
10503 10645 130
10503 10656 89
10504 10431 49
10504 10563 38
10505 10349 86
10505 10403 127
10505 10585 93
10505 10676 98
10506 10484 12
10506 10500 12
10506 10522 9
10507 10467 28
10507 10345 145
10507 10603 95
10507 10645 94
10508 10386 84
10508 10453 50
10508 10571 53
10508 10674 118
10509 10510 7
10510 10509 7
10510 10442 49
10510 10497 22
10510 10515 15
10511 10375 67
10511 10480 109
10511 10527 75
10511 10671 88
10512 10399 169
10512 10543 33
10512 10556 49
10513 10323 95
10513 10484 97
10513 10550 179
10514 10354 81
10514 10492 99
10514 10535 116
10514 10662 78
10515 10510 15
10515 10523 13
10515 10572 36
10516 10382 77
10516 10426 86
10516 10608 93
10516 10711 124
10517 10370 78
10517 10519 17
10517 10534 71
10517 10776 142
10518 10310 114
10518 10483 51
10518 10552 55
10519 10517 17
10519 10489 147
10520 10475 23
10520 10412 58
10520 10617 53
10521 10500 10
10521 10499 82
10521 10522 13
10521 10825 164
10522 10506 9
10522 10521 13
10522 10528 20
10522 10830 165
10523 10515 13
10523 10666 108
10523 10736 182
10524 10463 54
10524 10607 69
10524 10644 81
10525 10499 13
10525 10551 62
10525 11029 262
10526 10376 91
10526 10423 151
10526 10538 11
10526 10563 119
10527 10374 77
10527 10511 75
10527 10540 88
10527 10691 89
10528 10522 20
10528 10539 46
10528 10557 20
10529 10443 49
10529 10574 29
10529 10621 130
10530 10373 83
10530 10486 76
10530 10586 85
10530 10631 53
10531 10497 25
10531 10536 16
10531 10536 16
10531 10572 27
10532 10498 45
10532 10413 64
10532 10650 122
10533 10462 57
10533 10618 57
10533 10731 155
10534 10517 71
10534 10640 78
10534 10774 128
10535 10391 79
10535 10514 116
10535 10561 114
10535 10684 79
10536 10531 16
10536 10531 16
10536 10560 48
10536 10664 77
10537 10491 75
10537 10592 80
10537 10740 109
10538 10526 11
10538 10439 146
10538 10553 8
10538 10600 118
10539 10528 46
10539 10562 131
10539 10579 26
10540 10374 115
10540 10527 88
10540 10708 90
10540 10714 121
10541 10408 85
10541 10602 65
10541 10625 45
10542 10446 83
10542 10477 51
10542 10607 52
10543 10512 33
10543 10569 40
10543 10637 47
10544 10388 91
10544 10485 65
10544 10587 47
10544 10713 103
10545 10546 67
10545 10619 37
10545 10753 282
10546 10545 67
10546 10652 136
10547 10502 32
10547 10638 58
10547 10804 159
10548 10490 34
10548 10623 51
10548 10636 165
10549 10467 92
10549 10603 32
10549 10622 88
10550 10394 82
10550 10513 179
10550 10573 99
10551 10525 62
10551 10855 179
10552 10346 116
10552 10518 55
10552 10615 116
10552 10718 97
10553 10538 8
10553 10456 147
10553 10648 120
10553 10715 104
10554 10490 173
10554 10421 77
10554 10578 14
10555 10445 61
10555 10592 40
10555 10628 37
10556 10512 49
10556 10576 51
10556 10594 24
10557 10528 20
10557 10579 72
10557 10843 163
10558 10487 42
10558 10495 105
10558 10588 36
10558 10701 81
10559 10496 81
10559 10437 77
10559 10703 86
10560 10536 48
10560 10589 64
10560 10749 102
10561 10417 79
10561 10535 114
10561 10598 124
10561 10710 78
10562 10539 131
10562 10579 118
10562 10604 179
10563 10504 38
10563 10526 119
10563 10600 18
10564 10414 89
10564 10479 88
10564 10656 76
10564 10690 78
10565 10427 78
10565 10575 90
10565 10642 34
10566 10286 155
10566 10578 35
10566 10683 289
10567 10474 85
10567 10371 131
10567 10583 4
10567 10777 136
10568 10501 71
10568 10440 73
10568 10665 78
10569 10543 40
10569 10658 57
10570 10426 85
10570 10476 103
10570 10686 65
10571 10463 83
10571 10508 53
10571 10644 53
10571 10726 108
10572 10515 36
10572 10531 27
10572 10693 80
10572 10705 77
10573 10420 82
10573 10550 99
10573 10590 70
10573 10604 17
10574 10434 79
10574 10529 29
10574 10580 66
10574 10704 128
10575 10565 90
10575 10435 77
10575 10584 58
10575 10682 59
10576 10556 51
10576 10591 26
10577 10466 83
10577 10416 135
10577 10634 56
10577 10672 78
10578 10554 14
10578 10566 35
10578 10636 32
10579 10539 26
10579 10557 72
10579 10562 118
10580 10438 78
10580 10574 66
10580 10584 30
10581 10471 59
10581 10582 76
10581 10661 41
10582 10581 76
10582 9675 399
10583 10567 4
10583 10669 78
10583 10785 136
10584 10575 58
10584 10580 30
10584 10704 67
10585 10422 96
10585 10505 93
10585 10663 114
10585 10748 96
10586 10473 65
10586 10530 85
10586 10646 88
10586 10680 57
10587 10418 92
10587 10544 47
10587 10647 72
10587 10725 86
10588 10487 55
10588 10558 36
10588 10609 13
10589 10560 64
10589 10620 16
10589 10749 89
10590 10454 78
10590 10573 70
10590 10635 154
10591 10576 26
10592 10555 40
10592 10537 80
10592 10791 109
10593 10430 103
10593 10668 79
10594 10556 24
10594 10637 40
10594 10655 52
10595 10150 285
10595 10633 25
10596 10597 154
10596 10441 84
10596 10632 101
10596 10709 62
10597 10596 154
10597 10612 33
10597 10698 72
10598 10455 79
10598 10561 124
10598 10601 5
10598 10741 76
10599 10400 117
10599 10613 123
10599 10622 17
10600 10563 18
10600 10538 118
10600 10611 17
10600 10648 26
10601 10457 79
10601 10598 5
10601 10616 125
10601 10743 75
10602 10541 65
10602 10675 71
10602 10871 175
10603 10549 32
10603 10507 95
10603 10681 87
10603 10745 86
10604 10573 17
10604 10562 179
10604 10659 223
10604 10728 65
10605 10316 150
10605 10665 29
10605 10838 122
10606 10498 58
10606 10689 44
10606 11287 375
10607 10542 52
10607 10524 69
10607 10670 67
10607 10706 82
10608 10479 80
10608 10516 93
10608 10690 85
10608 10732 79
10609 10588 13
10609 10677 38
10609 10729 70
10610 10389 123
10610 10630 128
10611 10415 121
10611 10600 17
10611 10685 96
10611 10938 192
10612 10597 33
10612 10614 15
10612 10878 153
10613 10456 93
10613 10599 123
10613 10626 16
10613 10789 113
10614 10476 81
10614 10612 15
10614 10686 106
10615 10428 109
10615 10552 116
10615 10673 99
10615 10799 106
10616 10447 92
10616 10601 125
10616 10641 77
10616 10766 81
10617 10520 53
10617 10493 263
10617 10873 147
10618 10389 144
10618 10533 57
10618 10678 37
10618 10792 138
10619 10443 188
10619 10545 37
10619 10796 94
10620 10589 16
10620 10675 48
10621 10529 130
10622 10599 17
10622 10549 88
10622 10681 40
10623 10548 51
10623 10652 173
10623 10746 199
10624 10411 120
10624 10464 116
10624 10770 102
10625 10541 45
10625 10702 48
10625 10502 208
10626 10613 16
10626 10696 63
10626 10715 105
10627 10628 101
10627 9669 402
10628 10627 101
10628 10555 37
10628 10814 101
10629 10630 43
10630 10629 43
10630 10610 128
10630 10722 52
10631 10530 53
10631 10643 6
10632 10596 101
10632 10642 27
10632 10737 59
10633 10595 25
10633 10707 48
10633 11143 286
10634 10453 128
10634 10577 56
10634 10674 55
10635 10481 78
10635 10590 154
10635 10657 122
10635 10659 15
10636 10548 165
10636 10578 32
10636 10746 62
10637 10543 47
10637 10594 40
10637 10658 17
10638 10401 131
10638 10547 58
10638 11131 408
10639 10489 77
10639 10651 79
10639 10793 85
10640 10478 108
10640 10534 78
10640 10784 117
10640 10812 101
10641 10472 88
10641 10616 77
10641 10654 69
10641 10787 81
10642 10632 27
10642 10565 34
10642 10682 98
10642 10747 59
10643 10631 6
10643 10680 80
10644 10524 81
10644 10571 53
10644 10706 61
10644 10783 101
10645 10507 94
10645 10503 130
10645 10738 96
10645 10745 113
10646 10495 82
10646 10586 88
10646 10701 105
10646 10742 57
10647 10587 72
10647 10676 56
10647 10692 34
10648 10600 26
10648 10553 120
10648 10907 157
10649 10267 222
10649 10450 287
10649 11090 1618
10650 10532 122
10650 10496 88
10650 10703 82
10650 10786 81
10651 10639 79
10651 10653 9
10651 10735 49
10652 10546 136
10652 10623 173
10652 10753 100
10653 10651 9
10654 10480 88
10654 10641 69
10654 10671 111
10654 10800 82
10655 10594 52
10655 10660 4
10656 10503 89
10656 10564 76
10656 10738 91
10656 10754 64
10657 10492 100
10657 10635 122
10657 10662 33
10658 10569 57
10658 10637 17
10658 10683 23
10658 10697 33
10659 10635 15
10659 10604 223
10659 10688 158
10659 10782 66
10660 10655 4
10660 10667 57
10660 10697 78
10661 10486 96
10661 10581 41
10661 10720 165
10661 10831 93
10662 10514 78
10662 10657 33
10662 10684 118
10663 10483 98
10663 10585 114
10663 10718 98
10663 10847 106
10664 10536 77
10664 10705 110
10664 10751 53
10665 10568 78
10665 10605 29
10665 10761 54
10666 10523 108
10667 10660 57
10668 10485 108
10668 10593 79
10668 10685 13
10668 10713 59
10669 10583 78
10669 10478 134
10669 10784 89
10669 10868 132
10670 10462 174
10670 10607 67
10670 10731 61
10670 10794 93
10671 10511 88
10671 10654 111
10671 10691 76
10671 10816 75
10672 10577 78
10672 10474 137
10672 10777 83
10672 10803 89
10673 10491 112
10673 10615 99
10673 10740 97
10673 10867 110
10674 10508 118
10674 10634 55
10674 10726 50
10674 10803 117
10675 10620 48
10675 10602 71
10675 10871 126
10676 10505 98
10676 10418 168
10676 10647 56
10676 10748 85
10676 10826 86
10677 10468 130
10677 10609 38
10677 10963 161
10678 10618 37
10678 10687 8
10679 10351 224
10679 10700 231
10679 10765 119
10680 10586 57
10680 10643 80
10680 10720 24
10680 10742 85
10681 10622 40
10681 10603 87
10681 10789 99
10681 10821 90
10682 10642 98
10682 10575 59
10682 10699 42
10682 10781 48
10683 10566 289
10683 10658 23
10683 10733 29
10683 10874 140
10684 10535 79
10684 10662 118
10684 10710 113
10685 10668 13
10685 10611 96
10685 10771 105
10685 11059 207
10686 10570 65
10686 10614 106
10686 10711 63
10687 10678 8
10687 10723 175
10687 10810 261
10688 10659 158
10688 10712 115
10688 10813 66
10689 10606 44
10689 10786 111
10689 10921 146
10690 10564 78
10690 10608 85
10690 10755 57
10690 10772 47
10691 10527 89
10691 10671 76
10691 10708 85
10691 10817 66
10692 10647 34
10693 10572 80
10694 10695 39
10695 10694 39
10695 10730 50
10695 10888 107
10696 10626 63
10697 10658 33
10697 10660 78
10697 10733 26
10698 10597 72
10698 10721 106
10698 10773 42
10699 10682 42
10699 10704 15
10699 10796 745
10700 10358 251
10700 10679 231
10700 11116 258
10701 10558 81
10701 10646 105
10701 10729 39
10701 10802 56
10702 10625 48
10702 10778 52
10702 10901 108
10703 10650 82
10703 10559 86
10703 10775 72
10704 10699 15
10704 10584 67
10704 10574 128
10704 10763 107
10705 10572 77
10705 10717 12
10705 10717 12
10705 10664 110
10706 10607 82
10706 10644 61
10706 10719 9
10707 10404 256
10707 10633 48
10707 10744 39
10707 10798 46
10708 10540 90
10708 10691 85
10708 10734 72
10709 10596 62
10709 10721 5
10709 10737 100
10710 10561 78
10710 10684 113
10710 10739 14
10710 10741 129
10711 10516 124
10711 10686 63
10711 10724 33
10712 10688 115
10712 10739 114
10712 10849 69
10713 10544 103
10713 10668 59
10713 10756 47
10714 10540 121
10714 10727 9
10714 10734 26
10715 10553 104
10715 10626 105
10715 10907 130
10715 10923 126
10716 10717 36
10716 10858 120
10717 10716 36
10717 10705 12
10717 10705 12
10718 10552 97
10718 10663 98
10718 10799 112
10718 10933 117
10719 10706 9
10719 10794 68
10719 10822 85
10720 10680 24
10720 10661 165
10720 10788 92
10720 10891 92
10721 10698 106
10721 10709 5
10721 10797 39
10722 10630 52
10722 10723 6
10723 10722 6
10723 10687 175
10723 10810 46
10724 10711 33
10724 10732 65
10724 10760 20
10725 10587 86
10725 10756 21
10725 10757 47
10726 10571 108
10726 10674 50
10726 10783 52
10726 10887 134
10727 10714 9
10727 10808 42
10727 10809 59
10728 10604 65
10728 10759 134
10728 10857 66
10729 10609 70
10729 10701 39
10729 10818 52
10730 10695 50
10730 10767 54
10730 10865 76
10731 10533 155
10731 10670 61
10731 10792 57
10731 10861 97
10732 10608 79
10732 10724 65
10732 10772 95
10732 10835 55
10733 10683 29
10733 10697 26
10733 10977 240
10734 10708 72
10734 10714 26
10734 10811 55
10735 10651 49
10735 10776 67
10735 10801 40
10736 10523 182
10736 10750 6
10737 10709 100
10737 10632 59
10737 10820 46
10738 10645 96
10738 10656 91
10738 10752 9
10738 10894 156
10739 10710 14
10739 10712 114
10739 10762 129
10739 10869 68
10740 10537 109
10740 10673 97
10740 10791 88
10740 10964 115
10741 10598 76
10741 10710 129
10741 10743 5
10741 10762 14
10742 10646 57
10742 10680 85
10742 10788 25
10742 10802 105
10743 10601 75
10743 10741 5
10743 10764 14
10743 10766 123
10744 10707 39
10745 10603 86
10745 10645 113
10745 10821 82
10745 10894 89
10746 10623 199
10746 10636 62
10746 10941 102
10747 10642 59
10747 10781 94
10747 10840 49
10748 10585 96
10748 10676 85
10748 10847 112
10748 10910 89
10749 10560 102
10749 10589 89
10749 10890 133
10749 10890 77
10750 10736 6
10750 10841 118
10750 11073 257
10751 10664 53
10752 10738 9
10752 10754 102
10752 10886 72
10753 10652 100
10753 10790 33
10753 10545 282
10754 10656 64
10754 10755 31
10754 10752 102
10754 10805 33
10755 10754 31
10755 10690 57
10755 10772 69
10756 10725 21
10756 10713 47
10756 10771 8
10757 10758 45
10757 10725 47
10757 10826 87
10758 10757 45
10759 10728 134
10759 10782 79
10759 10881 63
10760 10724 20
10760 10827 39
10761 10665 54
10761 10793 115
10761 10895 69
10762 10741 14
10762 10739 129
10762 10764 5
10762 10902 69
10763 10704 107
10764 10743 14
10764 10762 5
10764 10795 129
10764 10903 69
10765 10679 119
10765 11428 469
10766 10616 81
10766 10743 123
10766 10787 77
10767 10730 54
10767 10798 43
10767 10915 79
10768 10769 76
10768 10832 94
10768 10874 66
10769 10768 76
10770 10624 102
10770 10775 22
10770 10815 46
10771 10756 8
10771 10685 105
10771 11004 162
10771 11129 214
10772 10755 69
10772 10690 47
10772 10732 95
10772 10805 83
10773 10698 42
10773 10797 79
10773 10852 44
10774 10534 128
10774 10812 62
10774 10991 112
10775 10703 72
10775 10770 22
10775 10815 30
10776 10517 142
10776 10735 67
10776 10960 95
10777 10672 83
10777 10567 136
10777 10785 4
10777 10914 89
10778 10702 52
10778 10806 42
10779 10780 877
10780 10779 877
10780 11089 1890
10780 11479 791
10781 10747 94
10781 10682 48
10781 10863 45
10782 10659 66
10782 10759 79
10782 10813 164
10782 10879 55
10783 10644 101
10783 10726 52
10783 10822 51
10783 10975 149
10784 10669 89
10784 10640 117
10784 10920 84
10784 10968 137
10785 10777 4
10785 10583 136
10785 10868 77
10786 10689 111
10786 10650 81
10786 10846 64
10786 10848 64
10787 10641 81
10787 10766 77
10787 10800 67
10788 10742 25
10788 10720 92
10788 10919 127
10788 10952 86
10789 10613 113
10789 10681 99
10789 10923 123
10789 10954 90
10790 10753 33
10790 10911 70
10790 11055 155
10791 10592 109
10791 10740 88
10791 10814 44
10791 11024 138
10792 10618 138
10792 10731 57
10792 10925 97
10792 10906 201
10793 10639 85
10793 10761 115
10793 10801 68
10793 10943 74
10794 10670 93
10794 10719 68
10794 10861 60
10795 10764 129
10795 10824 134
10795 10926 72
10796 10619 94
10796 10699 745
10797 10773 79
10797 10721 39
10797 10820 98
10797 10853 28
10798 10767 43
10798 10707 46
10798 10839 49
10798 10949 79
10799 10615 106
10799 10718 112
10799 10867 96
10799 11030 131
10800 10654 82
10800 10787 67
10800 10816 114
10801 10735 40
10801 10793 68
10801 10807 24
10802 10701 56
10802 10742 105
10802 10818 34
10803 10674 117
10803 10672 89
10803 10862 43
10803 10887 56
10804 10547 159
10804 10806 1
10804 10806 1
10805 10754 33
10805 10772 83
10805 10835 187
10805 10913 80
10805 11009 121
10806 10804 1
10806 10804 1
10806 10778 42
10806 11001 100
10807 10801 24
10808 10727 42
10808 10809 41
10808 10811 22
10809 10727 59
10809 10808 41
10809 10819 40
10809 10834 14
10809 10837 26
10810 10723 46
10810 10687 261
10810 10885 42
10811 10808 22
10811 10734 55
10811 10817 167
10812 10640 101
10812 10774 62
10812 10920 91
10812 11022 109
10813 10688 66
10813 10782 164
10813 10849 116
10813 10976 79
10814 10628 101
10814 10791 44
10814 10823 23
10814 11007 94
10815 10775 30
10815 10770 46
10815 10819 8
10816 10671 75
10816 10800 114
10816 10817 76
10816 10844 13
10817 10811 167
10817 10691 66
10817 10816 76
10818 10729 52
10818 10802 34
10819 10815 8
10819 10809 40
10819 10875 74
10820 10797 98
10820 10737 46
10820 10840 47
10820 10948 61
10821 10681 90
10821 10745 82
10821 10954 113
10822 10719 85
10822 10783 51
10822 10833 6
10822 10980 133
10823 10126 372
10823 10814 23
10823 10831 8
10823 12101 884
10824 10795 134
10824 10844 118
10824 10850 8
10825 10521 164
10825 10830 10
10825 10854 11
10826 10676 86
10826 10757 87
10826 10910 85
10826 10940 57
10827 10760 39
10827 10916 40
10827 10953 213
10828 10829 69
10829 10828 69
10829 11216 229
10830 10522 165
10830 10825 10
10830 10843 39
10830 10856 11
10831 10661 93
10831 10823 8
10831 10891 132
10831 11094 133
10832 10768 94
10832 10870 20
10833 10822 6
10833 10962 87
10833 10980 139
10834 10809 14
10834 10836 9
10834 10845 232
10834 10866 15
10835 10732 55
10835 10805 187
10835 10877 28
10836 10834 9
10836 10837 8
10836 10866 16
10837 10809 26
10837 10836 8
10837 10924 116
10838 10605 122
10838 11305 266
10839 10798 49
10840 10820 47
10840 10747 49
10840 10842 10
10841 10750 118
10842 10840 10
10842 10863 84
10842 10989 72
10843 10557 163
10843 10830 39
10843 10859 50
10844 10816 13
10844 10824 118
10844 10845 77
10844 10955 52
10845 10844 77
10845 10834 232
10845 10967 59
10846 10786 64
10846 10848 0
10846 10875 31
10847 10663 106
10847 10748 112
10847 10933 97
10847 11010 89
10848 10786 64
10848 10846 0
10848 10875 31
10848 10889 26
10849 10712 69
10849 10813 116
10849 10869 114
10849 11003 78
10850 10824 8
10850 10928 91
10850 10934 42
10851 10494 231
10851 10855 17
10851 10873 49
10852 10773 44
10852 10884 56
10852 10897 27
10853 10797 28
10853 10884 20
10854 10825 11
10854 10856 10
10854 11060 102
10855 10551 179
10855 10851 17
10855 10880 97
10855 10957 52
10856 10830 11
10856 10854 10
10856 10860 16
10856 11160 165
10857 10728 66
10857 10864 67
10857 10945 41
10858 10716 120
10858 10898 170
10859 10843 50
10859 10876 9
10859 10882 126
10860 10856 16
10860 10876 72
10860 11176 177
10861 10731 97
10861 10794 60
10861 10925 61
10862 10803 43
10862 10914 42
10862 10993 84
10863 10842 84
10863 10781 45
10863 10950 40
10864 10857 67
10864 10881 64
10864 11069 103
10865 10730 76
10865 10888 61
10865 10915 55
10865 10958 46
10866 10836 16
10866 10834 15
10866 10936 33
10867 10673 110
10867 10799 96
10867 10922 66
10867 11106 141
10868 10785 77
10868 10669 132
10868 10968 68
10868 11016 91
10869 10739 68
10869 10849 114
10869 10902 128
10869 11028 79
10870 10832 20
10870 10892 82
10871 10872 90
10871 10675 126
10871 10602 175
10871 10932 28
10872 10871 90
10873 10851 49
10873 10617 147
10873 10880 31
10874 10768 66
10874 10683 140
10874 10892 16
10875 10848 31
10875 10846 31
10875 10819 74
10875 10889 23
10876 10859 9
10876 10860 72
10876 10912 125
10877 10835 28
10877 10959 50
10877 11009 113
10878 10612 153
10878 10897 46
10878 10953 174
10879 10782 55
10879 10909 102
10879 10990 53
10880 10873 31
10880 10855 97
10880 10883 10
10880 10957 81
10881 10759 63
10881 10864 64
10881 11084 103
10882 10859 126
10882 10912 10
10882 10945 162
10883 10880 10
10883 10937 65
10883 10961 100
10884 10852 56
10884 10853 20
10884 10984 89
10885 10810 42
10885 10900 97
10886 10752 72
10886 10913 87
10886 10927 29
10887 10726 134
10887 10803 56
10887 10935 26
10888 10695 107
10888 10865 61
10888 10917 13
10889 10848 26
10889 10875 23
10889 10921 96
10889 10929 22
10890 10749 133
10890 10749 77
10890 10893 1
10891 10720 92
10891 10831 132
10891 10952 90
10891 11148 142
10892 10874 16
10892 10870 82
10893 10890 1
10893 10898 35
10893 10944 32
10894 10745 89
10894 10738 156
10894 11014 68
10894 11098 200
10895 10761 69
10895 10896 14
10895 10908 4
10896 10895 14
10896 10904 26
10897 10878 46
10897 10852 27
10897 10997 59
10898 10899 122
10898 10893 35
10898 10858 170
10899 10898 122
10900 10885 97
10900 10906 113
10900 10995 45
10901 10702 108
10901 10932 45
10902 10762 69
10902 10869 128
10902 10903 5
10902 11067 85
10903 10764 69
10903 10902 5
10903 10926 108
10903 11071 86
10904 10905 22
10904 10896 26
10905 10904 22
10905 10921 41
10905 10966 31
10906 10900 113
10906 10792 201
10907 10648 157
10907 10715 130
10907 10938 19
10907 11066 92
10908 10895 4
10908 10943 105
10908 10971 34
10909 10879 102
10909 11015 53
10910 10748 89
10910 10826 85
10910 11010 114
10910 11070 91
10911 10790 70
10911 10956 24
10911 11063 112
10912 10882 10
10912 10876 125
10912 10951 125
10913 10886 87
10913 10805 80
10913 11011 60
10913 11019 77
10914 10862 42
10914 10777 89
10914 11016 81
10914 11045 85
10915 10865 55
10915 10767 79
10915 10949 50
10916 10827 40
10916 10942 22
10916 10959 37
10917 10918 27
10917 10888 13
10917 10958 54
10918 10917 27
10919 10788 127
10919 11023 60
10920 10784 84
10920 10812 91
10920 11050 115
10920 11075 91
10921 10689 146
10921 10889 96
10921 10905 41
10922 10867 66
10922 10964 55
10922 11041 69
10923 10715 126
10923 10789 123
10923 11062 87
10923 11066 134
10924 10837 116
10924 10929 14
10924 10939 44
10924 11033 85
10925 10792 97
10925 10861 61
10925 11095 96
10926 10795 72
10926 10903 108
10926 10928 80
10926 10946 11
10927 10886 29
10927 11014 77
10927 11072 74
10928 10850 91
10928 10926 80
10928 10934 77
10929 10889 22
10929 10924 14
10929 10939 29
10930 10931 79
10930 10973 68
10930 11006 42
10931 10930 79
10932 10871 28
10932 10901 45
10932 10944 48
10932 10999 34
10933 10718 117
10933 10847 97
10933 11030 110
10933 11083 88
10934 10850 42
10934 10928 77
10934 10955 119
10934 11058 63
10935 10887 26
10935 10975 27
10935 10993 45
10936 10866 33
10936 10967 244
10936 11079 75
10937 10883 65
10937 11099 138
10937 11136 128
10938 10611 192
10938 10907 19
10938 11059 112
10938 11088 89
10939 10929 29
10939 10924 44
10939 10947 50
10940 10826 57
10940 11004 35
10940 11052 70
10941 10746 102
10941 11025 67
10942 10916 22
10942 10953 87
10942 10994 122
10943 10793 74
10943 10908 105
10943 10960 122
10944 10893 32
10944 10932 48
10944 11081 78
10945 10857 41
10945 10882 162
10945 10965 10
10946 10926 11
10946 11008 43
10946 11170 199
10947 10939 50
10947 10966 46
10947 11107 89
10948 10820 61
10948 11012 77
10949 10798 79
10949 10915 50
10950 10863 40
10951 10912 125
10951 10965 38
10951 11353 243
10952 10788 86
10952 10891 90
10952 11023 109
10952 11210 148
10953 10942 87
10953 10827 213
10953 10878 174
10954 10789 90
10954 10821 113
10954 11062 109
10954 11098 88
10955 10844 52
10955 10934 119
10955 10967 77
10955 11082 69
10956 10911 24
10956 11013 71
10956 11087 105
10957 10855 52
10957 10880 81
10957 11002 26
10958 10917 54
10958 10865 46
10958 11026 98
10958 11043 49
10959 10877 50
10959 10916 37
10959 11049 80
10960 10776 95
10960 10943 122
10960 10988 15
10960 10991 75
10961 10883 100
10961 10385 317
10961 11331 236
10962 10833 87
10962 11038 77
10962 11054 71
10963 10677 161
10963 11118 87
10963 11249 168
10964 10740 115
10964 10922 55
10964 11024 79
10965 10945 10
10965 10951 38
10965 11114 82
10966 10905 31
10966 10947 46
10966 10979 8
10967 10845 59
10967 10955 77
10967 10936 244
10967 11119 82
10968 10868 68
10968 10784 137
10968 11050 68
10968 11078 86
10969 10970 43
10970 10969 43
10971 10972 49
10971 10908 34
10971 10992 18
10972 10971 49
10972 10978 113
10972 11044 80
10973 10930 68
10973 10974 105
10973 11043 94
10973 11061 48
10974 10973 105
10975 10783 149
10975 10935 27
10975 11054 54
10976 10813 79
10976 10987 6
10976 11003 115
10977 10733 240
10977 10998 21
10977 11021 22
10978 10972 113
10978 10988 64
10978 11179 129
10979 10966 8
10979 10986 6
10979 11257 162
10980 10822 133
10980 10985 4
10980 10833 139
10981 10982 237
10982 10981 237
10983 5821 7033
10984 10884 89
10985 10980 4
10985 11034 48
10985 11115 84
10986 10979 6
10986 10992 21
10987 10976 6
10987 11027 22
10987 11132 134
10988 10960 15
10988 10978 64
10988 11018 81
10988 11232 142
10989 10842 72
10990 10879 53
10990 11000 53
10990 11100 63
10991 10774 112
10991 10960 75
10991 11022 52
10992 10971 18
10992 10986 21
10993 10935 45
10993 10862 84
10993 11045 42
10993 11102 82
10994 10942 122
10995 10900 45
10995 10996 104
10995 11086 53
10996 10995 104
10996 11157 142
10997 10897 59
10998 10977 21
10998 11048 38
10998 11503 361
10999 10932 34
10999 11001 125
10999 11080 49
11000 10990 53
11000 11015 57
11000 11109 62
11001 10806 100
11001 10999 125
11001 11053 31
11002 10957 26
11002 11017 63
11002 11130 77
11003 10849 78
11003 10976 115
11003 11028 114
11003 11132 73
11004 10940 35
11004 10771 162
11004 11065 33
11004 11209 118
11005 11006 51
11006 11005 51
11006 10930 42
11006 11061 73
11007 10814 94
11007 11024 74
11007 11064 31
11008 10946 43
11008 11077 49
11008 11117 82
11009 10805 121
11009 10877 113
11009 11091 52
11010 10847 89
11010 10910 114
11010 11083 96
11010 11155 91
11011 10913 60
11011 11085 50
11011 11093 76
11012 10948 77
11013 10956 71
11013 11276 201
11013 11415 307
11014 10894 68
11014 10927 77
11014 11113 101
11014 11127 73
11015 10909 53
11015 11000 57
11015 11027 67
11016 10914 81
11016 10868 91
11016 11078 55
11016 11103 65
11017 11002 63
11017 11029 66
11017 11220 111
11018 10988 81
11018 11076 93
11018 11215 111
11019 10913 77
11019 11072 43
11019 11093 50
11020 11021 51
11020 11042 33
11021 11020 51
11021 10977 22
11021 11048 14
11022 10812 109
11022 10991 52
11022 11075 72
11023 10919 60
11023 10952 109
11023 11269 153
11024 11007 74
11024 10791 138
11024 10964 79
11024 11035 9
11025 10941 67
11025 11108 58
11026 10958 98
11026 11105 47
11026 11143 129
11027 10987 22
11027 11015 67
11027 11140 64
11028 10869 79
11028 11003 114
11028 11051 78
11028 11196 93
11029 10525 262
11029 11017 66
11029 11060 104
11029 11229 112
11030 10799 131
11030 10933 110
11030 11106 90
11030 11161 82
11031 11032 107
11032 11031 107
11032 11063 22
11033 10924 85
11033 11068 20
11033 11702 491
11034 10985 48
11034 11095 77
11034 11463 342
11035 11024 9
11035 11064 69
11035 11162 78
11036 11037 124
11037 11036 124
11038 10962 77
11038 11074 20
11038 11115 83
11039 11040 167
11040 11039 167
11040 11101 92
11040 11101 462
11041 10922 69
11041 11134 115
11041 11166 80
11042 11020 33
11042 11047 6
11042 11048 135
11043 10973 94
11043 10958 49
11043 11105 97
11043 11126 48
11044 10972 80
11044 11305 169
11045 10993 42
11045 10914 85
11045 11137 81
11045 11153 82
11046 11047 130
11047 11046 130
11047 11042 6
11048 11021 14
11048 10998 38
11048 11042 135
11049 10959 80
11049 11091 40
11049 11202 105
11050 10968 68
11050 10920 115
11050 11149 95
11050 11150 87
11051 11028 78
11051 11056 3
11051 11067 48
11052 10940 70
11053 11001 31
11053 11080 105
11053 11250 130
11053 11405 231
11054 10962 71
11054 10975 54
11054 11102 46
11054 11120 49
11055 10790 155
11055 11189 94
11055 11217 142
11056 11051 3
11056 11057 73
11056 11067 48
11056 11243 105
11057 11056 73
11057 11200 90
11058 10934 63
11058 11082 117
11058 11142 49
11059 10685 207
11059 10938 112
11059 11129 84
11059 11175 84
11060 10854 102
11060 11029 104
11060 11145 54
11061 11006 73
11061 10973 48
11061 11126 94
11061 11144 54
11062 10923 87
11062 10954 109
11062 11194 91
11062 11198 142
11063 10911 112
11063 11032 22
11063 11087 21
11064 11007 31
11064 11035 69
11064 11177 65
11065 11004 33
11065 11092 14
11066 10907 92
11066 10923 134
11066 11088 20
11066 11198 84
11067 10902 85
11067 11051 48
11067 11056 48
11067 11071 5
11068 11033 20
11068 11110 29
11068 11270 143
11069 10864 103
11069 11084 62
11069 11125 31
11070 10910 91
11070 11092 62
11070 11155 114
11071 10903 86
11071 11067 5
11071 11117 39
11072 10927 74
11072 11019 43
11072 11127 49
11073 10750 257
11074 11038 20
11075 10920 91
11075 11022 72
11075 11149 83
11076 11018 93
11076 11173 109
11076 11261 110
11077 11008 49
11077 11124 49
11077 11259 123
11078 11016 55
11078 10968 86
11078 11150 69
11078 11154 68
11079 10936 75
11079 11096 29
11079 11128 32
11080 10999 49
11080 11053 105
11080 11081 51
11080 11250 113
11081 10944 78
11081 11080 51
11081 11246 108
11082 10955 69
11082 11058 117
11082 11104 14
11083 10933 88
11083 11010 96
11083 11161 107
11083 11236 91
11084 10881 103
11084 11069 62
11084 11100 60
11085 11011 50
11085 11167 76
11085 11169 56
11086 10995 53
11086 11097 104
11087 10956 105
11087 11063 21
11087 11112 20
11088 10938 89
11088 11066 20
11088 11175 100
11088 11218 81
11089 10780 1890
11089 11090 15
11089 11301 245
11090 11089 15
11090 10649 1618
11091 11009 52
11091 11049 40
11091 11169 76
11091 11248 103
11092 11070 62
11092 11065 14
11092 11165 45
11093 11019 50
11093 11011 76
11093 11167 52
11093 11201 95
11094 10831 133
11094 11148 95
11094 11195 56
11095 10925 96
11095 11034 77
11095 11157 61
11096 11079 29
11096 11123 153
11096 11128 21
11097 11086 104
11097 11151 35
11098 10954 88
11098 10894 200
11098 11194 94
11098 11225 79
11099 10937 138
11099 11130 31
11100 10990 63
11100 11084 60
11100 11221 65
11101 11040 92
11101 11040 462
11101 11144 82
11101 11163 43
11102 11054 46
11102 10993 82
11102 11153 44
11103 11016 65
11103 11137 25
11103 11154 45
11104 11082 14
11104 11119 79
11104 11168 35
11105 11043 97
11105 11026 47
11105 11192 51
11105 11199 142
11106 10867 141
11106 11030 90
11106 11166 67
11106 11245 82
11107 10947 89
11107 11146 121
11107 11226 66
11108 11025 58
11109 11000 62
11109 11140 122
11109 11223 64
11110 11068 29
11110 11146 22
11110 11293 131
11111 11112 92
11112 11111 92
11112 11087 20
11112 11139 21
11113 11014 101
11113 11225 106
11113 11251 84
11114 10965 82
11114 11125 61
11114 11314 109
11115 10985 84
11115 11038 83
11115 11193 57
11116 10700 258
11116 11122 2
11116 11299 305
11117 11008 82
11117 11071 39
11117 11178 48
11118 10333 451
11118 10963 87
11118 11249 83
11118 12863 1259
11119 10967 82
11119 11104 79
11119 11123 70
11119 11262 78
11120 11121 48
11120 11054 49
11120 11135 14
11121 11120 48
11121 11141 69
11122 11116 2
11122 11387 491
11122 11634 313
11123 11096 153
11123 11119 70
11123 11272 83
11124 11077 49
11124 11174 53
11124 11309 127
11125 11069 31
11125 11114 61
11125 11172 30
11126 11061 94
11126 11043 48
11126 11192 96
11126 11213 52
11127 11014 73
11127 11072 49
11127 11201 47
11127 11251 102
11128 11079 32
11128 11096 21
11128 11398 186
11129 10771 214
11129 11059 84
11129 11265 88
11129 11303 173
11130 11002 77
11130 11099 31
11130 11212 64
11131 10638 408
11131 11231 237
11132 11003 73
11132 10987 134
11132 11147 31
11132 11340 153
11133 11134 14
11134 11133 14
11134 11041 115
11134 11162 36
11134 11267 80
11135 11120 14
11135 11219 59
11135 11237 54
11136 10937 128
11136 11228 60
11136 11279 167
11137 11045 81
11137 11103 25
11138 11139 98
11139 11138 98
11139 11112 21
11139 11159 19
11140 11027 64
11140 11109 122
11140 11256 62
11141 11121 69
11141 11193 44
11141 11219 57
11142 11058 49
11142 11156 85
11142 11170 19
11143 11026 129
11143 10633 286
11143 11199 31
11144 11101 82
11144 11061 54
11144 11213 97
11144 11222 45
11145 11060 54
11145 11160 11
11145 11253 58
11146 11107 121
11146 11110 22
11146 11181 22
11147 11132 31
11147 11196 86
11147 11366 154
11148 10891 142
11148 11094 95
11148 11208 79
11148 11283 77
11149 11050 95
11149 11075 83
11149 11273 98
11150 11078 69
11150 11050 87
11150 11247 71
11150 11273 92
11151 11097 35
11151 11152 141
11151 11240 64
11152 11151 141
11153 11102 44
11153 11045 82
11153 11171 16
11154 11103 45
11154 11078 68
11154 11247 68
11154 11294 114
11155 11010 91
11155 11070 114
11155 11236 94
11155 11341 113
11156 11142 85
11156 11168 31
11156 11302 85
11157 10996 142
11157 11095 61
11157 11252 405
11158 11159 104
11159 11158 104
11159 11139 19
11159 11182 18
11160 10856 165
11160 11145 11
11160 11176 9
11160 11367 125
11161 11030 82
11161 11083 107
11161 11245 85
11161 11313 89
11162 11035 78
11162 11134 36
11162 11254 49
11163 11164 192
11163 11101 43
11163 11191 24
11163 11222 93
11164 11163 192
11165 11092 45
11165 11197 16
11165 11264 56
11166 11041 80
11166 11106 67
11166 11214 53
11167 11093 52
11167 11085 76
11167 11260 58
11167 11290 99
11168 11104 35
11168 11156 31
11168 11393 132
11169 11085 56
11169 11091 76
11169 11260 74
11170 11142 19
11170 10946 199
11170 11227 36
11170 11302 89
11171 11153 16
11171 11294 93
11171 11318 109
11172 11125 30
11172 11188 47
11172 11321 79
11173 11076 109
11173 11268 59
11173 11291 92
11174 11124 53
11174 11227 49
11174 11357 120
11175 11059 84
11175 11088 100
11175 11224 51
11175 11304 84
11176 10860 177
11176 11160 9
11176 11373 124
11177 11064 65
11177 11311 74
11177 11846 475
11178 11117 48
11178 11259 57
11178 11275 61
11179 10978 129
11179 11180 65
11179 11232 87
11179 11354 106
11180 11179 65
11180 11484 246
11181 11146 22
11181 11266 47
11181 11363 129
11182 11159 18
11182 11183 57
11183 11182 57
11184 11185 86
11185 11184 86
11186 11187 21
11187 11186 21
11187 11231 120
11187 11319 73
11188 11172 47
11188 11221 67
11188 11326 76
11189 11055 94
11189 11190 60
11189 11292 55
11190 11189 60
11190 11211 73
11190 11263 55
11191 11163 24
11191 11258 54
11191 11420 169
11192 11126 96
11192 11105 51
11192 11280 50
11192 11310 166
11193 11115 57
11193 11141 44
11193 11274 64
11194 11062 91
11194 11098 94
11194 11315 81
11194 11328 151
11195 11094 56
11195 11458 173
11195 11711 328
11196 11028 93
11196 11147 86
11196 11200 5
11196 11296 56
11197 11165 16
11197 11281 50
11198 11066 84
11198 11062 142
11198 11328 88
11199 11105 142
11199 11143 31
11199 11241 22
11200 11057 90
11200 11196 5
11200 11243 61
11200 11336 80
11201 11127 47
11201 11093 95
11201 11290 56
11202 11049 105
11202 11203 33
11202 11248 39
11203 11202 33
11204 11205 124
11204 11301 233
11204 11361 256
11205 11204 124
11205 11479 799
11206 11207 89
11207 11206 89
11208 11148 79
11208 11210 6
11208 11230 17
11209 11004 118
11209 11264 54
11209 11303 61
11210 10952 148
11210 11208 6
11210 11233 40
11211 11190 73
11212 11130 64
11212 11220 38
11212 11255 31
11213 11144 97
11213 11126 52
11213 11280 96
11213 11289 46
11214 11166 53
11214 11267 60
11214 11375 109
11215 11018 111
11215 11261 74
11215 11285 38
11216 10829 229
11216 11276 78
11217 11055 142
11217 11284 51
11217 11284 152
11218 11088 81
11218 11304 94
11218 11351 88
11219 11141 57
11219 11135 59
11219 11274 43
11220 11017 111
11220 11212 38
11220 11229 63
11220 11255 23
11221 11100 65
11221 11188 67
11221 11337 72
11222 11163 93
11222 11144 45
11222 11271 63
11222 11320 54
11223 11109 64
11223 11256 115
11223 11352 73
11224 11175 51
11224 11265 37
11224 11355 85
11225 11098 79
11225 11113 106
11225 11315 82
11225 11350 93
11226 11107 66
11226 11266 84
11226 11277 27
11227 11170 36
11227 11174 49
11227 11399 116
11228 11136 60
11228 11360 78
11228 11426 133
11229 11029 112
11229 11220 63
11229 11253 76
11229 11342 65
11230 11208 17
11230 11283 105
11230 11286 29
11231 11187 120
11231 11131 237
11231 11282 112
11232 10988 142
11232 11179 87
11232 11285 91
11232 11297 37
11233 11210 40
11233 11269 45
11233 11334 70
11234 11235 61
11234 11288 137
11234 11560 458
11235 11234 61
11235 11263 54
11235 11325 53
11236 11083 91
11236 11155 94
11236 11313 106
11236 11335 70
11237 11135 54
11237 11238 49
11237 11333 66
11238 11237 49
11238 11239 41
11238 11318 43
11239 11238 41
11240 11151 64
11240 11252 167
11241 11199 22
11241 11242 34
11241 11310 41
11242 11241 34
11242 11252 116
11242 11339 73
11243 11056 105
11243 11200 61
11243 11275 44
11244 10088 1339
11245 11106 82
11245 11161 85
11245 11368 85
11245 11375 121
11246 11081 108
11247 11154 68
11247 11150 71
11247 11345 88
11247 11389 130
11248 11091 103
11248 11202 39
11248 11386 151
11248 11490 180
11249 11118 83
11249 10963 168
11249 11543 211
11250 11080 113
11250 11053 130
11251 11113 84
11251 11127 102
11251 11350 90
11251 11383 102
11252 11242 116
11252 11240 167
11252 11157 405
11253 11145 58
11253 11229 76
11253 11365 74
11254 11162 49
11254 11298 32
11254 11359 102
11255 11220 23
11255 11212 31
11255 11342 89
11256 11140 62
11256 11223 115
11256 11338 55
11257 10979 162
11257 11277 22
11257 11287 20
11258 11191 54
11258 11282 30
11259 11077 123
11259 11178 57
11259 11309 53
11259 11324 51
11260 11167 58
11260 11169 74
11260 11386 98
11261 11076 110
11261 11215 74
11261 11268 110
11261 11322 37
11262 11119 78
11262 11272 75
11262 11376 70
11263 11190 55
11263 11235 54
11263 11292 65
11263 11349 53
11264 11165 56
11264 11209 54
11264 11281 23
11265 11129 88
11265 11224 37
11265 11295 34
11266 11226 84
11266 11181 47
11266 11356 56
11267 11134 80
11267 11214 60
11267 11278 14
11268 11173 59
11268 11261 110
11268 11300 43
11269 11023 153
11269 11233 45
11269 11381 82
11270 11068 143
11270 11293 22
11270 11702 342
11271 11222 63
11271 11289 32
11271 11320 78
11272 11123 83
11272 11262 75
11272 11384 70
11273 11150 92
11273 11149 98
11273 11291 12
11273 11345 68
11274 11193 64
11274 11219 43
11274 11333 63
11275 11178 61
11275 11243 44
11275 11324 56
11275 11364 56
11276 11013 201
11276 11216 78
11277 11257 22
11277 11226 27
11277 11356 70
11278 11267 14
11278 11298 25
11278 11462 132
11279 11136 167
11279 11414 140
11279 11465 134
11280 11213 96
11280 11192 50
11280 11327 32
11281 11197 50
11281 11264 23
11281 11307 28
11281 11380 64
11282 11258 30
11282 11231 112
11282 11402 93
11283 11230 105
11283 11148 77
11283 11286 97
11283 11343 41
11284 11217 51
11284 11217 152
11284 11444 129
11285 11215 38
11285 11232 91
11285 11322 70
11285 11344 39
11286 11230 29
11286 11283 97
11287 10606 375
11287 11257 20
11287 11460 201
11288 11234 137
11289 11271 32
11289 11213 46
11289 11329 71
11290 11201 56
11290 11167 99
11290 11383 96
11290 11485 141
11291 11273 12
11291 11173 92
11291 11358 63
11291 11403 82
11292 11189 55
11292 11263 65
11292 11317 51
11292 11374 54
11293 11110 131
11293 11270 22
11293 11363 49
11294 11171 93
11294 11154 114
11294 11389 74
11294 11395 132
11295 11265 34
11295 11410 84
11295 11413 133
11296 11196 56
11296 11332 24
11296 11396 114
11297 11232 37
11297 11308 4
11297 11344 93
11298 11254 32
11298 11278 25
11298 11306 13
11298 11400 117
11299 11116 305
11299 11348 49
11299 11482 361
11300 11268 43
11300 11330 50
11300 11403 116
11301 11204 233
11301 11089 245
11301 11361 93
11302 11156 85
11302 11170 89
11302 11393 81
11303 11209 61
11303 11129 173
11303 11380 107
11303 11413 86
11304 11175 84
11304 11218 94
11304 11355 56
11304 11423 88
11305 11044 169
11305 10838 266
11305 11632 345
11306 11298 13
11306 11372 82
11307 11281 28
11307 11341 82
11307 11574 175
11308 11297 4
11308 11354 123
11308 11371 42
11309 11124 127
11309 11259 53
11309 11357 56
11309 11370 42
11310 11192 166
11310 11241 41
11310 11323 15
11311 11177 74
11311 11312 151
11311 11400 59
11312 11311 151
11313 11161 89
11313 11236 106
11313 11368 79
11313 11440 90
11314 11114 109
11314 11321 54
11314 11406 60
11315 11194 81
11315 11225 82
11315 11385 86
11315 11438 97
11316 11317 56
11317 11316 56
11317 11292 51
11318 11238 43
11318 11171 109
11318 11395 57
11319 11187 73
11320 11222 54
11320 11271 78
11320 11420 64
11321 11172 79
11321 11314 54
11321 11326 47
11322 11261 37
11322 11285 70
11322 11330 30
11322 11369 32
11323 11310 15
11323 11339 33
11323 11424 128
11324 11259 51
11324 11275 56
11324 11370 59
11325 11235 53
11325 11349 56
11325 11407 57
11326 11188 76
11326 11321 47
11326 11337 57
11327 11280 32
11328 11198 88
11328 11194 151
11328 11351 20
11328 11449 88
11329 11289 71
11330 11300 50
11330 11322 30
11330 11369 46
11331 10961 236
11331 11426 60
11331 12100 568
11332 11296 24
11332 11336 6
11332 11446 72
11333 11274 63
11333 11237 66
11334 11233 70
11334 11343 139
11335 11236 70
11335 11390 59
11335 11404 41
11336 11200 80
11336 11332 6
11336 11388 82
11336 11451 72
11337 11221 72
11337 11326 57
11337 11352 61
11337 11437 64
11338 11256 55
11338 11340 55
11338 11352 116
11339 11323 33
11339 11242 73
11339 11424 66
11340 11132 153
11340 11338 55
11340 11366 64
11341 11155 113
11341 11307 82
11341 11362 35
11341 11638 183
11342 11229 65
11342 11255 89
11342 11365 56
11343 11283 41
11343 11334 139
11343 11411 47
11344 11285 39
11344 11297 93
11344 11409 48
11345 11247 88
11345 11273 68
11345 11471 155
11346 11347 145
11346 11429 154
11346 11657 228
11347 11346 145
11347 11429 124
11348 11299 49
11348 11614 273
11348 11614 291
11349 11263 53
11349 11325 56
11349 11374 67
11349 11430 55
11350 11225 93
11350 11251 90
11350 11438 94
11350 11475 100
11351 11218 88
11351 11328 20
11351 11423 90
11351 11466 87
11352 11338 116
11352 11223 73
11352 11337 61
11353 10951 243
11353 11379 187
11353 11406 78
11354 11308 123
11354 11179 106
11354 11392 35
11355 11224 85
11355 11304 56
11355 11470 89
11356 11277 70
11356 11266 56
11356 11445 120
11357 11174 120
11357 11309 56
11357 11399 56
11358 11291 63
11358 11439 101
11358 11456 76
11359 11254 102
11359 11459 94
11360 11228 78
11360 11461 77
11360 11465 143
11361 11301 93
11361 11204 256
11361 11885 1494
11362 11341 35
11362 11404 72
11362 11628 179
11363 11181 129
11363 11293 49
11363 11445 56
11364 11275 56
11364 11388 20
11364 11537 219
11365 11253 74
11365 11342 56
11365 11367 7
11365 11447 60
11366 11147 154
11366 11340 64
11366 11396 58
11367 11160 125
11367 11365 7
11367 11373 26
11367 11377 9
11368 11245 85
11368 11313 79
11368 11397 22
11369 11330 46
11369 11322 32
11369 11416 88
11369 11498 92
11370 11309 42
11370 11324 59
11370 11378 9
11371 11308 42
11371 11409 83
11371 11467 79
11372 11306 82
11372 11480 91
11373 11176 124
11373 11367 26
11373 11379 153
11374 11292 54
11374 11349 67
11374 11448 95
11375 11214 109
11375 11245 121
11375 11462 82
11375 11536 110
11376 11262 70
11376 11382 59
11376 11488 69
11377 11367 9
11377 11412 159
11377 11450 51
11378 11370 9
11378 11474 106
11379 11353 187
11379 11373 153
11379 11412 31
11380 11281 64
11380 11303 107
11380 11517 90
11381 11269 82
11381 11422 90
11382 11376 59
11382 11384 16
11382 11656 163
11383 11251 102
11383 11290 96
11383 11475 87
11383 11562 130
11384 11272 70
11384 11382 16
11384 11391 42
11385 11315 86
11385 11449 72
11385 11538 114
11386 11260 98
11386 11248 151
11386 11434 37
11386 11485 109
11387 11122 491
11387 11417 388
11387 11634 520
11388 11364 20
11388 11336 82
11388 11435 31
11389 11294 74
11389 11247 130
11389 11471 56
11389 11489 142
11390 11335 59
11390 11401 24
11390 11440 67
11391 11384 42
11391 11398 31
11391 11487 57
11392 11354 35
11392 11467 92
11392 11476 59
11392 11484 145
11393 11168 132
11393 11302 81
11393 11394 128
11393 11478 51
11394 11393 128
11394 11473 62
11395 11318 57
11395 11294 132
11395 11463 97
11395 11489 64
11396 11296 114
11396 11366 58
11396 11446 86
11397 11368 22
11397 11494 67
11397 11523 91
11398 11128 186
11398 11391 31
11398 11487 64
11399 11227 116
11399 11357 56
11399 11457 44
11400 11311 59
11400 11298 117
11400 11584 130
11401 11390 24
11401 11404 16
11401 11454 87
11402 11282 93
11403 11291 82
11403 11300 116
11403 11456 63
11403 11524 93
11404 11401 16
11404 11335 41
11404 11362 72
11404 11472 102
11404 11628 138
11405 11053 231
11405 11464 47
11405 11511 129
11406 11314 60
11406 11353 78
11406 11421 12
11406 11437 151
11407 11325 57
11407 11408 25
11407 11430 59
11408 11407 25
11409 11344 48
11409 11371 83
11409 11416 10
11409 11425 11
11410 11295 84
11410 11516 126
11410 11527 89
11411 11343 47
11411 11422 107
11412 11379 31
11412 11377 159
11412 11427 77
11412 11453 423
11413 11303 86
11413 11295 133
11413 11516 81
11413 11517 135
11414 11279 140
11414 11447 92
11414 11497 54
11415 11013 307
11416 11369 88
11416 11409 10
11416 11425 15
11416 11498 60
11417 11387 388
11418 11419 9
11419 11418 9
11419 11431 184
11419 11441 28
11420 11191 169
11420 11320 64
11420 11442 19
11421 11406 12
11421 11519 21
11422 11381 90
11422 11411 107
11422 11504 65
11423 11304 88
11423 11351 90
11423 11470 54
11423 11551 96
11424 11323 128
11424 11339 66
11424 11431 9
11424 11514 160
11425 11416 15
11425 11409 11
11425 11526 79
11426 11228 133
11426 11331 60
11426 11477 36
11427 11412 77
11427 11501 16
11428 10765 469
11428 11482 117
11428 11512 116
11429 11346 154
11429 11347 124
11429 11436 11
11430 11349 55
11430 11407 59
11430 11448 12
11431 11419 184
11431 11424 9
11431 11443 8
11431 11514 153
11432 11433 58
11432 11483 31
11433 11432 58
11433 11637 176
11434 11386 37
11434 11496 43
11434 11535 107
11435 11388 31
11435 11507 44
11435 11613 212
11436 11429 11
11436 11464 49
11436 11567 88
11437 11337 64
11437 11406 151
11437 11452 10
11437 11554 450
11438 11315 97
11438 11350 94
11438 11538 92
11438 11583 109
11439 11358 101
11439 11492 63
11439 11542 71
11440 11313 90
11440 11390 67
11440 11454 8
11440 11494 74
11441 11419 28
11441 11443 159
11441 11570 109
11442 11420 19
11442 11468 71
11442 11549 294
11443 11431 8
11443 11441 159
11443 11514 146
11443 11532 126
11444 11284 129
11445 11356 120
11445 11363 56
11445 11460 13
11445 11597 150
11446 11332 72
11446 11396 86
11446 11451 6
11446 11553 66
11447 11414 92
11447 11450 8
11447 11541 65
11447 11365 60
11448 11374 95
11448 11430 12
11448 11872 347
11449 11328 88
11449 11385 72
11449 11652 125
11450 11377 51
11450 11447 8
11450 11455 6
11450 11547 65
11451 11336 72
11451 11446 6
11451 11507 66
11451 11553 67
11452 11437 10
11452 11453 12
11452 11554 448
11452 11617 102
11453 11452 12
11453 11412 423
11453 11622 104
11454 11440 8
11454 11401 87
11454 11472 11
11454 11508 65
11455 11450 6
11455 11499 116
11455 11499 106
11456 11358 76
11456 11403 63
11456 11542 112
11456 11568 81
11457 11399 44
11457 11473 81
11457 11474 11
11458 11195 173
11458 11459 45
11458 11504 59
11459 11458 45
11459 11359 94
11460 11287 201
11460 11445 13
11460 11597 137
11461 11360 77
11461 11477 24
11461 11493 30
11461 11557 67
11462 11278 132
11462 11375 82
11462 11569 70
11462 11584 139
11463 11034 342
11463 11395 97
11463 11548 62
11464 11436 49
11464 11405 47
11464 11486 70
11465 11279 134
11465 11360 143
11466 11351 87
11466 11540 81
11466 11571 66
11467 11371 79
11467 11392 92
11467 11526 87
11467 11563 83
11467 11627 103
11468 11442 71
11468 11469 212
11468 11690 136
11469 11468 212
11470 11355 89
11470 11423 54
11470 11625 111
11471 11389 56
11471 11345 155
11471 11492 12
11471 11585 143
11472 11454 11
11472 11404 102
11472 11669 169
11472 11692 137
11473 11394 62
11473 11457 81
11473 11495 126
11473 11575 64
11474 11457 11
11474 11378 106
11474 11537 48
11475 11350 100
11475 11383 87
11475 11583 95
11475 11648 123
11476 11392 59
11476 11522 41
11476 11563 75
11477 11461 24
11477 11426 36
11477 11513 28
11478 11393 51
11478 11488 75
11478 11495 9
11479 10780 791
11479 11205 799
11479 11716 795
11480 11481 49
11480 11372 91
11481 11480 49
11481 11502 22
11481 11639 148
11482 11428 117
11482 11299 361
11482 11609 222
11483 11432 31
11483 11524 62
11483 11686 146
11484 11392 145
11484 11180 246
11484 11572 166
11484 11655 150
11485 11290 141
11485 11386 109
11485 11535 46
11485 11562 92
11486 11464 70
11486 11491 22
11486 11509 21
11487 11398 64
11487 11391 57
11487 11656 121
11488 11376 69
11488 11478 75
11488 11708 142
11489 11395 64
11489 11389 142
11489 11539 82
11489 11585 68
11490 11248 180
11490 11561 83
11490 11633 149
11491 11486 22
11491 11510 57
11491 11534 46
11492 11471 12
11492 11439 63
11492 11528 56
11492 11694 131
11493 11461 30
11493 11602 117
11494 11397 67
11494 11440 74
11494 11508 15
11495 11478 9
11495 11473 126
11495 11593 63
11496 11434 43
11496 11596 111
11496 11633 101
11497 11414 54
11497 11541 89
11497 11556 44
11498 11369 92
11498 11416 60
11498 11587 70
11499 11500 130
11499 11501 28
11499 11455 116
11499 11455 106
11499 11552 39
11500 11499 130
11500 11520 163
11500 11615 93
11501 11499 28
11501 11427 16
11502 11481 22
11502 11529 57
11502 11671 115
11503 10998 361
11503 11560 42
11503 11586 138
11504 11422 65
11504 11458 59
11504 11515 22
11505 11506 61
11506 11505 61
11507 11435 44
11507 11451 66
11507 11588 58
11508 11494 15
11508 11454 65
11508 11665 113
11509 11486 21
11509 11518 56
11509 11576 59
11510 11491 57
11510 11566 48
11510 11696 125
11511 11405 129
11511 11518 12
11511 11525 92
11512 11428 116
11512 11586 60
11512 11599 64
11513 11477 28
11513 11738 176
11513 11793 202
11514 11443 146
11514 11431 153
11514 11424 160
11515 11504 22
11515 11544 235
11515 11739 235
11516 11413 81
11516 11410 126
11516 11591 54
11516 11608 106
11517 11380 90
11517 11413 135
11517 11664 89
11518 11511 12
11518 11521 57
11518 11509 56
11519 11520 60
11519 11421 21
11520 11519 60
11520 11500 163
11520 11607 58
11520 11622 232
11521 11518 57
11521 11525 12
11521 11533 9
11522 11476 41
11522 11530 8
11522 11531 11
11523 11397 91
11523 11536 71
11523 11666 81
11524 11403 93
11524 11483 62
11524 11568 65
11524 11629 67
11525 11521 12
11525 11511 92
11525 11549 39
11526 11425 79
11526 11467 87
11526 11587 66
11526 11627 67
11527 11410 89
11527 11601 86
11527 11661 87
11528 11492 56
11528 11680 178
11528 11712 125
11529 11502 57
11529 11676 234
11529 11748 234
11530 11522 8
11530 11531 7
11530 11660 73
11531 11530 7
11531 11522 11
11531 11734 172
11532 11443 126
11532 11616 168
11532 11626 53
11533 11521 9
11533 11631 65
11534 11491 46
11535 11485 46
11535 11434 107
11535 11596 39
11536 11375 110
11536 11523 71
11536 11569 75
11537 11474 48
11537 11364 219
11537 11559 12
11538 11385 114
11538 11438 92
11538 11687 103
11538 11713 161
11539 11489 82
11539 11548 12
11539 11619 80
11540 11466 81
11540 11551 8
11541 11447 65
11541 11497 89
11541 11547 9
11541 11610 45
11542 11439 71
11542 11456 112
11542 11650 66
11543 11249 211
11543 11544 152
11543 11654 70
11544 11543 152
11544 11515 235
11544 11739 235
11545 11546 27
11545 11550 51
11545 11592 135
11546 11545 27
11547 11450 65
11547 11541 9
11547 11565 37
11547 11783 163
11548 11463 62
11548 11539 12
11548 11558 10
11549 11525 39
11549 11442 294
11549 11594 98
11550 11545 51
11550 11580 33
11550 11612 100
11551 11423 96
11551 11540 8
11551 11573 14
11551 11595 28
11552 11499 39
11552 11615 114
11552 11620 42
11553 11451 67
11553 11446 66
11553 11554 1
11553 11555 1
11554 11553 1
11554 11437 450
11554 11555 1
11554 11452 448
11555 11553 1
11555 11554 1
11555 11577 33
11555 11598 30
11556 11497 44
11556 11610 88
11556 11623 163
11556 11717 112
11557 11461 67
11557 11765 169
11558 11548 10
11559 11537 12
11559 11575 108
11559 11613 38
11560 11234 458
11560 11503 42
11560 11758 145
11561 11490 83
11561 11753 186
11561 11777 167
11562 11383 130
11562 11485 92
11562 11648 84
11562 11685 89
11563 11467 83
11563 11476 75
11563 11660 76
11563 11751 124
11564 11565 3
11564 11620 81
11565 11564 3
11565 11547 37
11565 11646 52
11566 11510 48
11567 11436 88
11567 11668 58
11568 11456 81
11568 11524 65
11568 11650 122
11568 11673 69
11569 11462 70
11569 11536 75
11569 11756 120
11570 11441 109
11570 11626 175
11571 11466 66
11571 11573 77
11571 11677 63
11572 11484 166
11572 11611 65
11572 11655 66
11573 11551 14
11573 11571 77
11573 11595 24
11573 11677 82
11574 11307 175
11574 11638 98
11574 11684 66
11575 11473 64
11575 11559 108
11575 11593 125
11575 11682 60
11576 11509 59
11576 11606 27
11576 11621 38
11577 11555 33
11577 11588 21
11577 11598 43
11578 11579 41
11579 11578 41
11579 11607 53
11579 11667 52
11580 11581 9
11580 11550 33
11580 11582 1
11580 11681 86
11581 11580 9
11582 11580 1
11583 11438 109
11583 11475 95
11583 11687 93
11583 11732 113
11584 11400 130
11584 11462 139
11584 11624 75
11584 11824 184
11585 11489 68
11585 11471 143
11585 11619 43
11586 11503 138
11586 11512 60
11586 11678 55
11587 11498 70
11587 11526 66
11587 11637 47
11587 11649 40
11588 11507 58
11588 11577 21
11588 11772 185
11589 11590 81
11590 11589 81
11590 11594 37
11590 11600 181
11591 11516 54
11591 11608 120
11591 11642 36
11592 11545 135
11593 11495 63
11593 11575 125
11593 11693 60
11594 11549 98
11594 11590 37
11594 11829 302
11595 11551 28
11595 11573 24
11595 11625 27
11596 11535 39
11596 11496 111
11596 11685 88
11596 11729 98
11597 11460 137
11597 11445 150
11597 11670 48
11598 11577 43
11598 11555 30
11598 11663 41
11599 11512 64
11599 11609 171
11599 11678 68
11600 11590 181
11600 11690 71
11600 11864 326
11601 11527 86
11601 11642 38
11601 11661 122
11602 11603 34
11602 11493 117
11603 11602 34
11603 11623 10
11603 11641 20
11604 11605 20
11604 11605 38
11604 11643 77
11605 11604 20
11605 11604 38
11605 11766 155
11606 11576 27
11606 11651 41
11606 11719 84
11607 11520 58
11607 11579 53
11607 11866 186
11608 11516 106
11608 11591 120
11608 11664 52
11609 11482 222
11609 11599 171
11609 12092 660
11610 11541 45
11610 11556 88
11610 11779 119
11611 11572 65
11611 11662 75
11611 11727 93
11612 11550 100
11612 11657 72
11613 11559 38
11613 11435 212
11613 11675 84
11613 11772 131
11614 11348 273
11614 11348 291
11614 11634 31
11615 11500 93
11615 11552 114
11615 11667 98
11615 11695 50
11616 11532 168
11616 11647 33
11616 11759 156
11617 11618 52
11617 11452 102
11617 11622 7
11617 11630 5
11618 11617 52
11618 11653 44
11618 11663 356
11619 11539 80
11619 11585 43
11619 11680 51
11620 11552 42
11620 11564 81
11620 11695 118
11620 11697 54
11621 11576 38
11621 11651 21
11621 11691 70
11622 11617 7
11622 11453 104
11622 11630 11
11622 11520 232
11623 11556 163
11623 11603 10
11623 11731 75
11624 11584 75
11625 11470 111
11625 11595 27
11625 11689 77
11625 11706 65
11626 11570 175
11626 11532 53
11626 11640 55
11626 11679 31
11627 11526 67
11627 11467 103
11627 11674 28
11628 11404 138
11628 11362 179
11628 11672 26
11629 11524 67
11629 11673 64
11629 11733 81
11630 11617 5
11630 11622 11
11630 11653 33
11630 11728 66
11631 11533 65
11632 11305 345
11632 11662 22
11633 11496 101
11633 11490 149
11633 11729 114
11634 11614 31
11634 11122 313
11634 11387 520
11634 11832 142
11635 11636 7
11635 11704 119
11635 11710 71
11636 11635 7
11637 11433 176
11637 11587 47
11637 11686 58
11637 11757 91
11638 11341 183
11638 11574 98
11638 11672 114
11638 11715 56
11639 11481 148
11639 11709 139
11639 11711 65
11640 11626 55
11641 11603 20
11641 11721 58
11641 11721 72
11642 11591 36
11642 11601 38
11642 11769 106
11642 11807 181
11643 11644 33
11643 11645 120
11643 11604 77
11644 11643 33
11645 11643 120
11646 11565 52
11646 11697 81
11646 11725 58
11647 11616 33
11647 11698 73
11647 11723 58
11648 11475 123
11648 11562 84
11648 11732 87
11648 11763 91
11649 11587 40
11649 11757 72
11650 11542 66
11650 11568 122
11650 11694 73
11650 11752 72
11651 11606 41
11651 11621 21
11651 11722 64
11652 11449 125
11652 11701 41
11652 11720 50
11653 11618 44
11653 11630 33
11653 11728 57
11653 12304 465
11654 11543 70
11654 11676 151
11654 11771 95
11655 11484 150
11655 11572 66
11655 11727 70
11655 11734 79
11656 11487 121
11656 11382 163
11656 11708 78
11657 11612 72
11657 11346 228
11657 11683 24
11658 11659 107
11659 11658 107
11660 11563 76
11660 11530 73
11660 11742 61
11660 11809 144
11661 11601 122
11661 11527 87
11661 11689 24
11662 11611 75
11662 11632 22
11662 11670 14
11662 11688 21
11663 11598 41
11663 11618 356
11663 11859 161
11664 11517 89
11664 11608 52
11664 11807 102
11665 11508 113
11665 11666 35
11665 12062 297
11666 11523 81
11666 11665 35
11666 11737 53
11666 11756 115
11667 11579 52
11667 11615 98
11667 11750 56
11668 11567 58
11669 11472 169
11669 11718 38
11670 11662 14
11670 11597 48
11670 11703 31
11670 11726 144
11671 11502 115
11671 11709 32
11671 11771 75
11672 11628 26
11672 11638 114
11672 11692 94
11672 11754 56
11673 11568 69
11673 11629 64
11673 11752 131
11673 11782 90
11674 11627 28
11674 11751 76
11674 11838 125
11675 11613 84
11675 11682 47
11675 11789 81
11676 11654 151
11676 11529 234
11676 11748 234
11677 11573 82
11677 11571 63
11677 11741 72
11678 11586 55
11678 11599 68
11678 11758 201
11679 11626 31
11680 11619 51
11680 11528 178
11680 11766 135
11681 11580 86
11681 11707 44
11682 11575 60
11682 11675 47
11682 11693 125
11683 11657 24
11683 11696 39
11684 11574 66
11684 11715 101
11684 11792 74
11685 11562 89
11685 11596 88
11685 11763 88
11685 11799 96
11686 11483 146
11686 11637 58
11686 11733 60
11686 11781 78
11687 11538 103
11687 11583 93
11687 11810 104
11687 11812 137
11688 11662 21
11688 11790 125
11688 11814 92
11689 11661 24
11689 11625 77
11689 11768 65
11689 11769 110
11690 11600 71
11690 11468 136
11690 11700 214
11690 11975 229
11691 11621 70
11692 11472 137
11692 11672 94
11692 11718 128
11692 11861 126
11693 11593 60
11693 11682 125
11693 11740 33
11694 11492 131
11694 11650 73
11694 11712 43
11694 11786 77
11695 11615 50
11695 11620 118
11695 11750 97
11695 11767 59
11696 11683 39
11696 11510 125
11696 11719 60
11697 11620 54
11697 11646 81
11697 11767 116
11697 11778 59
11698 11647 73
11698 11705 19
11698 11773 63
11699 11700 54
11699 11735 173
11699 11796 68
11700 11699 54
11700 11690 214
11700 11775 51
11701 11652 41
11701 11755 44
11702 11270 342
11702 11033 491
11702 11726 18
11703 11670 31
11703 11784 122
11703 11948 189
11704 11635 119
11704 11707 3
11705 11698 19
11705 11724 21
11705 11804 63
11706 11625 65
11706 11741 23
11706 11768 77
11707 11704 3
11707 11681 44
11707 11845 141
11708 11656 78
11708 11488 142
11708 11736 71
11709 11671 32
11709 11639 139
11709 11925 179
11710 11635 71
11710 11714 56
11710 11744 17
11711 11639 65
11711 11195 328
11711 11862 153
11712 11528 125
11712 11694 43
11713 11538 161
11713 11720 8
11713 11812 98
11714 11710 56
11715 11638 56
11715 11684 101
11715 11754 115
11715 11813 66
11716 11479 795
11717 11556 112
11717 11779 87
11717 11797 54
11718 11669 38
11718 11692 128
11718 11892 133
11719 11606 84
11719 11730 21
11719 11696 60
11720 11652 50
11720 11713 8
11720 11755 46
11720 11834 95
11721 11641 58
11721 11641 72
11721 11731 8
11721 11794 54
11722 11651 64
11722 11730 4
11723 11647 58
11723 11773 65
11723 11826 118
11724 11705 21
11724 11735 86
11725 11646 58
11725 11778 83
11725 11798 53
11726 11670 144
11726 11702 18
11726 11762 72
11727 11655 70
11727 11611 93
11727 11790 54
11728 11653 57
11728 11630 66
11728 12287 397
11729 11596 98
11729 11633 114
11729 11799 83
11729 11827 92
11730 11719 21
11730 11722 4
11730 11747 57
11731 11623 75
11731 11721 8
11731 11797 101
11731 11800 54
11732 11583 113
11732 11648 87
11732 11810 95
11732 11833 91
11733 11629 81
11733 11686 60
11733 11782 66
11733 11880 135
11734 11531 172
11734 11655 79
11734 11785 50
11734 11809 73
11735 11699 173
11735 11724 86
11735 11819 65
11736 11708 71
11736 11740 11
11736 11774 30
11737 11666 53
11737 11805 44
11737 11821 113
11738 11513 176
11738 11739 70
11738 11765 40
11739 11738 70
11739 11515 235
11739 11544 235
11740 11736 11
11740 11693 33
11740 11780 28
11740 11789 152
11741 11706 23
11741 11677 72
11741 11770 21
11741 11795 61
11741 11803 76
11742 11660 61
11742 11823 65
11742 11849 117
11743 11744 52
11744 11743 52
11744 11710 17
11744 11745 69
11744 11839 75
11745 11744 69
11746 11747 39
11747 11746 39
11747 11730 57
11747 11820 64
11748 11749 55
11748 11529 234
11748 11676 234
11749 11748 55
11749 11764 17
11749 11776 41
11750 11667 56
11750 11695 97
11750 11831 68
11751 11674 76
11751 11563 124
11751 11823 85
11751 11858 96
11752 11650 72
11752 11673 131
11752 11786 62
11752 11836 69
11753 11561 186
11753 11827 101
11753 11851 90
11754 11672 56
11754 11715 115
11754 11840 68
11755 11701 44
11755 11720 46
11755 11770 28
11756 11569 120
11756 11666 115
11756 11821 53
11756 11824 99
11757 11637 91
11757 11649 72
11757 11816 47
11758 11560 145
11758 11678 201
11758 11872 462
11759 11616 156
11759 11826 67
11759 11842 130
11760 11761 30
11760 11793 113
11760 11837 79
11761 11760 30
11761 11764 21
11761 11822 45
11762 11726 72
11762 11774 49
11762 11791 20
11763 11648 91
11763 11685 88
11763 11833 87
11763 11865 94
11764 11749 17
11764 11761 21
11764 11776 31
11764 11822 44
11765 11557 169
11765 11738 40
11765 11787 37
11766 11605 155
11766 11680 135
11766 11842 145
11767 11695 59
11767 11697 116
11767 11806 49
11767 11978 176
11768 11689 65
11768 11706 77
11768 11803 23
11769 11642 106
11769 11689 110
11769 11863 92
11769 11894 202
11770 11741 21
11770 11755 28
11770 11815 60
11770 11825 68
11770 11886 107
11771 11654 95
11771 11671 75
11771 11876 93
11772 11613 131
11772 11588 185
11772 11857 78
11773 11698 63
11773 11723 65
11773 11826 162
11773 23819 162
11773 23816 27
11774 11762 49
11774 11736 30
11774 11780 12
11775 11700 51
11775 11796 85
11775 11854 63
11776 11749 41
11776 11764 31
11776 11818 69
11777 11561 167
11777 11844 94
11777 11869 93
11778 11697 59
11778 11725 83
11778 11850 59
11779 11610 119
11779 11717 87
11779 11783 11
11779 11841 54
11780 11774 12
11780 11740 28
11780 11808 63
11780 11882 85
11781 11686 78
11781 11816 49
11782 11673 90
11782 11733 66
11782 11868 78
11783 11547 163
11783 11779 11
11783 11798 35
11783 11852 56
11784 11703 122
11784 11791 87
11784 11918 113
11785 11734 50
11785 11853 74
11785 11856 66
11786 11694 77
11786 11752 62
11787 11788 6
11787 11765 37
11787 11794 8
11788 11787 6
11788 23817 46
11789 11740 152
11789 11675 81
11789 11857 142
11790 11727 54
11790 11688 125
11790 11856 87
11791 11784 87
11791 11762 20
11791 11900 91
11792 11684 74
11792 11813 97
11792 11910 99
11793 11760 113
11793 11513 202
11793 11860 63
11794 11721 54
11794 11787 8
11794 11800 7
11795 11741 61
11795 11987 283
11796 11775 85
11796 11699 68
11796 11811 80
11796 11873 67
11797 11717 54
11797 11731 101
11797 11841 88
11798 11725 53
11798 11783 35
11798 11850 87
11799 11685 96
11799 11729 83
11799 11865 96
11799 11889 95
11800 11731 54
11800 11794 7
11800 11907 194
11801 11802 354
11801 23825 354
11802 11801 354
11802 23825 354
11803 11768 23
11803 11741 76
11803 11863 99
11804 11705 63
11804 11819 98
11804 11875 128
11804 23818 128
11804 11908 89
11805 11737 44
11805 11870 109
11805 11995 166
11806 11767 49
11806 11831 54
11806 12029 177
11807 11664 102
11807 11642 181
11807 11894 85
11808 11780 63
11808 11817 65
11808 11961 126
11809 11660 144
11809 11734 73
11809 11849 48
11809 11853 51
11810 11687 104
11810 11732 95
11810 11895 90
11810 11929 170
11811 11796 80
11811 11819 97
11811 11890 68
11812 11713 98
11812 11687 137
11812 11834 33
11813 11715 66
11813 11792 97
11813 11840 116
11813 11931 99
11814 11688 92
11814 11887 118
11814 11953 115
11815 11770 60
11815 12023 277
11816 11781 49
11816 11757 47
11816 11838 52
11816 11899 72
11817 11808 65
11817 11835 58
11817 11943 105
11818 11776 69
11818 11874 109
11818 11878 60
11819 11811 97
11819 11735 65
11819 11804 98
11819 11904 68
11820 11747 64
11821 11756 53
11821 11737 113
11821 11870 44
11822 11764 44
11822 11761 45
11822 11828 8
11823 11751 85
11823 11742 65
11823 11891 58
11823 11902 90
11824 11584 184
11824 11756 99
11824 11846 35
11824 11922 94
11825 11770 68
11825 11888 96
11825 11934 103
11826 11723 118
11826 11759 67
11826 11773 162
11826 23819 162
11826 11877 112
11827 11729 92
11827 11753 101
11827 11889 87
11827 11920 92
11828 11822 8
11828 11871 39
11828 11878 99
11829 11830 157
11829 11594 302
11829 11972 123
11830 11829 157
11831 11750 68
11831 11806 54
11831 11866 57
11831 11981 129
11832 11634 142
11833 11732 91
11833 11763 87
11833 11895 93
11833 11924 95
11834 11720 95
11834 11812 33
11834 11886 80
11834 11929 97
11835 11817 58
11835 11903 97
11835 12031 135
11836 11752 69
11837 11760 79
11837 11871 56
11837 11921 81
11838 11816 52
11838 11674 125
11838 11858 58
11838 11914 70
11839 11744 75
11840 11754 68
11840 11813 116
11840 11861 94
11840 11964 97
11841 11779 54
11841 11797 88
11841 11852 16
11841 11907 55
11842 11759 130
11842 11766 145
11842 11877 58
11843 11844 84
11844 11843 84
11844 11777 94
11844 11917 97
11844 11938 96
11845 11707 141
11845 11966 96
11846 11177 475
11846 11824 35
11846 12057 220
11847 11848 110
11848 11847 110
11848 11973 322
11848 11966 1182
11849 11742 117
11849 11809 48
11849 11902 61
11850 11778 59
11850 11798 87
11850 11912 56
11851 11753 90
11851 11917 71
11851 11920 100
11852 11783 56
11852 11841 16
11852 11911 56
11852 11912 117
11853 11809 51
11853 11785 74
11853 11881 31
11854 11855 28
11854 11775 63
11854 11873 87
11854 11923 59
11855 11854 28
11856 11785 66
11856 11790 87
11856 11881 78
11856 11960 86
11857 11789 142
11857 11772 78
11857 11903 41
11858 11838 58
11858 11751 96
11858 11891 89
11858 11941 71
11859 11663 161
11859 11979 99
11859 12683 566
11860 11793 63
11860 11883 24
11860 12220 252
11861 11692 126
11861 11840 94
11861 11892 144
11861 11989 95
11862 11711 153
11862 11991 194
11862 12116 206
11863 11769 92
11863 11803 99
11863 11982 231
11864 11600 326
11864 11898 104
11864 11928 97
11865 11763 94
11865 11799 96
11865 11924 80
11865 11965 93
11866 11607 186
11866 11831 57
11866 11927 55
11866 11940 120
11867 11868 114
11868 11867 114
11868 11782 78
11868 11880 90
11869 11777 93
11869 11938 94
11869 11983 102
11870 11821 44
11870 11805 109
11870 11922 84
11870 11995 96
11871 11828 39
11871 11837 56
11871 11962 78
11872 11448 347
11872 11758 462
11872 11947 301
11873 11854 87
11873 11796 67
11873 11879 38
11874 11818 109
11874 11915 82
11874 11942 58
11875 11804 128
11875 23818 128
11875 11884 25
11875 11935 62
11876 11771 93
11876 11925 61
11876 12529 474
11877 11826 112
11877 11842 58
11877 11906 32
11878 11818 60
11878 11828 99
11878 11913 28
11878 11942 112
11879 11873 38
11879 11890 51
11879 11971 64
11880 11733 135
11880 11868 90
11880 11899 44
11881 11853 31
11881 11856 78
11881 11932 38
11882 11780 85
11882 11900 50
11882 11980 70
11883 11860 24
11883 11909 29
11883 11992 84
11884 11875 25
11884 11906 133
11884 11933 87
11885 11361 1494
11885 12160 377
11885 12314 496
11886 11770 107
11886 11834 80
11886 11934 65
11886 12005 95
11887 11814 118
11887 11976 69
11888 11825 96
11888 11958 94
11888 12038 106
11889 11799 95
11889 11827 87
11889 11965 96
11889 12016 93
11890 11879 51
11890 11811 68
11890 11901 60
11891 11858 89
11891 11823 58
11891 11990 72
11892 11718 133
11892 11861 144
11892 12061 122
11893 11894 38
11893 11910 24
11893 12025 85
11894 11893 38
11894 11807 85
11894 11769 202
11894 11982 69
11895 11810 90
11895 11833 93
11895 12017 91
11895 12051 173
11896 11897 181
11897 11896 181
11897 11983 95
11898 11864 104
11898 11972 93
11899 11880 44
11899 11816 72
11899 11914 51
11900 11791 91
11900 11882 50
11900 11918 83
11900 12065 106
11901 11890 60
11901 11904 40
11901 11986 61
11902 11823 90
11902 11849 61
11902 11905 16
11902 12041 104
11903 11835 97
11903 11857 41
11903 12031 90
11904 11901 40
11904 11819 68
11904 11908 107
11905 11902 16
11905 11916 53
11905 12064 101
11906 11884 133
11906 11877 32
11906 11933 49
11907 11841 55
11907 11800 194
11907 11911 13
11907 11915 15
11908 11904 107
11908 11804 89
11908 11935 65
11908 12007 65
11909 11883 29
11909 11921 26
11909 11949 34
11910 11792 99
11910 11893 24
11910 11931 101
11910 12012 64
11911 11852 56
11911 11907 13
11911 11926 14
11911 11985 121
11912 11850 56
11912 11852 117
11912 11978 111
11912 11985 53
11913 11878 28
11914 11899 51
11914 11838 70
11914 11941 56
11915 11907 15
11915 11874 82
11915 11919 8
11915 11994 56
11916 11905 53
11916 11932 58
11916 12076 94
11917 11851 71
11917 11844 97
11917 12022 98
11917 12048 91
11918 11784 113
11918 11900 83
11918 11948 88
11918 12102 106
11919 11915 8
11919 11926 7
11919 11984 43
11920 11827 92
11920 11851 100
11920 12016 90
11920 12022 66
11921 11837 81
11921 11909 26
11921 11962 53
11922 11824 94
11922 11870 84
11922 12049 109
11923 11854 59
11923 11971 136
11923 11957 14
11924 11833 95
11924 11865 80
11924 12017 93
11924 12069 94
11925 11876 61
11925 11709 179
11925 11991 49
11926 11911 14
11926 11919 7
11926 11984 42
11926 12030 131
11927 11866 55
11927 12013 53
11927 12027 115
11928 11864 97
11928 11930 108
11928 12006 46
11929 11834 97
11929 11810 170
11929 12005 78
11929 12051 84
11930 11928 108
11931 11813 99
11931 11910 101
11931 11964 117
11931 12066 78
11932 11916 58
11932 11881 38
11932 11944 56
11932 12099 92
11933 11884 87
11933 11906 49
11933 12024 93
11933 12026 81
11934 11825 103
11934 11886 65
11934 12038 95
11934 12071 93
11935 11908 65
11935 11875 62
11935 12024 74
11935 12042 70
11936 11937 0
11937 11936 0
11937 11939 15
11937 11963 25
11937 12019 160
11938 11844 96
11938 11869 94
11938 12048 99
11938 12086 102
11939 11937 15
11940 11866 120
11940 11959 21
11940 12027 49
11941 11914 56
11941 11858 71
11941 11990 93
11941 12107 96
11942 11874 58
11942 11878 112
11942 11994 81
11942 12115 101
11943 11817 105
11943 11961 63
11943 12096 84
11944 11932 56
11944 11960 55
11944 12112 91
11945 11946 9
11946 11945 9
11946 12044 100
11946 12081 83
11947 11872 301
11947 11996 100
11948 11703 189
11948 11918 88
11948 11953 11
11948 12149 106
11949 11909 34
11949 12009 83
11949 12010 32
11950 11951 81
11950 11952 15
11950 11977 42
11951 11950 81
11952 11950 15
11953 11814 115
11953 11948 11
11953 11976 99
11953 12153 105
11954 11955 53
11955 11954 53
11956 11957 9
11956 11970 76
11956 12015 52
11956 12083 71
11957 11956 9
11957 11923 14
11958 11888 94
11958 12056 98
11958 12120 106
11959 11940 21
11960 11944 55
11960 11856 86
11960 11976 101
11960 12121 92
11960 12121 93
11961 11808 126
11961 11943 63
11961 11969 13
11962 11871 78
11962 11921 53
11962 12009 26
11962 12028 72
11963 11937 25
11963 11966 75
11963 12091 173
11964 11840 97
11964 11931 117
11964 11989 95
11964 12109 78
11965 11865 93
11965 11889 96
11965 12069 93
11965 12089 81
11966 11845 96
11966 11963 75
11966 11848 1182
11967 11968 26
11967 12045 92
11968 11967 26
11968 12045 90
11968 12115 95
11969 11961 13
11969 11980 45
11969 12251 168
11970 11956 76
11970 11993 69
11970 12072 57
11971 11923 136
11971 11879 64
11971 11974 35
11972 11829 123
11972 11898 93
11972 11977 5
11973 11848 322
11974 11971 35
11974 11986 81
11974 12075 55
11975 11690 229
11975 11988 39
11975 12011 58
11975 12047 40
11976 11960 101
11976 11887 69
11976 11953 99
11976 12163 99
11977 11950 42
11977 11972 5
11977 12002 17
11978 11767 176
11978 11912 111
11978 12029 46
11978 12068 53
11979 11859 99
11979 12037 25
11979 12192 167
11980 11882 70
11980 11969 45
11980 12276 169
11981 11831 129
11981 12060 45
11982 11894 69
11982 11863 231
11982 12124 80
11983 11869 102
11983 11897 95
11983 12086 92
11983 12225 167
11984 11926 42
11984 11919 43
11984 11999 10
11984 12004 10
11985 11912 53
11985 11911 121
11985 12030 20
11985 12068 108
11986 11974 81
11986 11901 61
11986 12003 100
11986 12090 54
11987 11795 283
11987 12118 379
11987 12179 379
11988 11975 39
11988 11993 20
11988 12073 79
11989 11861 95
11989 11964 95
11989 12061 215
11989 12123 72
11990 11941 93
11990 11891 72
11990 12041 50
11990 12166 95
11991 11925 49
11991 11862 194
11991 12401 266
11992 11883 84
11992 12288 187
11992 12495 328
11993 11988 20
11993 11970 69
11993 12085 51
11994 11915 56
11994 11942 81
11994 12008 10
11994 12247 149
11995 11870 96
11995 11805 166
11995 12049 35
11996 11947 100
11996 12054 30
11996 12059 86
11997 11998 83
11998 11997 83
11998 12053 49
11998 12079 57
11999 11984 10
11999 12004 2
11999 12008 3
12000 12001 50
12000 12098 90
12001 12000 50
12001 12055 53
12001 12285 187
12002 11977 17
12002 12019 78
12002 12091 105
12003 11986 100
12003 12007 39
12003 12104 54
12004 11984 10
12004 11999 2
12004 12014 3
12004 12237 301
12005 11886 95
12005 11929 78
12005 12071 71
12005 12139 82
12006 11928 46
12006 12306 11
12007 12003 39
12007 11908 65
12007 12042 27
12008 11999 3
12008 11994 10
12008 12014 2
12008 12409 240
12009 11962 26
12009 11949 83
12009 12077 41
12010 11949 32
12010 12077 82
12010 12150 81
12011 11975 58
12011 12043 52
12011 12082 42
12012 11910 64
12012 12066 109
12012 12128 65
12013 11927 53
12013 12113 114
12013 12114 62
12014 12004 3
12014 12008 2
12014 12242 309
12014 12410 239
12015 11956 52
12015 12084 71
12015 12095 46
12016 11889 93
12016 11920 90
12016 12058 62
12016 12078 61
12017 11895 91
12017 11924 93
12017 12050 25
12017 12129 105
12018 12019 135
12019 12018 135
12019 12002 78
12019 11937 160
12020 12021 284
12020 12132 227
12020 12141 96
12021 12020 284
12021 12067 31
12022 11920 66
12022 11917 98
12022 12078 76
12022 12155 94
12023 11815 277
12023 12154 366
12024 11935 74
12024 11933 93
12024 12087 96
12024 12117 71
12025 11893 85
12025 12169 81
12026 11933 81
12026 12117 115
12027 11940 49
12027 11927 115
12027 12113 54
12028 11962 72
12029 11806 177
12029 11978 46
12029 12060 54
12030 11985 20
12030 11926 131
12030 12063 58
12031 11835 135
12031 11903 90
12031 12103 50
12032 12033 260
12033 12032 260
12033 12034 104
12033 12079 53
12033 12180 102
12034 12033 104
12035 12036 21
12036 12035 21
12037 11979 25
12037 12182 99
12037 12228 125
12038 11888 106
12038 11934 95
12038 12120 93
12038 12177 94
12039 12040 13
12040 12039 13
12041 11990 50
12041 11902 104
12041 12046 15
12042 12007 27
12042 11935 70
12042 12087 35
12043 12011 52
12043 12137 59
12044 11946 100
12044 12081 69
12044 12092 396
12045 11967 92
12045 11968 90
12045 12145 58
12046 12041 15
12046 12064 55
12046 12201 95
12047 11975 40
12047 12073 18
12047 12171 73
12048 11917 91
12048 11938 99
12048 12155 92
12048 12207 107
12049 11922 109
12049 11995 35
12049 12057 11
12050 12017 25
12051 11929 84
12051 11895 173
12051 12139 80
12051 12204 95
12052 12053 79
12053 12052 79
12053 11998 49
12053 12111 50
12054 11996 30
12054 12157 107
12054 12903 792
12055 12001 53
12055 12108 51
12055 12316 175
12056 11958 98
12056 12124 55
12056 12238 114
12057 11846 220
12057 12049 11
12057 12062 24
12057 12070 14
12058 12016 62
12059 11996 86
12059 12157 66
12060 11981 45
12060 12029 54
12060 12114 64
12061 11892 122
12061 11989 215
12061 12062 18
12061 12105 23
12062 12057 24
12062 11665 297
12062 12061 18
12062 12080 11
12063 12030 58
12063 12088 30
12063 12237 124
12064 12046 55
12064 11905 101
12064 12074 45
12064 12187 64
12065 11900 106
12065 12102 83
12065 12294 134
12066 11931 78
12066 12012 109
12066 12109 118
12066 12125 31
12067 12021 31
12067 12097 75
12067 12158 45
12068 11978 53
12068 11985 108
12068 12088 18
12068 12357 384
12069 11924 94
12069 11965 93
12069 12089 126
12070 12057 14
12070 12080 16
12070 12101 49
12071 11934 93
12071 12005 71
12071 12177 94
12071 12205 82
12072 11970 57
12072 12083 56
12072 12210 73
12073 12047 18
12073 11988 79
12073 12152 38
12074 12064 45
12074 12076 7
12074 12197 64
12075 11974 55
12075 12090 82
12075 12167 50
12076 12074 7
12076 11916 94
12076 12099 56
12077 12009 41
12077 12010 82
12077 12146 31
12077 12147 57
12078 12016 61
12078 12022 76
12078 12222 102
12079 11998 57
12079 12033 53
12079 12135 42
12080 12070 16
12080 12062 11
12080 12105 22
12081 12044 69
12081 11946 83
12081 12352 175
12082 12011 42
12083 11956 71
12083 12072 56
12083 12095 43
12083 12211 68
12084 12015 71
12084 12167 63
12084 12226 92
12085 11993 51
12085 12152 78
12085 12218 78
12086 11938 102
12086 11983 92
12086 12207 100
12086 12322 165
12087 12042 35
12087 12024 96
12087 12104 83
12087 12174 53
12088 12068 18
12088 12063 30
12088 12390 393
12089 11965 81
12089 12069 126
12089 12344 175
12090 12075 82
12090 11986 54
12090 12104 101
12090 12156 32
12091 11963 173
12091 12002 105
12091 12208 116
12092 12044 396
12092 11609 660
12093 12094 81
12094 12093 81
12094 12126 43
12094 12195 72
12095 12083 43
12095 12015 46
12095 12200 61
12096 11943 84
12096 12103 24
12096 12176 45
12097 12067 75
12097 12164 34
12098 12000 90
12098 12106 161
12098 12243 107
12099 12076 56
12099 11932 92
12099 12112 56
12100 11331 568
12100 12220 74
12100 12668 392
12101 10823 884
12101 12070 49
12101 12194 53
12101 12299 133
12102 11918 106
12102 12065 83
12102 12149 88
12102 12326 133
12103 12096 24
12103 12031 50
12103 12176 46
12104 12090 101
12104 12003 54
12104 12087 83
12104 12193 49
12105 12080 22
12105 12061 23
12105 12122 13
12106 12098 161
12106 12130 12
12107 11941 96
12107 12119 9
12107 12166 90
12108 12055 51
12108 12168 58
12108 12353 163
12109 11964 78
12109 12066 118
12109 12118 8
12109 12123 95
12110 12111 76
12111 12110 76
12111 12053 50
12112 12099 56
12112 11944 91
12112 12121 58
12112 12219 64
12113 12027 54
12113 12013 114
12113 12206 58
12114 12013 62
12114 12060 64
12114 12206 115
12115 11942 101
12115 11968 95
12115 12131 72
12115 12173 40
12116 11862 206
12116 12194 45
12116 12246 83
12117 12024 71
12117 12026 115
12117 12174 113
12117 12209 60
12118 12109 8
12118 12154 12
12118 11987 379
12118 12179 379
12119 12107 9
12119 12175 89
12119 12264 115
12120 11958 106
12120 12038 93
12120 12238 114
12120 12260 100
12121 12112 58
12121 11960 92
12121 11960 93
12121 12144 51
12121 12231 64
12122 12105 13
12122 12172 50
12122 12191 54
12123 11989 72
12123 12109 95
12123 12178 128
12124 11982 80
12124 12056 55
12124 12162 18
12125 12066 31
12125 12128 114
12125 12170 120
12125 12261 85
12126 12094 43
12126 12127 33
12126 12404 162
12127 12126 33
12128 12125 114
12128 12012 65
12128 12236 65
12129 12017 105
12129 12204 76
12129 12250 97
12130 12106 12
12130 12134 35
12130 12184 31
12131 12115 72
12131 12145 76
12131 12181 27
12132 12020 227
12132 12133 10
12132 12134 33
12133 12132 10
12133 12136 31
12133 12300 102
12134 12130 35
12134 12132 33
12134 12291 95
12135 12079 42
12135 12225 96
12135 12258 101
12136 12133 31
12136 12138 29
12136 12309 105
12137 12043 59
12137 12148 52
12137 12190 35
12138 12136 29
12138 12143 28
12138 12318 109
12139 12005 82
12139 12051 80
12139 12140 2
12139 12142 0
12140 12139 2
12140 12142 2
12141 12020 96
12141 12143 32
12141 12151 127
12141 12328 115
12142 12139 0
12142 12140 2
12142 12205 72
12142 12268 95
12143 12138 28
12143 12141 32
12143 12323 111
12144 12121 51
12144 12163 90
12144 12255 77
12145 12131 76
12145 12045 58
12145 12147 28
12146 12077 31
12146 12150 94
12146 12199 34
12147 12145 28
12147 12077 57
12147 12196 30
12148 12137 52
12149 11948 106
12149 12102 88
12149 12361 134
12150 12146 94
12150 12010 81
12150 12213 49
12151 12141 127
12151 12158 156
12152 12073 38
12152 12085 78
12152 12171 52
12152 12256 77
12153 11953 105
12153 12163 92
12153 12367 134
12154 12118 12
12154 12170 13
12154 12214 169
12154 12310 355
12154 12023 366
12155 12022 94
12155 12048 92
12155 12222 83
12155 12289 107
12156 12090 32
12157 12054 107
12157 12059 66
12157 13319 1069
12158 12151 156
12158 12067 45
12158 12161 42
12159 12160 15
12160 12159 15
12160 11885 377
12161 12158 42
12161 12164 32
12161 12224 43
12162 12124 18
12162 12221 48
12162 12290 86
12163 12144 90
12163 11976 99
12163 12153 92
12163 12230 46
12164 12161 32
12164 12097 34
12164 12165 26
12165 12164 26
12165 12235 51
12166 12107 90
12166 11990 95
12166 12175 9
12166 12188 41
12167 12084 63
12167 12075 50
12167 12183 48
12167 12241 59
12168 12108 58
12168 12209 54
12168 12305 98
12169 12025 81
12169 12212 26
12170 12154 13
12170 12125 120
12170 12203 94
12170 12313 87
12171 12047 73
12171 12152 52
12171 12198 19
12172 12122 50
12172 12178 44
12172 12185 11
12173 12115 40
12173 12181 98
12173 12227 44
12174 12087 53
12174 12117 113
12175 12119 89
12175 12166 9
12175 12202 43
12175 12264 61
12176 12096 45
12176 12103 46
12176 12251 73
12177 12038 94
12177 12071 94
12177 12260 96
12177 12280 76
12178 12123 128
12178 12179 202
12178 12172 44
12179 12178 202
12179 12299 344
12179 11987 379
12179 12118 379
12180 12033 102
12181 12173 98
12181 12131 27
12181 12189 46
12182 12037 99
12182 12234 61
12182 12263 62
12183 12167 48
12183 12193 147
12183 12297 72
12184 12130 31
12184 12243 109
12185 12172 11
12185 12277 45
12186 12187 50
12186 12395 131
12187 12186 50
12187 12064 64
12187 12197 44
12187 12324 84
12188 12166 41
12188 12201 25
12188 12202 9
12189 12181 46
12189 12196 55
12189 12223 26
12190 12137 35
12190 12198 7
12191 12122 54
12191 12248 46
12192 11979 167
12192 12228 61
12192 12282 63
12193 12104 49
12193 12183 147
12193 12286 59
12194 12116 45
12194 12101 53
12194 12246 39
12194 12303 80
12195 12094 72
12196 12189 55
12196 12147 30
12196 12245 39
12197 12187 44
12197 12074 64
12197 12219 120
12198 12190 7
12198 12171 19
12198 12215 97
12198 12254 43
12199 12146 34
12199 12213 66
12200 12095 61
12200 12211 36
12200 12226 46
12200 12283 53
12201 12188 25
12201 12046 95
12202 12175 43
12202 12188 9
12202 12329 79
12203 12170 94
12203 12214 74
12203 12349 87
12204 12051 95
12204 12129 76
12204 12268 79
12204 12343 99
12205 12071 82
12205 12142 72
12205 12280 93
12205 12342 96
12206 12113 58
12206 12114 115
12206 12287 107
12207 12048 107
12207 12086 100
12207 12289 88
12207 12424 164
12208 12091 116
12208 12240 14
12209 12117 60
12209 12168 54
12209 12252 123
12209 12350 103
12210 12072 73
12210 12211 38
12210 12216 31
12211 12210 38
12211 12083 68
12211 12200 36
12211 12317 65
12212 12169 26
12212 12229 26
12212 12233 18
12213 12199 66
12213 12150 49
12213 12244 35
12214 12154 169
12214 12203 74
12214 12217 7
12215 12198 97
12216 12210 31
12216 12218 6
12216 12335 76
12217 12214 7
12217 12278 53
12217 12351 81
12218 12085 78
12218 12216 6
12218 12256 77
12219 12197 120
12219 12112 64
12219 12231 57
12219 12359 84
12220 11860 252
12220 12100 74
12220 12414 126
12221 12162 48
12221 12229 33
12221 12399 124
12222 12078 102
12222 12155 83
12222 12344 114
12223 12189 26
12223 12232 78
12223 12253 32
12224 12161 43
12224 12235 65
12224 12365 89
12225 11983 167
12225 12135 96
12225 12322 96
12225 12362 97
12226 12200 46
12226 12084 92
12226 12274 58
12226 12279 33
12227 12173 44
12227 12247 25
12227 12232 98
12228 12037 125
12228 12192 61
12228 12269 61
12228 12327 64
12229 12212 26
12229 12221 33
12229 12233 18
12230 12163 46
12230 12255 88
12230 12402 100
12231 12219 57
12231 12121 64
12231 12478 148
12232 12223 78
12232 12227 98
12232 12262 21
12233 12212 18
12233 12229 18
12233 12236 12
12233 12429 115
12234 12182 61
12234 12298 109
12234 12345 68
12235 12224 65
12235 12165 51
12235 12257 22
12236 12128 65
12236 12233 12
12236 12261 99
12236 12432 116
12237 12063 124
12237 12004 301
12237 12242 9
12237 12460 308
12238 12056 114
12238 12120 114
12238 12290 55
12238 12370 94
12239 12240 12
12239 12301 71
12239 12306 377
12240 12239 12
12240 12208 14
12241 12167 59
12241 12274 21
12241 12297 68
12242 12237 9
12242 12014 309
12242 12281 23
12242 12330 81
12242 12467 303
12243 12098 107
12243 12184 109
12243 12285 53
12244 12213 35
12244 12245 83
12244 12288 24
12245 12196 39
12245 12244 83
12245 12253 27
12245 12339 50
12246 12116 83
12246 12194 39
12246 12321 52
12246 12373 70
12247 11994 149
12247 12227 25
12247 12337 51
12248 12249 15
12248 12191 46
12249 12248 15
12249 12356 70
12250 12129 97
12250 12343 83
12250 12354 64
12251 11969 168
12251 12176 73
12251 12276 48
12252 12209 123
12252 12272 40
12252 12448 138
12253 12223 32
12253 12245 27
12253 12262 98
12254 12198 43
12254 12273 126
12254 12308 27
12255 12144 77
12255 12230 88
12255 12433 102
12256 12152 77
12256 12218 77
12256 12267 12
12256 12384 73
12257 12235 22
12257 12275 47
12257 12421 99
12258 12135 101
12258 12259 94
12258 12362 98
12258 12378 77
12259 12258 94
12260 12120 100
12260 12177 96
12260 12370 103
12260 12372 67
12261 12125 85
12261 12236 99
12261 12265 5
12261 12461 116
12262 12232 21
12262 12253 98
12262 12293 16
12263 12182 62
12263 12269 15
12264 12119 115
12264 12175 61
12264 12329 60
12264 12336 39
12265 12266 80
12265 12261 5
12265 12313 117
12265 12464 116
12266 12265 80
12267 12256 12
12267 12308 70
12267 12396 77
12268 12142 95
12268 12204 79
12268 12342 72
12268 12411 96
12269 12263 15
12269 12228 61
12269 12451 117
12270 12271 132
12271 12270 132
12272 12252 40
12272 12286 100
12273 12254 126
12274 12226 58
12274 12241 21
12274 12400 87
12275 12257 47
12275 12292 23
12275 12315 96
12276 11980 169
12276 12251 48
12276 12294 46
12276 12355 45
12277 12278 36
12277 12185 45
12278 12277 36
12278 12217 53
12278 12351 42
12278 12375 58
12279 12226 33
12279 12371 60
12280 12177 76
12280 12205 93
12280 12372 97
12280 12427 99
12281 12242 23
12281 12589 215
12281 12659 290
12282 12192 63
12282 12327 60
12282 12425 95
12283 12200 53
12283 12284 9
12283 12317 33
12284 12283 9
12285 12001 187
12285 12243 53
12285 12316 54
12286 12193 59
12286 12272 100
12286 12617 213
12287 11728 397
12287 12206 107
12287 12304 11
12287 12357 48
12288 12244 24
12288 11992 187
12288 12338 72
12289 12155 107
12289 12207 88
12289 12502 165
12290 12162 86
12290 12238 55
12290 12504 146
12291 12134 95
12291 12300 42
12291 12358 195
12292 12275 23
12292 12315 56
12292 12465 112
12293 12262 16
12293 12337 107
12293 12366 42
12294 12065 134
12294 12276 46
12294 12326 82
12295 12296 52
12295 12382 90
12295 12428 93
12296 12295 52
12297 12241 68
12297 12183 72
12297 12319 11
12298 12234 109
12298 12325 68
12298 12422 79
12299 12101 133
12299 12179 344
12299 12310 9
12299 12501 155
12300 12291 42
12300 12133 102
12300 12309 31
12301 12302 63
12301 12239 71
12301 12307 7
12302 12301 63
12303 12194 80
12303 12387 41
12304 11653 465
12304 12287 11
12304 12364 40
12304 12398 60
12305 12168 98
12305 12350 46
12305 12383 53
12306 12239 377
12306 12006 11
12307 12301 7
12307 12334 31
12307 12818 379
12308 12254 27
12308 12267 70
12308 12363 34
12309 12300 31
12309 12136 105
12309 12318 29
12310 12299 9
12310 12154 355
12310 12356 126
12310 12488 130
12311 12312 52
12311 12380 63
12311 12431 87
12312 12311 52
12312 12333 149
12312 12392 98
12313 12170 87
12313 12265 117
12313 12349 93
12313 12494 114
12314 11885 496
12315 12292 56
12315 12275 96
12315 12336 18
12316 12055 175
12316 12285 54
12316 12353 56
12316 12377 42
12317 12211 65
12317 12283 33
12317 12335 37
12318 12309 29
12318 12138 109
12318 12323 29
12319 12297 11
12319 12320 106
12319 12452 81
12320 12319 106
12321 12246 52
12321 12408 39
12322 12086 165
12322 12225 96
12322 12424 98
12322 12455 98
12323 12318 29
12323 12143 111
12323 12328 30
12324 12187 84
12324 12359 161
12324 12412 52
12325 12298 68
12325 12346 49
12325 12521 143
12326 12102 133
12326 12294 82
12326 12361 89
12327 12228 64
12327 12282 60
12327 12468 94
12328 12323 30
12328 12141 115
12328 12331 89
12328 12388 31
12329 12264 60
12329 12202 79
12329 12395 59
12330 12242 81
12331 12328 89
12331 12426 196
12332 12333 72
12333 12332 72
12333 12312 149
12333 12392 50
12334 12307 31
12334 12347 14
12334 12582 173
12335 12216 76
12335 12317 37
12335 12384 79
12335 12391 32
12336 12315 18
12336 12264 39
12336 12418 75
12336 12505 117
12337 12247 51
12337 12293 107
12337 12405 40
12338 12288 72
12338 12339 35
12338 12499 297
12339 12245 50
12339 12338 35
12339 12366 111
12340 12341 47
12340 12459 131
12341 12340 47
12341 12489 104
12342 12205 96
12342 12268 72
12342 12427 95
12342 12470 98
12343 12204 99
12343 12250 83
12343 12411 78
12343 12458 86
12344 12089 175
12344 12222 114
12344 12428 90
12344 12459 88
12345 12234 68
12345 12422 110
12345 12423 53
12346 12325 49
12346 12355 34
12346 12557 156
12347 12348 68
12347 12334 14
12347 12380 58
12348 12347 68
12349 12203 87
12349 12313 93
12349 12376 104
12349 12514 112
12350 12209 103
12350 12305 46
12350 12448 123
12350 12457 77
12351 12278 42
12351 12217 81
12351 12376 18
12352 12081 175
12352 12917 857
12352 13030 592
12353 12108 163
12353 12316 56
12353 12383 56
12354 12250 64
12354 12458 84
12354 12606 191
12355 12346 34
12355 12374 47
12355 12276 45
12356 12249 70
12356 12360 4
12356 12310 126
12356 12375 14
12357 12287 48
12357 12068 384
12357 12364 6
12357 12390 16
12358 12291 195
12358 12377 25
12358 12491 80
12359 12324 161
12359 12219 84
12359 12443 53
12360 12356 4
12360 12386 82
12361 12149 134
12361 12326 89
12361 12367 9
12361 12434 46
12362 12225 97
12362 12258 98
12362 12455 96
12362 12463 79
12363 12308 34
12363 12396 52
12363 12671 246
12364 12304 40
12364 12357 6
12364 12390 18
12364 12398 47
12365 12224 89
12365 12421 77
12365 12426 41
12366 12293 42
12366 12339 111
12366 12405 101
12367 12153 134
12367 12361 9
12367 12402 89
12367 12437 46
12368 12369 26
12368 12389 31
12368 12539 150
12369 12368 26
12370 12238 94
12370 12260 103
12370 12447 62
12371 12279 60
12371 12400 18
12371 12484 126
12372 12260 67
12372 12280 97
12372 12447 97
12372 12498 102
12373 12246 70
12373 12430 167
12373 12501 90
12374 12355 47
12374 12406 85
12374 12571 136
12375 12356 14
12375 12278 58
12375 12393 24
12375 12394 14
12376 12351 18
12376 12349 104
12376 12394 30
12376 12522 126
12377 12316 42
12377 12358 25
12377 12457 167
12378 12258 77
12378 12379 61
12378 12463 93
12378 12492 88
12379 12378 61
12379 12413 66
12380 12311 63
12380 12347 58
12380 12474 84
12381 12382 61
12382 12381 61
12382 12295 90
12382 12439 66
12382 12549 118
12383 12305 53
12383 12353 56
12384 12256 73
12384 12385 13
12384 12335 79
12384 12471 61
12385 12384 13
12386 12387 28
12386 12360 82
12387 12386 28
12387 12303 41
12388 12328 31
12388 12479 170
12388 12486 70
12389 12368 31
12389 12415 39
12389 12531 115
12390 12364 18
12390 12357 16
12390 12088 393
12390 12460 55
12390 12467 59
12390 12515 202
12391 12335 32
12392 12333 50
12392 12312 98
12392 12431 57
12393 12375 24
12393 12397 22
12393 12403 17
12394 12375 14
12394 12376 30
12394 12403 19
12394 12666 220
12395 12329 59
12395 12186 131
12395 12446 59
12396 12363 52
12396 12267 77
12397 12393 22
12397 12407 30
12398 12304 60
12398 12364 47
12398 12683 428
12399 12221 124
12399 12429 97
12399 12526 97
12400 12371 18
12400 12274 87
12400 12477 55
12401 11991 266
12401 12430 33
12402 12230 100
12402 12367 89
12402 12433 89
12403 12393 17
12403 12394 19
12403 12442 123
12403 12550 144
12404 12126 162
12404 12416 165
12404 12413 82
12405 12337 40
12405 12366 101
12405 12409 8
12405 12440 28
12406 12374 85
12406 12434 85
12406 12601 135
12407 12408 51
12407 12397 30
12407 12435 68
12408 12407 51
12408 12321 39
12409 12008 240
12409 12405 8
12409 12410 3
12409 12445 28
12410 12014 239
12410 12409 3
12410 12449 28
12410 12589 304
12411 12268 96
12411 12343 78
12411 12470 70
12411 12518 94
12412 12324 52
12412 12443 160
12412 12446 24
12413 12379 66
12413 12404 82
12413 12492 69
12414 12220 126
12414 12487 47
12414 12720 221
12415 12389 39
12415 12436 43
12415 12566 118
12416 12417 228
12416 12404 165
12417 12416 228
12418 12336 75
12418 12475 62
12418 12540 98
12419 12420 42
12420 12419 42
12421 12365 77
12421 12257 99
12421 12465 75
12421 12473 42
12422 12298 79
12422 12345 110
12422 12493 52
12423 12345 53
12423 12444 19
12423 12493 111
12424 12207 164
12424 12322 98
12424 12502 91
12424 12538 98
12425 12282 95
12425 12468 62
12425 12613 141
12426 12331 196
12426 12365 41
12426 12473 75
12427 12280 99
12427 12342 95
12427 12498 93
12427 12541 99
12428 12295 93
12428 12344 90
12428 12546 145
12428 12581 127
12429 12233 115
12429 12399 97
12429 12432 11
12429 12556 92
12430 12401 33
12430 12373 167
12430 12469 29
12431 12311 87
12431 12392 57
12431 12474 53
12432 12236 116
12432 12429 11
12432 12461 100
12432 12558 93
12433 12255 102
12433 12402 89
12433 12478 122
12434 12406 85
12434 12437 10
12434 12626 130
12434 12361 46
12435 12407 68
12435 12442 11
12435 12453 26
12436 12415 43
12436 12482 56
12436 12610 128
12437 12434 10
12437 12472 89
12437 12630 130
12437 12367 46
12438 12439 89
12439 12438 89
12439 12382 66
12440 12405 28
12440 12441 77
12440 12445 8
12440 12594 67
12441 12440 77
12441 12511 71
12442 12435 11
12442 12403 123
12442 12629 127
12443 12412 160
12443 12359 53
12443 12496 32
12444 12423 19
12445 12409 28
12445 12440 8
12445 12449 7
12445 12462 9
12446 12395 59
12446 12412 24
12446 12496 173
12447 12370 62
12447 12372 97
12447 12483 34
12447 12576 106
12448 12350 123
12448 12450 1
12448 12252 138
12449 12410 28
12449 12445 7
12449 12466 10
12449 12712 393
12450 12448 1
12451 12269 117
12451 12481 42
12451 12503 42
12452 12319 81
12452 12454 52
12452 12525 57
12453 12435 26
12453 12488 38
12453 12742 209
12454 12452 52
12454 12456 16
12454 12485 19
12455 12322 98
12455 12362 96
12455 12535 79
12455 12538 102
12456 12454 16
12457 12350 77
12457 12377 167
12457 12588 99
12458 12343 86
12458 12354 84
12458 12518 81
12458 12676 170
12459 12344 88
12459 12340 131
12459 12497 41
12459 12553 195
12460 12390 55
12460 12237 308
12461 12261 116
12461 12432 100
12461 12464 6
12461 12598 91
12462 12445 9
12462 12595 101
12463 12362 79
12463 12378 93
12463 12535 98
12464 12265 116
12464 12461 6
12464 12494 114
12464 12599 90
12465 12421 75
12465 12292 112
12465 12505 77
12465 12513 40
12466 12449 10
12466 12997 60
12467 12390 59
12467 12242 303
12467 12500 61
12467 12570 85
12468 12327 94
12468 12425 62
12468 12503 63
12468 12658 141
12469 12430 29
12469 12529 49
12469 12590 164
12470 12342 98
12470 12411 70
12470 12541 99
12470 12580 90
12471 12384 61
12471 12552 140
12472 12437 89
12472 12507 29
12473 12426 75
12473 12421 42
12473 12513 77
12474 12431 53
12474 12380 84
12474 12506 33
12474 12607 130
12475 12418 62
12475 12508 44
12475 12586 82
12476 12477 35
12476 12534 54
12477 12476 35
12477 12400 55
12477 12485 90
12477 12517 35
12478 12231 148
12478 12433 122
12478 12490 8
12478 12496 56
12479 12388 170
12479 12480 93
12479 12536 63
12480 12479 93
12480 12536 78
12480 12577 222
12481 12451 42
12481 12542 56
12481 12562 143
12482 12436 56
12482 12491 15
12482 12664 137
12483 12447 34
12483 12504 59
12483 12631 108
12484 12371 126
12485 12454 19
12485 12477 90
12485 12519 31
12486 12388 70
12486 12539 70
12486 12569 86
12487 12414 47
12487 12495 9
12487 12509 20
12488 12310 130
12488 12453 38
12488 12667 143
12489 12341 104
12490 12478 8
12490 12524 21
12491 12358 80
12491 12482 15
12491 12512 20
12492 12378 88
12492 12413 69
12492 12578 160
12492 12675 158
12493 12422 52
12493 12423 111
12493 12562 58
12494 12313 114
12494 12464 114
12494 12514 92
12494 12627 90
12495 11992 328
12495 12487 9
12495 12499 21
12495 12509 15
12496 12443 32
12496 12478 56
12496 12446 173
12497 12459 41
12497 12581 66
12498 12372 102
12498 12427 93
12498 12576 97
12498 12621 99
12499 12338 297
12499 12495 21
12499 12509 27
12500 12467 61
12500 12527 52
12500 12622 90
12501 12373 90
12501 12299 155
12501 12590 72
12502 12289 165
12502 12424 91
12502 12553 122
12502 12625 96
12503 12451 42
12503 12468 63
12503 12702 142
12504 12290 146
12504 12483 59
12504 12684 120
12505 12465 77
12505 12336 117
12505 12540 67
12505 12543 51
12506 12474 33
12506 12607 95
12506 12640 107
12507 12472 29
12507 12528 84
12507 12657 98
12508 12475 44
12508 12544 31
12508 12537 218
12509 12499 27
12509 12495 15
12509 12487 20
12509 12516 13
12509 12591 52
12510 12511 92
12510 12530 76
12510 12545 265
12511 12510 92
12511 12441 71
12512 12491 20
12512 12588 155
12512 12605 59
12513 12473 77
12513 12465 40
12513 12543 50
12514 12349 112
12514 12494 92
12514 12522 53
12514 12648 88
12515 12390 202
12515 12567 80
12515 12567 151
12516 12509 13
12516 12602 52
12517 12477 35
12517 12520 61
12517 12534 32
12518 12411 94
12518 12458 81
12518 12580 75
12518 12746 166
12519 12485 31
12519 12520 40
12519 12525 49
12520 12517 61
12520 12519 40
12520 12559 28
12521 12325 143
12521 12557 55
12521 12618 62
12522 12376 126
12522 12514 53
12522 12661 91
12523 12524 11
12523 12537 17
12523 12554 19
12524 12523 11
12524 12490 21
12525 12519 49
12525 12452 57
12525 12579 104
12525 12604 50
12526 12399 97
12526 12556 115
12526 12716 127
12527 12500 52
12527 12585 78
12527 12593 41
12528 12507 84
12528 12555 21
12528 12686 97
12529 11876 474
12529 12469 49
12529 12717 120
12530 12510 76
12530 12548 34
12530 12611 44
12531 12389 115
12531 12532 10
12531 12566 31
12531 12600 42
12532 12531 10
12533 12534 45
12534 12533 45
12534 12476 54
12534 12517 32
12534 12565 16
12535 12455 79
12535 12463 98
12535 12634 88
12536 12479 63
12536 12480 78
12536 12740 135
12537 12523 17
12537 12554 15
12537 12508 218
12537 12583 43
12538 12424 98
12538 12455 102
12538 12625 90
12538 12634 87
12539 12368 150
12539 12486 70
12539 12600 64
12539 12643 85
12540 12505 67
12540 12418 98
12540 12586 62
12541 12427 99
12541 12470 99
12541 12621 84
12541 12771 170
12542 12481 56
12542 12633 59
12542 12647 146
12543 12513 50
12543 12505 51
12543 12577 21
12544 12508 31
12544 12592 63
12544 12615 42
12545 12510 265
12545 12551 10
12545 12560 26
12546 12547 0
12546 12428 145
12546 12549 2
12546 12573 15
12547 12546 0
12547 12549 2
12548 12530 34
12548 12572 81
12548 12614 47
12549 12382 118
12549 12547 2
12549 12546 2
12549 12606 52
12550 12403 144
12550 12584 99
12550 12672 80
12551 12545 10
12551 12568 26
12551 12574 30
12552 12471 140
12553 12502 122
12553 12459 195
12553 12715 131
12554 12537 15
12554 12523 19
12554 12608 31
12555 12528 21
12555 12587 74
12555 12689 85
12556 12429 92
12556 12526 115
12556 12558 17
12556 12750 122
12557 12346 156
12557 12521 55
12557 12636 106
12557 12637 54
12558 12432 93
12558 12556 17
12558 12598 102
12558 12756 122
12559 12520 28
12559 12563 63
12559 12564 26
12559 12685 77
12560 12545 26
12560 12561 6
12561 12560 6
12561 12575 8
12561 12635 159
12562 12493 58
12562 12481 143
12562 12618 67
12563 12559 63
12563 12565 29
12563 12652 58
12564 12559 26
12565 12534 16
12565 12563 29
12565 12665 65
12566 12415 118
12566 12531 31
12566 12610 44
12567 12515 80
12567 12515 151
12567 12624 81
12568 12551 26
12568 12591 17
12568 12612 30
12569 12486 86
12569 12643 76
12569 12644 76
12569 12656 70
12570 12467 85
12570 12622 60
12570 12710 98
12571 12374 136
12571 12601 82
12571 12636 43
12572 12548 81
12573 12546 15
12573 12673 97
12573 12814 164
12574 12551 30
12574 12575 8
12575 12561 8
12575 12574 8
12575 12616 78
12575 12777 144
12576 12447 106
12576 12498 97
12576 12631 60
12576 12711 100
12577 12480 222
12577 12543 21
12577 12603 48
12577 12677 65
12578 12492 160
12579 12525 104
12579 12597 24
12579 12680 99
12580 12470 90
12580 12518 75
12580 12752 114
12581 12428 127
12581 12497 66
12581 12794 215
12582 12334 173
12583 12537 43
12583 12660 70
12583 12747 103
12584 12550 99
12584 12609 77
12584 12697 74
12585 12527 78
12585 12638 41
12585 12639 84
12586 12540 62
12586 12475 82
12586 12615 41
12587 12555 74
12587 12608 64
12587 12791 135
12588 12457 99
12588 12512 155
12588 12620 355
12588 12670 53
12589 12281 215
12589 12410 304
12589 12826 266
12590 12469 164
12590 12501 72
12590 12628 30
12591 12568 17
12591 12509 52
12591 12602 11
12591 12612 14
12592 12544 63
12592 12650 44
12593 12527 41
12593 12638 79
12593 12662 54
12594 12595 37
12594 12440 67
12595 12594 37
12595 12596 99
12595 12462 101
12595 13641 819
12596 12595 99
12597 12579 24
12597 12620 88
12597 12651 48
12598 12461 91
12598 12558 102
12598 12599 4
12598 12775 124
12599 12464 90
12599 12598 4
12599 12627 111
12599 12778 124
12600 12531 42
12600 12539 64
12600 12655 63
12601 12406 135
12601 12571 82
12601 12626 88
12601 12751 98
12602 12591 11
12602 12516 52
12602 12755 128
12602 12815 142
12603 12577 48
12603 12619 34
12603 12705 69
12604 12525 50
12604 12680 57
12604 12700 79
12605 12512 59
12605 12670 130
12605 12723 75
12606 12354 191
12606 12549 52
12606 12676 72
12606 12814 160
12607 12474 130
12607 12506 95
12608 12554 31
12608 12587 64
12608 12762 98
12609 12584 77
12609 12629 68
12609 12722 71
12610 12436 128
12610 12566 44
12610 12623 9
12611 12530 44
12611 12695 57
12612 12568 30
12612 12591 14
12612 13135 369
12613 12425 141
12613 12658 66
12613 12690 55
12614 12548 47
12614 12701 56
12615 12586 41
12615 12544 42
12615 12650 61
12616 12575 78
12616 12641 67
12616 12641 77
12617 12286 213
12618 12521 62
12618 12562 67
12618 12854 183
12619 12603 34
12619 12632 37
12619 12728 76
12620 12597 88
12620 12588 355
12620 12691 48
12621 12498 99
12621 12541 84
12621 12711 102
12621 12796 136
12622 12500 90
12622 12570 60
12622 12662 50
12623 12610 9
12623 12655 36
12623 12664 57
12624 12567 81
12624 12707 57
12624 12714 129
12625 12502 96
12625 12538 90
12625 12715 98
12626 12434 130
12626 12601 88
12626 12780 103
12627 12494 90
12627 12599 111
12627 12648 87
12627 12806 123
12628 12590 30
12628 12875 190
12629 12442 127
12629 12609 68
12629 12742 71
12630 12437 130
12630 12657 88
12630 12781 102
12631 12483 108
12631 12576 60
12631 12684 58
12631 12843 156
12632 12619 37
12632 12642 32
12632 12749 80
12633 12542 59
12633 12679 30
12633 12734 146
12634 12538 87
12634 12535 88
12634 12715 280
12635 12561 159
12635 12649 7
12635 12706 132
12636 12571 43
12636 12557 106
12636 12727 54
12637 12557 54
12637 12727 118
12637 12731 63
12638 12585 41
12638 12593 79
12638 12708 87
12638 12767 87
12639 12585 84
12639 12707 91
12639 12708 44
12640 12506 107
12641 12616 67
12641 12649 15
12641 12616 77
12642 12632 32
12642 12687 69
12642 12688 30
12643 12539 85
12643 12569 76
12643 12644 1
12643 12713 60
12644 12643 1
12644 12569 76
12644 12704 44
12644 12713 60
12645 12646 66
12645 12665 54
12645 12681 20
12646 12645 66
12647 12542 146
12647 12669 22
12647 12734 59
12648 12514 88
12648 12627 87
12648 12661 29
12649 12635 7
12649 12641 15
12649 12718 130
12649 12783 142
12650 12615 61
12650 12592 44
12650 12719 46
12650 12757 85
12651 12597 48
12651 12674 10
12651 12729 76
12652 12563 58
12652 12665 34
12652 12685 46
12653 12654 43
12653 12663 45
12653 12725 46
12654 12653 43
12654 12703 113
12655 12623 36
12655 12600 63
12655 12693 112
12655 12804 170
12656 12569 70
12656 12699 72
12656 12704 81
12656 12841 176
12657 12507 98
12657 12630 88
12657 12686 82
12657 12809 104
12658 12468 141
12658 12613 66
12658 12702 62
12659 12281 290
12659 12710 32
12659 12743 52
12660 12583 70
12660 12757 86
12660 12800 98
12661 12522 91
12661 12648 29
12661 12666 18
12661 12830 128
12662 12593 54
12662 12622 50
12662 12696 25
12663 12653 45
12664 12482 137
12664 12623 57
12664 12723 99
12665 12565 65
12665 12652 34
12665 12645 54
12665 12776 89
12666 12394 220
12666 12661 18
12666 12672 13
12666 13102 352
12667 12488 143
12667 12717 246
12667 12921 198
12668 12100 392
12668 12720 32
12668 13554 653
12669 12647 22
12670 12588 53
12670 12605 130
12670 12738 90
12670 12760 59
12671 12363 246
12671 12745 79
12671 12924 212
12672 12550 80
12672 12666 13
12672 12678 23
12672 12759 63
12673 12573 97
12673 12786 86
12674 12651 10
12674 12694 79
12674 12793 86
12675 12492 158
12675 12950 203
12676 12458 170
12676 12606 72
12676 12746 83
12676 12772 78
12677 12577 65
12677 12698 35
12677 12795 85
12678 12672 23
12678 12697 91
12678 12766 60
12679 12633 30
12680 12604 57
12680 12579 99
12680 12729 43
12680 12773 108
12681 12682 43
12681 12645 20
12681 12754 53
12682 12681 43
12683 11859 566
12683 12398 428
12683 12690 17
12683 12714 19
12684 12504 120
12684 12631 58
12684 12853 133
12685 12652 46
12685 12559 77
12685 12730 39
12686 12528 97
12686 12657 82
12686 12689 17
12686 12831 101
12687 12642 69
12687 12719 34
12687 12733 32
12688 12642 30
12688 12733 67
12688 12765 51
12689 12555 85
12689 12686 17
12689 12764 47
12690 12613 55
12690 12683 17
12690 12714 16
12690 12915 380
12691 12620 48
12691 12692 63
12691 12736 29
12692 12691 63
12693 12655 112
12693 12741 32
12694 12674 79
12695 12611 57
12695 12701 14
12695 12706 12
12696 12662 25
12696 12767 89
12696 12798 81
12697 12584 74
12697 12678 91
12697 12722 90
12697 12782 60
12698 12677 35
12698 12705 11
12698 12813 84
12699 12656 72
12700 12604 79
12700 12761 43
12701 12614 56
12701 12695 14
12701 12709 6
12702 12503 142
12702 12658 62
12702 12822 192
12703 12654 113
12703 12726 35
12703 12745 83
12704 12644 44
12704 12656 81
12704 12721 14
12705 12698 11
12705 12603 69
12705 12728 38
12706 12695 12
12706 12635 132
12706 12718 8
12707 12624 57
12707 12639 91
12707 12770 46
12707 12787 128
12708 12639 44
12708 12638 87
12708 12770 90
12708 12820 88
12709 12701 6
12709 12737 19
12709 12763 82
12710 12570 98
12710 12659 32
12710 12743 25
12710 12798 106
12711 12576 100
12711 12621 102
12711 12825 88
12712 12449 393
12712 12964 125
12713 12643 60
12713 12644 60
12714 12690 16
12714 12683 19
12714 12624 129
12714 12787 57
12714 12792 129
12715 12553 131
12715 12625 98
12715 12634 280
12715 12952 201
12716 12526 127
12716 12750 148
12716 12845 102
12717 12529 120
12717 12667 246
12717 12895 148
12718 12706 8
12718 12649 130
12718 12744 19
12719 12687 34
12719 12650 46
12719 12748 45
12719 12788 69
12720 12414 221
12720 12668 32
12720 12755 26
12721 12704 14
12721 12732 10
12722 12609 71
12722 12697 90
12722 12742 84
12722 12805 60
12723 12724 35
12723 12605 75
12723 12664 99
12723 12804 65
12723 12884 173
12724 12723 35
12724 12760 92
12725 12653 46
12725 12879 226
12725 12924 251
12726 12703 35
12727 12636 54
12727 12637 118
12727 12751 85
12727 12808 63
12728 12705 38
12728 12619 76
12728 12735 13
12729 12680 43
12729 12651 76
12729 12892 143
12729 12893 141
12730 12685 39
12730 12758 29
12731 12637 63
12731 12808 126
12731 12812 63
12732 12721 10
12732 12769 35
12732 12779 59
12733 12688 67
12733 12687 32
12733 12788 42
12734 12647 59
12734 12633 146
12734 12822 67
12735 12728 13
12735 12749 20
12735 12848 90
12736 12691 29
12736 12793 91
12737 12709 19
12737 12753 21
12737 12763 73
12738 12739 87
12738 12670 90
12738 12790 41
12739 12738 87
12740 12536 135
12740 12816 143
12740 12829 71
12741 12693 32
12741 12779 36
12741 12799 131
12742 12453 209
12742 12629 71
12742 12722 84
12742 12828 63
12743 12710 25
12743 12659 52
12743 12797 43
12744 12718 19
12744 12753 16
12744 12774 22
12745 12671 79
12745 12703 83
12746 12518 166
12746 12676 83
12746 12844 121
12746 12868 114
12747 12583 103
12747 12762 46
12748 12719 45
12748 12757 15
12748 12827 61
12749 12735 20
12749 12632 80
12749 12765 32
12750 12556 122
12750 12716 148
12750 12756 12
12750 12873 101
12751 12601 98
12751 12727 85
12751 12780 87
12751 12872 101
12752 12580 114
12752 12771 76
12752 12844 70
12753 12737 21
12753 12744 16
12753 12774 19
12754 12681 53
12754 12833 140
12755 12602 128
12755 12720 26
12755 12807 45
12756 12558 122
12756 12750 12
12756 12775 96
12756 12878 101
12757 12748 15
12757 12650 85
12757 12660 86
12757 12832 60
12758 12730 29
12758 12761 11
12758 12833 68
12759 12672 63
12759 12766 36
12759 12840 70
12760 12670 59
12760 12724 92
12760 12790 139
12761 12758 11
12761 12700 43
12761 12768 8
12762 12747 46
12762 12608 98
12762 12852 69
12763 12709 82
12763 12737 73
12763 12896 211
12764 12689 47
12764 12791 79
12764 12836 54
12765 12749 32
12765 12688 51
12765 12788 85
12766 12678 60
12766 12759 36
12766 12782 90
12766 12846 64
12767 12638 87
12767 12696 89
12767 12820 85
12767 12856 86
12768 12761 8
12768 12773 6
12768 12911 113
12769 12732 35
12769 12821 108
12769 12857 72
12770 12707 46
12770 12708 90
12770 12864 86
12771 12541 170
12771 12752 76
12771 12796 88
12771 12890 98
12772 12676 78
12773 12768 6
12773 12680 108
12774 12753 19
12774 12744 22
12774 12865 76
12775 12598 124
12775 12756 96
12775 12778 6
12775 12900 101
12776 12665 89
12777 12575 144
12777 12810 80
12777 12981 154
12778 12599 124
12778 12775 6
12778 12806 111
12778 12902 101
12779 12741 36
12779 12732 59
12779 12817 37
12779 12842 76
12780 12626 103
12780 12751 87
12780 13143 273
12781 12630 102
12781 12809 89
12781 12907 102
12782 12697 60
12782 12766 90
12782 12805 99
12782 12859 65
12783 12784 36
12783 12785 69
12783 12649 142
12784 12783 36
12785 12783 69
12786 12673 86
12786 12789 109
12786 12814 53
12787 12714 57
12787 12707 128
12788 12765 85
12788 12733 42
12788 12719 69
12788 12827 67
12788 12848 162
12789 12786 109
12790 12738 41
12790 12760 139
12791 12587 135
12791 12764 79
12791 12938 118
12792 12714 129
12792 12801 23
12792 13022 190
12793 12674 86
12793 12736 91
12793 12944 182
12794 12581 215
12794 12849 74
12794 12956 172
12795 12677 85
12795 12813 37
12795 12816 18
12796 12621 136
12796 12771 88
12796 12825 124
12796 12912 98
12797 12743 43
12797 12826 24
12797 12858 102
12798 12696 81
12798 12710 106
12798 12856 89
12798 12858 62
12799 12741 131
12799 12871 78
12799 12861 207
12800 12660 98
12800 12850 43
12800 12852 106
12801 12792 23
12801 12886 94
12801 12929 239
12802 12803 131
12802 13099 290
12802 13099 880
12803 12802 131
12804 12723 65
12804 12655 170
12804 12847 57
12805 12722 60
12805 12782 99
12805 12828 100
12805 12887 66
12806 12627 123
12806 12778 111
12806 12830 89
12806 12927 101
12807 12755 45
12807 12815 113
12807 12920 100
12808 12727 63
12808 12731 126
12808 12839 23
12809 12657 104
12809 12781 89
12809 12831 80
12809 12932 101
12810 12811 57
12810 12777 80
12810 12985 141
12811 12810 57
12812 12731 63
12812 12874 129
12812 12880 65
12813 12795 37
12813 12698 84
12813 12848 71
12814 12606 160
12814 12573 164
12814 12786 53
12814 12834 18
12815 12602 142
12815 12807 113
12815 12875 141
12816 12740 143
12816 12795 18
12816 12862 44
12817 12779 37
12817 12855 46
12817 12857 58
12818 12819 73
12818 12307 379
12818 12947 135
12819 12818 73
12820 12708 88
12820 12767 85
12820 12864 90
12820 12919 97
12821 12769 108
12822 12734 67
12822 12702 192
12822 12854 62
12823 12824 30
12824 12823 30
12824 12865 115
12824 12891 64
12825 12711 88
12825 12796 124
12825 12843 88
12825 12943 97
12826 12797 24
12826 12589 266
12826 12835 7
12826 13028 203
12827 12788 67
12827 12748 61
12827 12954 112
12828 12742 63
12828 12805 100
12828 12933 87
12829 12740 71
12829 12841 35
12829 12862 150
12830 12661 128
12830 12806 89
12830 12946 107
12831 12686 101
12831 12809 80
12831 12836 17
12831 12957 102
12832 12757 60
12832 12850 48
12832 12955 115
12833 12754 140
12833 12758 68
12833 12879 90
12834 12814 18
12834 12868 163
12835 12826 7
12835 12970 59
12836 12764 54
12836 12831 17
12836 12914 67
12837 12838 160
12838 12837 160
12838 12947 96
12838 13099 345
12839 12808 23
12839 12860 58
12839 12874 40
12840 12759 70
12840 12846 53
12840 13107 219
12841 12656 176
12841 12829 35
12841 12953 142
12841 13010 164
12842 12779 76
12842 12871 51
12842 12894 52
12843 12631 156
12843 12825 88
12843 12853 58
12843 12961 97
12844 12752 70
12844 12746 121
12844 12869 28
12845 12716 102
12845 12873 166
12845 13194 263
12846 12766 64
12846 12840 53
12846 12859 90
12846 13134 217
12847 12804 57
12847 12861 22
12847 12884 63
12848 12813 71
12848 12735 90
12848 12788 162
12848 13027 130
12848 13036 160
12849 12794 74
12849 12851 1
12849 12851 1
12849 13009 163
12850 12832 48
12850 12800 43
12850 12866 42
12850 12955 88
12851 12849 1
12851 12849 1
12851 12906 66
12852 12800 106
12852 12762 69
12852 12901 44
12853 12684 133
12853 12843 58
12853 12976 98
12854 12618 183
12854 12822 62
12854 12880 54
12854 12915 53
12855 12817 46
12855 12894 46
12855 12897 51
12856 12767 86
12856 12798 89
12856 12867 15
12857 12817 58
12857 12769 72
12857 12889 38
12858 12798 62
12858 12797 102
12858 12937 101
12859 12782 65
12859 12846 90
12859 12887 106
12859 13011 113
12860 12839 58
12860 12872 35
12860 12993 107
12861 12847 22
12861 12799 207
12861 12913 65
12862 12829 150
12862 12816 44
12862 12934 58
12862 13037 124
12863 11118 1259
12863 12895 39
12863 13543 484
12864 12770 86
12864 12820 90
12864 12990 111
12864 13022 256
12865 12774 76
12865 12824 115
12865 12896 35
12866 12850 42
12866 12901 74
12866 12916 41
12867 12856 15
12867 12919 70
12867 12937 64
12868 12746 114
12868 12834 163
12868 12870 21
12868 12975 93
12869 12844 28
12869 12890 76
12869 13020 105
12870 12868 21
12870 12986 86
12871 12799 78
12871 12842 51
12871 12908 42
12871 13026 125
12872 12751 101
12872 12860 35
12872 12881 21
12873 12750 101
12873 12845 166
12873 12878 13
12873 13147 192
12874 12839 40
12874 12812 129
12874 12958 65
12875 12815 141
12875 13135 237
12875 12628 190
12876 12877 111
12877 12876 111
12877 12904 79
12878 12756 101
12878 12873 13
12878 12900 97
12878 13149 192
12879 12725 226
12879 12833 90
12879 12899 47
12880 12812 65
12880 12854 54
12880 12958 129
12881 12872 21
12881 12888 24
12881 13043 117
12882 12883 73
12882 12935 38
12882 12936 47
12883 12882 73
12883 12928 88
12884 12723 173
12884 12847 63
12884 12913 26
12885 12886 34
12886 12885 34
12886 12801 94
12886 12960 80
12886 13051 132
12887 12805 66
12887 12859 106
12887 12933 136
12887 13049 116
12888 12881 24
12889 12857 38
12889 12905 14
12890 12771 98
12890 12869 76
12890 12912 87
12890 13039 104
12891 12824 64
12891 12918 23
12891 12936 35
12892 12729 143
12893 12729 141
12893 12898 8
12894 12842 52
12894 12855 46
12894 12959 58
12895 12863 39
12895 12717 148
12895 12977 59
12896 12865 35
12896 12763 211
12896 12939 68
12897 12855 51
12897 12959 52
12898 12893 8
12898 12911 69
12898 12941 32
12899 12879 47
12899 12945 43
12900 12775 101
12900 12878 97
12900 12902 5
12900 13053 110
12901 12866 74
12901 12852 44
12901 12963 42
12902 12778 101
12902 12900 5
12902 12927 109
12902 13055 110
12903 12054 792
12904 12877 79
12904 12930 116
12904 12973 47
12905 12889 14
12905 12953 52
12905 12989 68
12906 12851 66
12906 12980 155
12906 13117 293
12907 12781 102
12907 12932 89
12907 13046 99
12908 12871 42
12908 12948 46
12908 13061 136
12909 12910 34
12909 13070 116
12910 12909 34
12910 12926 47
12911 12768 113
12911 12898 69
12911 12923 10
12912 12796 98
12912 12890 87
12912 12925 65
12912 13052 104
12913 12884 26
12913 12861 65
12913 13673 645
12914 12836 67
12914 12938 80
12914 12962 35
12915 12854 53
12915 12690 380
12915 13114 317
12916 12866 41
12916 12963 84
12916 12974 41
12917 12352 857
12917 13030 914
12917 13200 332
12918 12891 23
12918 12936 31
12918 12942 46
12919 12820 97
12919 12867 70
12919 12990 88
12920 12807 100
12920 12922 197
12920 13101 136
12921 12922 33
12921 12667 198
12922 12921 33
12922 12920 197
12922 13150 175
12923 12911 10
12923 12945 171
12924 12671 212
12924 12725 251
12924 13002 70
12925 12912 65
12925 12943 68
12925 13067 104
12926 12910 47
12926 12987 67
12926 13084 110
12927 12806 101
12927 12902 109
12927 12946 57
12927 13079 108
12928 12883 88
12928 12935 45
12928 12983 36
12929 12801 239
12929 13016 61
12929 13128 311
12930 12931 291
12930 12904 116
12930 12949 13
12931 12930 291
12932 12809 101
12932 12907 89
12932 12957 81
12932 13068 101
12933 12828 87
12933 12887 136
12933 12977 34
12933 13082 113
12934 12862 58
12934 13040 71
12935 12882 38
12935 12928 45
12935 12936 26
12935 12992 41
12936 12918 31
12936 12891 35
12936 12882 47
12936 12935 26
12936 12994 43
12937 12867 64
12937 12858 101
12937 13028 73
12938 12791 118
12938 12914 80
12938 12972 87
12938 13129 136
12939 12940 41
12939 12896 68
12939 12942 69
12940 12939 41
12941 12898 32
12941 12951 6
12941 12969 137
12942 12918 46
12942 12939 69
12942 12979 26
12942 13013 65
12943 12825 97
12943 12925 68
12943 12961 78
12943 13087 103
12944 12793 182
12945 12899 43
12945 12923 171
12945 12984 39
12945 13012 59
12946 12830 107
12946 12927 57
12946 13091 114
12947 12838 96
12947 12818 135
12947 13287 245
12948 12908 46
12948 12999 54
12948 13054 97
12948 13059 284
12949 12930 13
12949 13024 91
12949 13041 80
12950 12675 203
12950 12968 13
12951 12941 6
12951 12988 140
12952 12715 201
12952 12966 59
12952 13042 63
12953 12905 52
12953 12841 142
12953 12982 26
12953 13025 75
12954 12827 112
12954 13142 195
12955 12832 115
12955 12850 88
12955 12974 46
12955 13119 170
12956 12794 172
12956 13042 164
12956 13080 107
12957 12831 102
12957 12932 81
12957 12962 18
12957 13095 101
12958 12874 65
12958 12880 129
12958 12993 60
12959 12894 58
12959 12897 52
12959 12978 16
12959 13026 51
12960 12886 80
12961 12843 97
12961 12943 78
12961 12976 49
12961 13106 103
12962 12914 35
12962 12957 18
12962 13103 101
12963 12916 84
12963 12901 42
12963 12972 67
12963 13031 43
12964 12965 89
12964 12712 125
12965 12964 89
12965 12971 11
12965 12991 22
12966 12952 59
12966 13007 121
12966 13047 75
12967 12968 69
12968 12967 69
12968 12950 13
12968 13019 74
12968 13070 104
12969 12941 137
12969 12988 31
12969 13179 189
12970 12971 56
12970 12835 59
12971 12970 56
12971 12965 11
12971 12991 17
12972 12963 67
12972 12938 87
12972 13159 133
12973 12904 47
12973 12998 83
12973 13060 174
12974 12955 46
12974 12916 41
12974 13031 96
12975 12868 93
12975 12980 24
12975 13074 88
12976 12853 98
12976 12961 49
12976 13115 105
12977 12895 59
12977 12933 34
12977 13077 77
12978 12959 16
12978 13033 52
12978 13045 48
12979 12942 26
12980 12975 24
12980 12906 155
12980 13008 90
12981 12777 154
12981 12985 58
12981 12985 208
12982 12953 26
12982 13018 29
12982 13025 107
12983 12928 36
12984 12945 39
12985 12810 141
12985 12981 58
12985 12981 208
12986 12870 86
12986 13020 115
12986 13117 91
12987 12926 67
12987 13065 186
12987 13111 101
12988 12969 31
12988 12951 140
12989 12905 68
12989 13018 42
12989 13033 31
12990 12864 111
12990 12919 88
12990 13086 115
12990 13211 190
12991 12971 17
12991 12965 22
12991 13400 348
12992 12935 41
12992 12994 11
12992 13035 27
12993 12860 107
12993 12958 60
12993 13043 73
12994 12936 43
12994 12992 11
12994 13013 47
12995 12996 212
12996 12995 212
12996 12997 323
12996 13874 701
12997 12996 323
12997 12466 60
12998 12973 83
12998 13041 67
12998 13098 74
12999 12948 54
12999 13005 10
12999 13088 94
13000 13001 34
13001 13000 34
13002 12924 70
13002 13021 11
13002 13063 262
13003 13004 67
13004 13003 67
13004 13019 34
13004 13171 120
13005 13006 58
13005 12999 10
13005 13156 146
13005 13404 365
13006 13005 58
13007 12966 121
13008 12980 90
13008 13126 84
13009 12849 163
13009 13017 8
13010 12841 164
13010 13037 65
13010 13127 95
13011 12859 113
13011 13049 120
13011 13163 110
13012 12945 59
13013 12942 65
13013 12994 47
13013 13034 23
13014 13015 116
13014 13032 69
13014 13148 181
13015 13014 116
13016 12929 61
13016 13050 59
13017 13009 8
13017 13029 13
13017 13110 70
13018 12989 42
13018 12982 29
13018 13105 71
13019 12968 74
13019 13004 34
13019 13081 64
13020 12869 105
13020 12986 115
13020 13039 83
13020 13136 84
13021 13002 11
13021 13246 209
13021 13258 197
13022 12792 190
13022 12864 256
13023 13024 14
13024 13023 14
13024 12949 91
13024 13118 74
13025 12953 75
13025 12982 107
13025 13127 118
13026 12871 125
13026 12959 51
13026 13045 27
13026 13061 41
13027 12848 130
13027 13036 99
13027 13044 203
13027 13318 197
13028 12937 73
13028 12826 203
13028 13211 151
13029 13017 13
13029 13113 66
13029 13130 484
13029 13145 340
13030 12352 592
13030 12917 914
13030 13092 187
13031 12974 96
13031 12963 43
13031 13119 66
13032 13014 69
13033 12978 52
13033 12989 31
13033 13093 63
13033 13195 169
13034 13013 23
13034 13035 71
13035 13034 71
13035 12992 27
13035 13069 35
13036 12848 160
13036 13027 99
13036 13038 3
13036 13233 129
13037 13010 65
13037 12862 124
13037 13040 43
13038 13036 3
13038 13040 23
13039 12890 104
13039 13020 83
13039 13052 89
13039 13157 82
13040 13037 43
13040 12934 71
13040 13038 23
13041 12949 80
13041 12998 67
13041 13116 60
13042 12956 164
13042 12952 63
13042 13071 37
13043 12881 117
13043 12993 73
13043 13114 57
13044 13027 203
13044 13205 131
13045 13026 27
13045 12978 48
13045 13096 40
13046 12907 99
13046 13068 89
13046 13154 75
13047 12966 75
13047 13048 117
13047 13071 71
13047 13155 78
13048 13047 117
13049 12887 116
13049 13011 120
13049 13082 114
13050 13016 59
13050 13085 61
13050 13243 135
13051 12886 132
13051 13112 98
13051 13198 106
13052 12912 104
13052 13039 89
13052 13067 65
13052 13190 91
13053 12900 110
13053 13055 6
13053 13064 10
13054 12948 97
13054 13088 40
13054 13108 46
13055 12902 110
13055 13053 6
13055 13066 10
13055 13079 106
13056 13057 53
13057 13056 53
13057 13058 51
13057 13062 58
13057 13139 53
13058 13057 51
13059 12948 284
13060 12973 174
13060 13098 171
13060 13161 68
13061 12908 136
13061 13026 41
13061 13096 46
13061 13108 45
13062 13057 58
13063 13002 262
13064 13053 10
13064 13066 6
13064 13310 153
13065 12987 186
13065 13133 47
13066 13055 10
13066 13064 6
13066 13083 70
13066 13314 153
13067 12925 104
13067 13052 65
13067 13087 67
13067 13216 93
13068 12932 101
13068 13046 89
13068 13095 83
13068 13224 96
13069 13035 35
13069 13131 42
13069 13446 356
13070 12909 116
13070 12968 104
13070 13076 8
13071 13042 37
13071 13047 71
13071 13162 65
13072 13073 50
13072 13191 531
13072 13251 117
13073 13072 50
13074 12975 88
13074 13152 41
13075 9215 3587
13076 13070 8
13076 13078 26
13076 13235 98
13077 12977 77
13077 13082 28
13077 13173 70
13078 13076 26
13078 13084 43
13078 13202 77
13079 12927 108
13079 13055 106
13079 13089 6
13079 13091 29
13080 12956 107
13080 13110 121
13080 13182 68
13081 13019 64
13081 13180 66
13081 13235 122
13082 13077 28
13082 12933 113
13082 13049 114
13082 13165 62
13083 13066 70
13083 13094 36
13083 13204 77
13084 12926 110
13084 13078 43
13084 13111 120
13085 13050 61
13085 13183 71
13085 13214 187
13086 12990 115
13086 13100 16
13086 13398 228
13087 12943 103
13087 13067 67
13087 13106 72
13087 13228 85
13088 12999 94
13088 13054 40
13088 13108 87
13089 13079 6
13089 13090 104
13089 13094 3
13089 13097 28
13090 13089 104
13091 12946 114
13091 13079 29
13091 13097 5
13092 13030 187
13093 13033 63
13093 13184 65
13093 13225 101
13094 13089 3
13094 13083 36
13094 13104 27
13095 12957 101
13095 13068 83
13095 13103 19
13095 13249 95
13096 13061 46
13096 13045 40
13096 13195 67
13097 13091 5
13097 13089 28
13097 13102 19
13097 13104 4
13098 12998 74
13098 13060 171
13098 13116 58
13098 13192 63
13099 12802 290
13099 12802 880
13099 12838 345
13100 13086 16
13100 13203 114
13100 13412 230
13101 12920 136
13101 13150 228
13101 13196 67
13102 12666 352
13102 13097 19
13102 13107 11
13102 13347 162
13103 12962 101
13103 13095 19
13103 13129 76
13103 13261 95
13104 13097 4
13104 13094 27
13104 13344 151
13105 13018 71
13106 12961 103
13106 13087 72
13106 13115 34
13106 13144 24
13107 12840 219
13107 13102 11
13107 13109 3
13107 13134 91
13108 13054 46
13108 13061 45
13108 13088 87
13108 13174 63
13109 13107 3
13109 13134 92
13109 13239 87
13110 13017 70
13110 13080 121
13110 13113 4
13110 13206 61
13111 12987 101
13111 13084 120
13111 13133 96
13111 13281 112
13112 13051 98
13113 13029 66
13113 13110 4
13113 13125 111
13113 13209 61
13114 13043 57
13114 12915 317
13114 13151 74
13115 12976 105
13115 13106 34
13115 13170 47
13116 13041 60
13116 13098 58
13116 13215 60
13117 12986 91
13117 12906 293
13117 13130 8
13117 13136 113
13118 13024 74
13118 13177 78
13119 12955 170
13119 13031 66
13119 13172 50
13120 13121 30
13120 13122 23
13120 13270 91
13121 13120 30
13122 13120 23
13123 13124 156
13123 13147 92
13123 13268 86
13124 13123 156
13125 13126 33
13125 13113 111
13125 13153 97
13125 13238 68
13126 13125 33
13126 13008 84
13127 13025 118
13127 13010 95
13127 13280 124
13127 13324 154
13128 12929 311
13128 13185 73
13128 13214 61
13129 12938 136
13129 13103 76
13129 13159 87
13129 13285 96
13130 13117 8
13130 13029 484
13130 13145 10
13130 13160 112
13131 13069 42
13131 13132 46
13131 13236 66
13132 13131 46
13133 13065 47
13133 13111 96
13133 13146 65
13133 13266 92
13134 12846 217
13134 13107 91
13134 13109 92
13134 13163 89
13134 13163 89
13134 13274 84
13135 12612 369
13135 12875 237
13135 13292 93
13136 13020 84
13136 13117 113
13136 13157 85
13136 13160 16
13137 13138 265
13138 13137 265
13139 13057 53
13139 13161 83
13139 13467 259
13140 13141 202
13140 13248 66
13141 13140 202
13142 12954 195
13142 13205 67
13142 13307 131
13143 12780 273
13143 13151 12
13143 13154 32
13144 13106 24
13145 13130 10
13145 13029 340
13145 13166 112
13145 13316 109
13146 13133 65
13146 13155 67
13146 13306 113
13147 12873 192
13147 13123 92
13147 13149 12
13148 13014 181
13148 13179 78
13148 13282 462
13149 12878 192
13149 13147 12
13149 13164 73
13150 12922 175
13150 13101 228
13150 13188 26
13151 13143 12
13151 13114 74
13151 13185 29
13152 13153 24
13152 13074 41
13153 13152 24
13153 13125 97
13153 13245 70
13154 13046 75
13154 13143 32
13154 13181 25
13155 13047 78
13155 13146 67
13155 13158 22
13156 13005 146
13156 13384 237
13156 13404 275
13157 13039 82
13157 13136 85
13157 13175 18
13157 13190 86
13158 13155 22
13158 13162 47
13158 13306 184
13159 12972 133
13159 13129 87
13159 13172 81
13159 13312 97
13160 13136 16
13160 13130 112
13160 13166 11
13160 13175 87
13161 13060 68
13161 13139 83
13161 13561 277
13162 13071 65
13162 13158 47
13162 13169 66
13162 13269 94
13163 13011 110
13163 13134 89
13163 13134 89
13163 13264 210
13163 13264 210
13163 13387 134
13164 13149 73
13165 13082 62
13166 13160 11
13166 13145 112
13166 13201 88
13166 13346 101
13167 13168 143
13168 13167 143
13168 13171 66
13168 13263 48
13169 13162 66
13169 13293 67
13170 13115 47
13170 13194 34
13170 13229 81
13171 13004 120
13171 13168 66
13171 13180 75
13171 13366 110
13172 13119 50
13172 13159 81
13172 13305 97
13173 13077 70
13173 13264 76
13173 13369 116
13174 13108 63
13174 13195 14
13175 13157 18
13175 13160 87
13175 13201 9
13175 13253 220
13176 13177 139
13177 13176 139
13177 13118 78
13177 13255 61
13178 13179 124
13179 13178 124
13179 12969 189
13179 13148 78
13180 13081 66
13180 13171 75
13180 13368 108
13181 13154 25
13181 13224 60
13181 13231 24
13182 13080 68
13182 13206 118
13182 13300 66
13183 13085 71
13183 13277 119
13183 13291 65
13184 13093 65
13184 13212 17
13184 13301 69
13185 13151 29
13185 13128 73
13185 13237 27
13186 13187 1490
13187 13186 1490
13188 13150 26
13188 13189 7
13188 13288 55
13189 13188 7
13189 13326 150
13190 13052 91
13190 13157 86
13190 13216 66
13191 13072 531
13191 13217 20
13191 13221 21
13191 13256 40
13192 13098 63
13192 13193 88
13192 13197 6
13193 13192 88
13194 12845 263
13194 13170 34
13194 13247 36
13195 13174 14
13195 13096 67
13195 13033 169
13196 13101 67
13196 13354 103
13196 13391 120
13197 13192 6
13197 13215 62
13197 13259 34
13198 13051 106
13199 13200 91
13200 13199 91
13200 12917 332
13200 13331 82
13201 13175 9
13201 13166 88
13201 13230 84
13201 13383 107
13202 13078 77
13202 13227 106
13202 13395 118
13203 13100 114
13203 13295 107
13203 13528 257
13204 13083 77
13205 13044 131
13205 13142 67
13205 13318 243
13206 13110 61
13206 13182 118
13206 13209 4
13206 13322 69
13207 13208 13
13208 13207 13
13208 13210 27
13208 13248 132
13208 13328 96
13209 13113 61
13209 13206 4
13209 13238 110
13209 13323 70
13210 13208 27
13211 12990 190
13211 13028 151
13211 13398 148
13212 13184 17
13212 13213 25
13212 13272 41
13213 13212 25
13214 13128 61
13214 13085 187
13214 13254 42
13215 13116 60
13215 13197 62
13215 13223 31
13215 13367 104
13216 13067 93
13216 13190 66
13216 13228 70
13217 13191 20
13217 13218 5
13217 13220 2
13218 13217 5
13218 13219 11
13218 13219 12
13218 13220 4
13219 13218 11
13219 13218 12
13219 13232 20
13219 13232 20
13220 13217 2
13220 13218 4
13220 13221 0
13220 13222 1
13221 13191 21
13221 13220 0
13221 13222 1
13222 13221 1
13222 13220 1
13222 13265 29
13222 13286 42
13223 13215 31
13223 13241 96
13223 13381 94
13224 13068 96
13224 13181 60
13224 13249 87
13225 13093 101
13225 13272 55
13225 13284 45
13226 13227 44
13227 13226 44
13227 13202 106
13227 13298 44
13228 13087 85
13228 13216 70
13228 13229 20
13228 13253 17
13229 13170 81
13229 13228 20
13229 13247 129
13229 13262 20
13230 13201 84
13230 13244 65
13230 13403 112
13231 13181 24
13231 13242 61
13231 13250 29
13232 13219 20
13232 13219 20
13232 13234 4
13232 13240 9
13233 13036 129
13234 13232 4
13235 13076 98
13235 13081 122
13235 13374 99
13235 13388 93
13236 13131 66
13236 13270 110
13236 13340 107
13237 13185 27
13237 13250 28
13237 13708 352
13238 13125 68
13238 13209 110
13238 13245 64
13238 13375 85
13239 13109 87
13239 13313 52
13239 13360 73
13240 13232 9
13241 13223 96
13241 13255 50
13241 13392 93
13242 13231 61
13242 13273 86
13242 13325 65
13243 13050 135
13243 13291 64
13243 13488 181
13244 13230 65
13244 13267 71
13244 13437 127
13245 13153 70
13245 13238 64
13245 13303 46
13246 13021 209
13247 13194 36
13247 13229 129
13247 13268 84
13247 13283 20
13248 13140 66
13248 13208 132
13248 13294 27
13249 13095 95
13249 13224 87
13249 13261 18
13249 13273 12
13250 13231 29
13250 13237 28
13250 13613 270
13251 13072 117
13251 13252 208
13251 13339 74
13252 13251 208
13253 13228 17
13253 13175 220
13253 13262 19
13253 13267 8
13254 13214 42
13254 13371 72
13255 13177 61
13255 13241 50
13255 13263 29
13256 13257 188
13256 13191 40
13256 13279 19
13257 13256 188
13258 13021 197
13258 13327 71
13258 13364 117
13259 13197 34
13259 13260 91
13259 13361 62
13260 13259 91
13261 13103 95
13261 13249 18
13261 13278 12
13261 13285 75
13262 13229 20
13262 13253 19
13262 13275 8
13262 13283 128
13263 13168 48
13263 13255 29
13263 13376 75
13264 13173 76
13264 13163 210
13264 13163 210
13264 13413 179
13264 23836 97
13265 13222 29
13266 13133 92
13266 13281 10
13266 13306 64
13267 13253 8
13267 13244 71
13267 13275 19
13267 13490 150
13268 13123 86
13268 13247 84
13268 13290 99
13269 13162 94
13269 13276 46
13269 13406 165
13270 13120 91
13270 13271 19
13270 13236 110
13271 13270 19
13271 23834 45
13272 13212 41
13272 13225 55
13272 13302 38
13272 13330 45
13273 13249 12
13273 13242 86
13273 13278 18
13273 13432 132
13274 13134 84
13274 13313 101
13274 13315 40
13275 13262 8
13275 13267 19
13275 13296 126
13275 13332 56
13276 13269 46
13276 13293 84
13276 13431 100
13277 13183 119
13277 13371 133
13277 13378 66
13278 13261 12
13278 13273 18
13278 13304 75
13278 13353 49
13279 13256 19
13279 13287 9
13280 13127 124
13280 13289 32
13280 13407 98
13281 13266 10
13281 13111 112
13281 13358 53
13282 13148 462
13283 13247 20
13283 13262 128
13283 13296 9
13283 13334 293
13284 13225 45
13284 13289 4
13284 13330 56
13285 13129 96
13285 13261 75
13285 13304 12
13285 13312 82
13286 13222 42
13287 12947 245
13287 13552 252
13287 13279 9
13288 13188 55
13288 13335 27
13288 13424 87
13289 13284 4
13289 13280 32
13290 13268 99
13290 13310 106
13291 13183 65
13291 13243 64
13291 13378 121
13291 13390 67
13292 13135 93
13292 13333 25
13292 13426 87
13293 13169 67
13293 13276 84
13293 13300 58
13294 13248 27
13294 13328 96
13294 13370 53
13295 13203 107
13295 13436 178
13295 13592 256
13296 13297 106
13296 13283 9
13296 13275 126
13296 13351 60
13297 13296 106
13297 13311 80
13297 13438 101
13298 13227 44
13298 13299 58
13298 13408 70
13299 13298 58
13300 13182 66
13300 13293 58
13300 13322 121
13300 13440 98
13301 13184 69
13302 13272 38
13303 13245 46
13303 13316 135
13303 13394 81
13304 13285 12
13304 13278 75
13304 13345 115
13304 13405 68
13305 13172 97
13305 13317 14
13305 13321 11
13306 13158 184
13306 13146 113
13306 13266 64
13306 13399 62
13307 13142 131
13307 13329 14
13307 13343 17
13308 13309 155
13308 13397 67
13308 13417 240
13309 13308 155
13310 13064 153
13310 13290 106
13310 13314 5
13310 13334 10
13311 13297 80
13311 13320 19
13311 13453 101
13312 13159 97
13312 13285 82
13312 13317 29
13313 13274 101
13313 13239 52
13313 13373 42
13314 13066 153
13314 13310 5
13314 13336 10
13314 13344 112
13315 13274 40
13315 13352 28
13315 13389 49
13316 13145 109
13316 13303 135
13316 13346 120
13316 13434 77
13317 13305 14
13317 13321 8
13317 13312 29
13318 13027 197
13318 13205 243
13318 13562 465
13318 13585 218
13319 12157 1069
13319 13410 71
13320 13311 19
13320 13348 88
13320 13459 101
13321 13305 11
13321 13317 8
13321 13329 10
13321 13338 10
13322 13206 69
13322 13300 121
13322 13323 4
13322 13456 96
13323 13209 70
13323 13322 4
13323 13375 96
13323 13457 96
13324 13127 154
13325 13242 65
13325 13362 38
13325 13432 85
13326 13189 150
13327 13258 71
13327 13365 78
13327 13386 40
13328 13294 96
13328 13208 96
13328 13337 15
13329 13307 14
13329 13321 10
13329 13338 8
13329 13343 7
13330 13272 45
13330 13284 56
13330 13363 44
13330 13407 58
13331 13200 82
13331 13472 105
13332 13275 56
13332 13351 37
13332 13504 138
13333 13292 25
13333 23840 134
13334 13310 10
13334 13283 293
13334 13336 5
13334 13348 9
13335 13288 27
13335 23839 130
13336 13314 10
13336 13334 5
13336 13349 9
13336 13359 113
13337 13328 15
13337 13448 131
13337 13506 128
13338 13329 8
13338 13321 10
13338 13345 11
13338 13350 9
13339 13251 74
13339 13372 59
13339 13425 80
13340 13236 107
13340 13414 52
13340 13446 111
13341 13342 86
13341 13361 96
13341 13445 81
13342 13341 86
13343 13307 17
13343 13329 7
13343 13411 52
13344 13104 151
13344 13314 112
13344 13347 7
13344 13359 9
13345 13338 11
13345 13304 115
13345 13350 15
13346 13166 101
13346 13316 120
13346 13383 89
13346 13454 83
13347 13102 162
13347 13344 7
13347 13359 11
13347 13360 18
13348 13334 9
13348 13320 88
13348 13349 5
13348 13493 101
13349 13336 9
13349 13348 5
13349 13379 111
13349 13743 306
13350 13338 9
13350 13345 15
13350 13385 23
13351 13296 60
13351 13332 37
13351 13514 138
13352 13315 28
13352 13377 21
13353 13278 49
13353 13405 73
13353 13443 97
13354 13196 103
13354 13355 44
13354 13356 1
13354 13357 5
13355 13354 44
13355 23835 101
13356 13354 1
13356 13422 150
13356 13497 125
13357 13354 5
13357 13422 147
13358 13281 53
13359 13347 11
13359 13344 9
13359 13336 113
13359 13379 12
13360 13239 73
13360 13347 18
13360 13373 62
13360 13380 17
13361 13259 62
13361 13341 96
13361 13367 42
13361 13485 90
13362 13325 38
13362 13455 73
13363 13330 44
13364 13258 117
13365 13327 78
13365 13372 6
13365 13507 265
13366 13171 110
13366 13368 77
13366 13376 41
13366 13521 115
13367 13215 104
13367 13361 42
13367 13381 52
13367 13494 101
13368 13180 108
13368 13366 77
13368 13439 54
13369 13173 116
13369 13433 189
13369 13480 86
13370 13294 53
13370 13382 76
13370 13467 76
13371 13254 72
13371 13277 133
13371 13452 68
13372 13365 6
13372 13339 59
13372 13505 131
13373 13313 42
13373 13360 62
13373 13389 68
13374 13235 99
13374 13439 62
13374 13538 132
13375 13238 85
13375 13323 96
13375 13394 64
13375 13491 85
13376 13366 41
13376 13263 75
13376 13415 33
13377 13352 21
13377 13387 9
13377 13393 14
13378 13277 66
13378 13291 121
13378 13416 64
13378 13444 65
13379 13359 12
13379 13349 111
13379 13380 15
13379 13759 311
13380 13360 17
13380 13379 15
13380 13409 183
13380 14080 561
13381 13223 94
13381 13367 52
13381 13392 94
13381 13503 92
13382 13370 76
13383 13201 107
13383 13346 89
13383 13403 86
13383 13479 79
13384 13156 237
13385 13350 23
13385 13411 27
13385 13486 94
13386 13327 40
13387 13163 134
13387 13377 9
13387 13396 8
13388 13235 93
13388 13395 72
13388 13538 116
13389 13315 49
13389 13373 68
13389 13393 54
13390 13291 67
13390 13444 119
13390 13458 65
13391 13196 120
13391 13471 176
13391 13576 147
13392 13241 93
13392 13381 94
13392 13415 94
13392 13515 92
13393 13377 14
13393 13389 54
13393 13396 13
13394 13303 81
13394 13375 64
13394 13434 176
13395 13202 118
13395 13388 72
13395 13408 79
13395 13550 120
13396 13387 8
13396 13393 13
13396 13413 82
13397 13308 67
13398 13086 228
13398 13211 148
13398 13412 12
13398 13435 34
13399 13306 62
13400 12991 348
13400 13502 111
13400 13589 163
13401 13402 19
13401 13877 445
13402 13401 19
13402 23883 326
13402 23884 326
13403 13230 112
13403 13383 86
13403 13437 63
13404 13005 365
13404 13156 275
13404 13484 109
13405 13304 68
13405 13353 73
13405 13478 72
13405 13486 125
13406 13269 165
13406 13431 169
13406 13495 89
13407 13330 58
13407 13280 98
13408 13298 70
13408 13395 79
13408 13419 72
13408 13559 119
13409 13380 183
13409 13423 71
13409 13423 88
13410 13319 71
13410 13448 63
13410 13449 61
13411 13343 52
13411 13385 27
13411 13442 43
13412 13100 230
13412 13398 12
13412 13441 33
13412 13528 134
13413 13264 179
13413 13396 82
13413 13433 121
13414 13340 52
13415 13376 33
13415 13392 94
13415 13520 84
13416 13378 64
13416 13452 81
13416 13498 65
13417 13418 374
13417 13308 240
13417 13684 496
13418 13417 374
13419 13408 72
13419 13567 116
13420 13421 204
13421 13420 204
13422 13357 147
13422 13356 150
13422 13424 7
13422 13427 8
13423 13409 71
13423 13428 38
13423 13409 88
13424 13288 87
13424 13422 7
13424 13460 78
13424 13470 40
13425 13339 80
13425 13505 84
13425 13578 185
13426 13292 87
13426 13450 31
13426 13460 34
13427 13422 8
13427 13499 78
13428 13423 38
13428 13447 131
13428 13698 258
13429 13430 76
13429 13438 67
13429 13541 148
13429 13560 106
13430 13429 76
13431 13276 100
13431 13406 169
13431 13440 133
13431 13513 62
13432 13273 132
13432 13325 85
13432 13443 16
13432 13455 62
13433 13369 189
13433 13413 121
13433 13471 200
13434 13316 77
13434 13394 176
13434 13454 120
13434 13537 80
13435 13398 34
13435 13502 56
13436 13295 178
13436 13488 65
13436 13609 156
13437 13244 127
13437 13403 63
13437 13490 81
13438 13297 101
13438 13429 67
13438 13453 80
13438 13571 103
13439 13374 62
13439 13368 54
13439 13524 66
13440 13300 98
13440 13431 133
13440 13456 127
13440 13526 68
13441 13412 33
13441 13510 56
13442 13411 43
13442 13501 66
13442 13566 115
13443 13353 97
13443 13432 16
13443 13489 66
13443 13522 72
13444 13378 65
13444 13390 119
13444 13527 66
13445 13341 81
13445 13485 102
13445 13581 102
13446 13069 356
13446 13340 111
13446 13531 71
13447 13428 131
13447 13480 222
13447 13508 194
13448 13337 131
13448 13410 63
13448 13506 81
13449 13410 61
13449 13466 24
13449 13519 61
13450 13451 4
13450 13426 31
13450 13460 10
13450 13534 72
13451 13450 4
13452 13371 68
13452 13416 81
13452 13544 68
13453 13311 101
13453 13438 80
13453 13459 17
13453 13586 104
13454 13346 83
13454 13434 120
13454 13479 82
13454 13563 82
13455 13432 62
13455 13362 73
13455 13469 39
13455 13489 18
13456 13322 96
13456 13440 127
13456 13457 4
13456 13547 67
13457 13323 96
13457 13456 4
13457 13491 122
13457 13549 67
13458 13390 65
13458 13487 16
13458 13527 120
13459 13320 101
13459 13453 17
13459 13493 93
13459 13588 104
13460 13450 10
13460 13426 34
13460 13463 2
13460 13424 78
13461 13462 84
13462 13461 84
13462 13468 17
13462 13466 92
13463 13460 2
13463 13470 53
13463 13518 36
13464 13465 99
13464 13578 122
13465 13464 99
13466 13449 24
13466 13462 92
13466 13542 71
13467 13139 259
13467 13370 76
13467 13654 162
13468 13462 17
13468 13472 14
13468 13674 230
13469 13455 39
13469 13489 56
13470 13424 40
13470 13463 53
13470 13516 30
13471 13391 176
13471 13492 42
13471 13433 200
13472 13468 14
13472 13331 105
13472 13477 29
13473 13474 79
13474 13473 79
13475 13476 105
13476 13475 105
13476 13477 12
13476 13511 96
13477 13476 12
13477 13472 29
13477 13512 24
13478 13405 72
13478 13522 64
13478 13557 86
13479 13383 79
13479 13454 82
13479 13579 82
13480 13369 86
13480 13543 48
13480 13447 222
13481 13482 71
13482 13481 71
13482 13755 506
13482 13920 390
13483 13484 160
13484 13483 160
13484 13404 109
13484 13673 165
13485 13361 90
13485 13445 102
13485 13494 65
13485 13595 96
13486 13385 94
13486 13405 125
13486 13517 28
13487 13458 16
13488 13243 181
13488 13436 65
13488 13551 94
13489 13443 66
13489 13455 18
13489 13469 56
13489 13605 103
13490 13267 150
13490 13437 81
13490 13504 34
13491 13375 85
13491 13457 122
13491 13537 212
13491 13548 52
13492 13471 42
13492 13497 90
13492 13626 347
13493 13348 101
13493 13459 93
13493 13606 103
13494 13367 101
13494 13485 65
13494 13503 28
13494 13608 106
13495 13406 89
13495 13496 28
13495 13513 132
13495 13714 223
13496 13495 28
13497 13356 125
13497 13492 90
13497 13499 24
13498 13416 65
13498 13544 96
13498 13568 68
13499 13427 78
13499 13497 24
13499 13500 14
13500 13499 14
13500 23842 54
13500 13553 66
13501 13442 66
13501 13539 58
13501 13615 120
13502 13400 111
13502 13510 10
13502 13589 83
13502 13435 56
13503 13381 92
13503 13494 28
13503 13515 87
13503 13612 94
13504 13332 138
13504 13490 34
13504 13514 14
13504 13635 122
13505 13425 84
13505 13372 131
13505 13577 98
13506 13337 128
13506 13448 81
13506 13555 41
13507 13365 265
13508 13509 30
13508 13590 138
13508 13447 194
13509 13508 30
13509 13540 91
13509 13632 332
13510 13502 10
13510 13589 77
13510 13933 580
13510 13441 56
13511 13476 96
13511 13525 171
13511 13536 23
13511 13558 121
13512 13477 24
13512 13536 102
13512 13619 96
13513 13431 62
13513 13495 132
13513 13526 137
13513 13583 63
13514 13351 138
13514 13504 14
13514 13541 60
13515 13392 92
13515 13503 87
13515 13520 98
13515 13625 95
13516 13470 30
13516 23839 2
13517 13486 28
13517 13557 81
13517 13566 64
13518 13463 36
13518 23840 6
13519 13449 61
13520 13415 84
13520 13515 98
13520 13521 71
13520 13523 7
13521 13366 115
13521 13520 71
13521 13524 75
13522 13478 64
13522 13443 72
13522 13597 70
13523 13520 7
13523 13637 93
13523 13664 164
13524 13439 66
13524 13521 75
13524 13538 80
13524 13666 120
13525 13511 171
13525 13570 52
13526 13440 68
13526 13513 137
13526 13547 125
13526 13602 63
13527 13444 66
13527 13458 120
13527 13568 68
13528 13203 257
13528 13412 134
13528 13592 104
13529 13530 11
13529 13574 35
13529 13794 275
13530 13529 11
13531 13446 71
13532 13533 144
13532 13533 1627
13533 13532 144
13533 13874 1193
13533 13532 1627
13534 13450 72
13534 13535 39
13534 13626 99
13535 13534 39
13535 23845 34
13535 13603 41
13536 13512 102
13536 13511 23
13536 13629 98
13537 13434 80
13537 13491 212
13537 13563 120
13537 13633 83
13538 13388 116
13538 13374 132
13538 13524 80
13538 13550 78
13538 13678 120
13539 13501 58
13539 13580 66
13539 13680 147
13540 13509 91
13540 13546 28
13540 13691 230
13541 13429 148
13541 13514 60
13541 13545 24
13542 13466 71
13543 12863 484
13543 13480 48
13543 13698 131
13544 13452 68
13544 13498 96
13544 13611 57
13545 13541 24
13545 13560 48
13545 13599 53
13546 13540 28
13546 13553 32
13546 13623 79
13547 13456 67
13547 13526 125
13547 13549 3
13547 13620 64
13548 13491 52
13548 13569 19
13548 13638 94
13549 13457 67
13549 13547 3
13549 13569 139
13549 13621 64
13550 13395 120
13550 13538 78
13550 13559 76
13550 13687 116
13551 13488 94
13551 13598 78
13551 13738 167
13552 13287 252
13552 13556 6
13552 13616 67
13553 13546 32
13553 23844 35
13553 13500 66
13554 12668 653
13554 13576 23
13554 13591 38
13555 13506 41
13555 13587 54
13555 13660 107
13556 13552 6
13556 13618 67
13556 13709 148
13557 13517 81
13557 13478 86
13557 13597 83
13558 13511 121
13559 13408 119
13559 13550 76
13559 13567 65
13559 13701 115
13560 13429 106
13560 13545 48
13560 13571 58
13560 13617 48
13561 13161 277
13561 13696 128
13562 13318 465
13563 13454 82
13563 13537 120
13563 13579 81
13563 13657 84
13564 13565 35
13564 13572 14
13564 13639 349
13565 13564 35
13566 13442 115
13566 13517 64
13566 13615 67
13567 13419 116
13567 13559 65
13567 13573 74
13568 13498 68
13568 13527 68
13568 13611 110
13568 13640 73
13569 13548 19
13569 13549 139
13569 13653 80
13570 13525 52
13570 13622 90
13570 13844 423
13571 13438 103
13571 13560 58
13571 13586 80
13571 13628 49
13572 13564 14
13573 13567 74
13574 13529 35
13574 13575 244
13574 13794 230
13575 13574 244
13576 13391 147
13576 13554 23
13576 13590 27
13576 13591 17
13577 13505 98
13577 13627 101
13577 13669 107
13578 13464 122
13578 13425 185
13578 13582 9
13579 13479 82
13579 13563 81
13579 13667 79
13580 13539 66
13580 13585 83
13580 13747 165
13580 13883 345
13581 13445 102
13581 13595 89
13581 13711 99
13582 13578 9
13582 13614 56
13582 13720 121
13583 13513 63
13583 13584 122
13583 13602 135
13583 13665 123
13584 13583 122
13585 13318 218
13585 13580 83
13586 13453 104
13586 13571 80
13586 13588 17
13587 13555 54
13587 13660 79
13587 13707 171
13588 13459 104
13588 13586 17
13588 13606 95
13589 13510 77
13589 13502 83
13589 13400 163
13589 13692 82
13590 13576 27
13590 13591 27
13590 13508 138
13591 13590 27
13591 13576 17
13591 13554 38
13591 13596 9
13591 13691 79
13592 13295 256
13592 13528 104
13592 13730 190
13593 13594 40
13593 23849 7
13594 13593 40
13594 13600 68
13594 13623 22
13595 13485 96
13595 13581 89
13595 13608 73
13596 13591 9
13596 14890 975
13597 13557 83
13597 13522 70
13597 13607 17
13598 13551 78
13598 13640 84
13599 13545 53
13599 13617 62
13599 13647 51
13600 13601 42
13600 13594 68
13600 13624 17
13601 13600 42
13601 23850 2
13602 13526 63
13602 13583 135
13602 13620 124
13602 13644 41
13603 13604 64
13603 13535 41
13603 23847 31
13604 13603 64
13604 13624 78
13604 13632 44
13605 13489 103
13605 13607 101
13605 13610 57
13605 13682 63
13606 13493 103
13606 13588 95
13606 13661 49
13607 13597 17
13607 13605 101
13607 13651 43
13608 13494 106
13608 13595 73
13608 13683 66
13609 13436 156
13609 13662 56
13609 13738 163
13610 13605 57
13610 13613 72
13610 13835 172
13611 13544 57
13611 13568 110
13612 13503 94
13612 13625 88
13612 13704 73
13613 13610 72
13613 13250 270
13613 13815 155
13614 13582 56
13615 13501 120
13615 13566 67
13615 13680 65
13616 13552 67
13616 13618 4
13616 13679 75
13617 13560 48
13617 13599 62
13617 13628 63
13617 13668 49
13618 13556 67
13618 13616 4
13618 13636 27
13618 13675 70
13619 13512 96
13619 13642 61
13620 13547 64
13620 13602 124
13620 13621 3
13620 13763 112
13621 13549 64
13621 13620 3
13621 13634 96
13621 13764 112
13622 13570 90
13623 13594 22
13623 13546 79
13623 13817 144
13624 13604 78
13624 13600 17
13624 13894 229
13625 13515 95
13625 13612 88
13625 13637 93
13625 13731 81
13626 13534 99
13626 13492 347
13626 13641 107
13626 13777 124
13627 13577 101
13628 13571 49
13628 13617 63
13628 13661 188
13628 13685 49
13629 13536 98
13629 13642 41
13629 13650 90
13630 13631 154
13630 13693 198
13630 13703 132
13631 13630 154
13632 13509 332
13632 13604 44
13632 13878 203
13633 13537 83
13633 13638 146
13633 13657 114
13633 13721 69
13634 13621 96
13635 13504 122
13635 13659 60
13635 13729 72
13636 13618 27
13636 13645 24
13637 13523 93
13637 13625 93
13637 13643 13
13638 13633 146
13638 13548 94
13638 13653 74
13638 13719 60
13639 13564 349
13640 13568 73
13640 13598 84
13640 13658 54
13641 12595 819
13641 13626 107
13641 13806 134
13642 13619 61
13642 13629 41
13642 13674 56
13643 13637 13
13643 13664 134
13643 13778 94
13644 13602 41
13644 13754 79
13645 13646 36
13645 13636 24
13645 13652 4
13645 13712 49
13646 13645 36
13647 13599 51
13647 13668 75
13647 13790 105
13648 13649 1076
13649 13648 1076
13650 13629 90
13650 14146 408
13651 13607 43
13651 13702 91
13651 13772 101
13652 13645 4
13652 13710 50
13653 13638 74
13653 13569 80
13653 13655 3
13653 13655 1
13653 13656 1
13654 13467 162
13654 13663 33
13655 13653 3
13655 13653 1
13655 13656 0
13655 13749 66
13656 13655 0
13656 13653 1
13656 13686 125
13656 13750 70
13657 13563 84
13657 13633 114
13657 13667 83
13657 13705 31
13658 13640 54
13658 13708 129
13658 13757 75
13659 13635 60
13659 13775 83
13660 13555 107
13660 13587 79
13660 13681 35
13661 13606 49
13661 13628 188
13661 13742 54
13662 13609 56
13662 13730 51
13662 13774 131
13663 13654 33
13663 13681 48
13663 13723 86
13664 13523 164
13664 13643 134
13664 13666 30
13665 13583 123
13666 13524 120
13666 13664 30
13666 13678 61
13667 13579 79
13667 13657 83
13667 13690 82
13667 13783 82
13668 13617 49
13668 13647 75
13668 13685 60
13668 13788 84
13669 13577 107
13670 13671 250
13671 13670 250
13671 13672 76
13671 13694 34
13672 13671 76
13672 13702 104
13672 13737 89
13673 12913 645
13673 13484 165
13674 13642 56
13674 13468 230
13674 13688 14
13675 13618 70
13676 13677 1481
13677 13676 1481
13678 13538 120
13678 13666 61
13678 13687 80
13678 13751 55
13679 13616 75
13679 13724 44
13680 13539 147
13680 13615 65
13680 13694 30
13680 13747 63
13681 13663 48
13681 13660 35
13681 13707 208
13682 13605 63
13682 13818 156
13682 13859 128
13683 13608 66
13683 13704 21
13683 13715 23
13684 13417 496
13684 13706 51
13684 13766 87
13685 13628 49
13685 13668 60
13685 13713 89
13685 13793 77
13686 13656 125
13687 13550 116
13687 13678 80
13687 13701 78
13688 13674 14
13688 13707 139
13688 13744 89
13689 13690 66
13690 13689 66
13690 13667 82
13690 13729 143
13690 13773 63
13691 13540 230
13691 13591 79
13691 14133 333
13692 13589 82
13692 13717 141
13692 13852 114
13693 13630 198
13694 13680 30
13694 13695 316
13694 13671 34
13695 13694 316
13696 13561 128
13696 13697 41
13696 13711 77
13697 13696 41
13698 13543 131
13698 13428 258
13698 13832 101
13699 13700 10
13700 13699 10
13700 13722 20
13700 13734 41
13701 13559 115
13701 13687 78
13701 13714 74
13701 13748 35
13702 13672 104
13702 13651 91
13702 13864 299
13703 13630 132
13704 13612 73
13704 13683 21
13704 13731 95
13705 13657 31
13705 13721 123
13705 13841 100
13706 13684 51
13707 13587 171
13707 13681 208
13707 13688 139
13708 13237 352
13708 13658 129
13708 13812 77
13709 13556 148
13709 13722 31
13709 13736 58
13710 13652 50
13710 13712 2
13710 13734 24
13711 13581 99
13711 13696 77
13711 13752 35
13712 13710 2
13712 13645 49
13712 13733 31
13712 13733 30
13713 13685 89
13713 13742 104
13713 13796 63
13714 13495 223
13714 13701 74
13714 13753 73
13715 13683 23
13715 13716 63
13715 13808 67
13716 13715 63
13717 13692 141
13717 13718 57
13717 13799 81
13717 13799 81
13718 13717 57
13719 13638 60
13719 13741 14
13720 13582 121
13720 13819 77
13720 13849 148
13721 13705 123
13721 13633 69
13721 13741 117
13721 13858 101
13722 13709 31
13722 13700 20
13723 13663 86
13723 13785 140
13723 13801 94
13724 13679 44
13724 13732 7
13725 13726 25
13726 13725 25
13727 13728 116
13727 13797 263
13727 13820 236
13728 13727 116
13729 13635 72
13729 13690 143
13729 13771 33
13730 13662 51
13730 13592 190
13730 13824 89
13730 13837 128
13731 13625 81
13731 13704 95
13731 13798 48
13732 13724 7
13732 13733 10
13732 13735 8
13732 13784 45
13733 13712 31
13733 13732 10
13733 13712 30
13733 13735 4
13734 13700 41
13734 13710 24
13734 13745 9
13735 13733 4
13735 13732 8
13735 13782 40
13736 13709 58
13737 13672 89
13738 13551 167
13738 13609 163
13738 13802 52
13738 13838 120
13739 13740 13
13739 13746 15
13739 13767 135
13740 13739 13
13741 13721 117
13741 13719 14
13741 13749 73
13741 13831 68
13742 13661 54
13742 13713 104
13742 13743 6
13742 13795 40
13743 13349 306
13743 13742 6
13743 13759 95
13743 13800 40
13744 13688 89
13745 13734 9
13746 13739 15
13746 13781 122
13746 13792 115
13746 13820 73
13747 13580 165
13747 13680 63
13747 14082 360
13748 13701 35
13748 13867 99
13749 13741 73
13749 13655 66
13749 13750 28
13750 13749 28
13750 13656 70
13750 13770 113
13750 13930 163
13751 13678 55
13751 13760 9
13751 13778 233
13752 13711 35
13753 13714 73
13754 13644 79
13754 13763 116
13754 13807 30
13754 13813 152
13755 13482 506
13755 13756 14
13755 13850 63
13756 13755 14
13757 13658 75
13757 13758 40
13757 13789 60
13758 13757 40
13759 13379 311
13759 13743 95
13759 13814 34
13760 13751 9
13760 13868 165
13760 13876 82
13761 13762 31
13761 13765 41
13761 13780 18
13762 13761 31
13763 13620 112
13763 13754 116
13763 13764 3
13763 14023 211
13764 13621 112
13764 13763 3
13764 13770 12
13764 14011 207
13765 13761 41
13765 13776 13
13766 13684 87
13767 13739 135
13768 13769 72
13769 13768 72
13769 13838 64
13769 13865 187
13770 13750 113
13770 13764 12
13771 13729 33
13771 13775 93
13771 13811 23
13772 13651 101
13772 13818 77
13772 13864 81
13773 13690 63
13773 13783 87
13773 13811 151
13774 13662 131
13774 13802 30
13774 13837 53
13775 13659 83
13775 13771 93
13775 13905 142
13776 13765 13
13776 13797 33
13776 13805 55
13777 13626 124
13777 13875 19
13778 13751 233
13778 13643 94
13778 13804 62
13778 13798 91
13779 13780 3
13780 13779 3
13780 13761 18
13780 13805 20
13780 13890 132
13781 13746 122
13782 13735 40
13782 13784 19
13782 13803 68
13783 13773 87
13783 13667 82
13783 13841 98
13783 13841 100
13783 13892 97
13784 13782 19
13784 13732 45
13784 13819 58
13784 13819 63
13785 13723 140
13786 13787 69
13787 13786 69
13788 13668 84
13788 13790 58
13788 13791 28
13789 13757 60
13789 13812 64
13789 13865 62
13790 13788 58
13790 13647 105
13790 13903 131
13791 13788 28
13791 13793 36
13791 13903 104
13792 13746 115
13792 13821 30
13792 13848 53
13793 13685 77
13793 13791 36
13793 13796 90
13794 13529 275
13794 13574 230
13794 14153 489
13795 13742 40
13795 13796 106
13795 13800 8
13795 14019 192
13796 13795 106
13796 13713 63
13796 13793 90
13796 13966 159
13797 13727 263
13797 13776 33
13797 13849 46
13798 13731 48
13798 13808 132
13798 13778 91
13799 13717 81
13799 13717 81
13799 13884 135
13800 13743 40
13800 13795 8
13800 13814 88
13800 14028 194
13801 13723 94
13802 13738 52
13802 13774 30
13802 13888 115
13803 13782 68
13804 13778 62
13804 13845 46
13805 13776 55
13805 13780 20
13805 13809 10
13806 13641 134
13806 13878 98
13807 13754 30
13807 13881 33
13808 13798 132
13808 13715 67
13808 13836 32
13809 13810 9
13809 13805 10
13809 13829 31
13810 13809 9
13811 13771 23
13811 13773 151
13811 13872 54
13812 13708 77
13812 13789 64
13812 14001 174
13813 13754 152
13813 13867 315
13814 13759 34
13814 13800 88
13814 14061 206
13815 13613 155
13815 13835 70
13815 13897 79
13816 13817 82
13816 23849 128
13817 13816 82
13817 13623 144
13817 14224 302
13818 13772 77
13818 13682 156
13818 13913 115
13819 13784 58
13819 13720 77
13819 13784 63
13819 13928 113
13820 13746 73
13820 13826 52
13820 13727 236
13821 13792 30
13822 13823 83
13822 13894 71
13823 13822 83
13823 23850 128
13824 13730 89
13824 13863 41
13824 13906 105
13825 13826 3
13826 13825 3
13826 13820 52
13826 14058 223
13827 13828 6
13828 13827 6
13829 13809 31
13829 13830 23
13829 13842 13
13829 13847 16
13830 13829 23
13831 13741 68
13831 13858 101
13831 13869 40
13832 13698 101
13832 14093 204
13832 14093 218
13833 13834 34
13833 13862 38
13834 13833 34
13834 13836 65
13834 13914 122
13835 13610 172
13835 13815 70
13835 13859 83
13836 13834 65
13836 13808 32
13836 13885 52
13837 13774 53
13837 13730 128
13837 13863 25
13837 13962 202
13838 13769 64
13838 13738 120
13838 13888 51
13838 13932 168
13839 13840 139
13840 13839 139
13841 13783 98
13841 13783 100
13841 13705 100
13841 13856 12
13841 13931 114
13842 13843 7
13842 13829 13
13842 13857 15
13843 13842 7
13844 13570 423
13845 13846 64
13845 13804 46
13845 13893 66
13845 13911 108
13846 13845 64
13846 13876 111
13847 13829 16
13847 13857 14
13848 13792 53
13848 13853 59
13849 13797 46
13849 13720 148
13849 13866 24
13850 13755 63
13850 13851 7
13850 13920 748
13851 13850 7
13852 13692 114
13852 13884 116
13852 14166 233
13853 13848 59
13854 13855 165
13855 13854 165
13856 13841 12
13856 13858 132
13856 13973 115
13857 13842 15
13857 13847 14
13857 13899 58
13858 13856 132
13858 13721 101
13858 13831 101
13858 13947 98
13859 13682 128
13859 13835 83
13859 13922 80
13860 13861 100
13860 13886 23
13861 13860 100
13862 13833 38
13862 13879 74
13863 13837 25
13863 13824 41
13863 14074 235
13864 13772 81
13864 13702 299
13864 13913 73
13865 13789 62
13865 13769 187
13865 14033 142
13866 13849 24
13867 13813 315
13867 13748 99
13867 13868 14
13867 13924 98
13868 13867 14
13868 13760 165
13868 13876 148
13869 13831 40
13869 13927 66
13869 13930 127
13869 13947 139
13870 13871 67
13870 13883 15
13870 13907 62
13871 13870 67
13872 13811 54
13872 13873 72
13872 13905 137
13872 14094 167
13873 13872 72
13873 13892 141
13873 13908 59
13874 13533 1193
13874 12996 701
13874 13875 57
13874 13992 120
13875 13874 57
13875 13777 19
13876 13868 148
13876 13760 82
13876 13846 111
13876 13911 71
13876 13982 104
13877 13401 445
13878 13806 98
13878 13632 203
13878 13993 112
13879 13880 30
13879 13862 74
13879 13900 42
13880 13879 30
13880 13893 32
13881 13882 30
13881 13807 33
13882 13881 30
13882 13889 9
13883 13870 15
13883 13580 345
13883 13907 65
13884 13852 116
13884 13799 135
13884 13912 118
13884 13945 76
13885 13836 52
13885 13904 203
13885 13919 48
13885 13959 115
13886 13887 164
13886 13860 23
13886 13938 98
13887 13886 164
13888 13838 51
13888 13802 115
13889 13882 9
13889 13901 49
13889 13971 80
13889 14023 161
13890 13780 132
13890 13891 18
13890 13899 38
13891 13890 18
13892 13873 141
13892 13783 97
13892 13931 84
13892 13937 63
13893 13845 66
13893 13880 32
13893 13975 108
13894 13624 229
13894 13822 71
13894 14258 244
13895 13896 87
13895 13898 8
13896 13895 87
13897 13815 79
13897 13922 135
13897 13977 72
13898 13895 8
13898 13925 43
13899 13857 58
13899 13890 38
13899 13918 49
13900 13879 42
13900 13914 23
13900 13956 72
13901 13889 49
13901 13902 136
13901 13952 52
13902 13901 136
13902 13942 48
13902 13952 104
13903 13791 104
13903 13790 131
13903 13905 60
13903 13966 120
13904 13885 203
13905 13775 142
13905 13872 137
13905 13903 60
13906 13824 105
13906 13954 74
13907 13870 62
13907 13883 65
13907 13997 75
13908 13873 59
13909 13910 221
13910 13909 221
13911 13876 71
13911 13845 108
13911 13975 68
13911 13982 77
13912 13884 118
13913 13864 73
13913 13818 115
13913 13915 5
13914 13900 23
13914 13834 122
13914 13959 50
13915 13913 5
13915 13972 52
13915 14008 116
13916 13917 70
13916 13921 56
13916 13987 81
13917 13916 70
13918 13899 49
13918 13970 93
13918 13978 61
13919 13885 48
13919 13957 197
13919 13981 50
13920 13482 390
13920 13939 155
13920 13850 748
13921 13916 56
13921 13965 99
13922 13859 80
13922 13897 135
13922 13948 102
13922 14009 74
13923 13924 281
13923 13942 70
13924 13923 281
13924 13867 98
13924 14213 217
13925 13926 309
13925 13898 43
13925 13949 35
13926 13925 309
13927 13869 66
13927 14037 136
13927 14085 100
13928 13819 113
13928 13929 90
13928 13958 27
13929 13928 90
13930 13869 127
13930 13750 163
13930 13946 14
13931 13892 84
13931 13841 114
13931 13973 83
13931 14002 58
13932 13838 168
13932 14007 53
13933 13510 580
13933 13954 28
13933 14078 121
13934 13935 80
13934 13960 108
13934 13974 70
13935 13934 80
13935 13936 104
13935 13990 68
13936 13935 104
13936 14043 187
13937 13892 63
13937 14002 83
13937 14062 96
13938 13886 98
13939 13920 155
13940 13941 260
13940 13953 13
13941 13940 260
13942 13902 48
13942 13923 70
13942 14013 90
13942 14096 107
13943 13944 4
13943 13951 26
13943 13964 304
13944 13943 4
13944 14000 137
13944 14126 113
13945 13884 76
13946 13930 14
13946 14052 67
13947 13858 98
13947 13869 139
13947 13973 126
13947 14037 60
13948 13922 102
13948 13972 70
13948 14118 104
13949 13925 35
13949 13950 3
13949 14015 62
13950 13949 3
13950 13965 81
13951 13943 26
13951 13963 51
13951 13991 26
13952 13901 52
13952 13902 104
13952 14010 44
13953 13940 13
13953 13955 195
13953 13994 69
13953 14142 184
13954 13933 28
13954 13906 74
13955 13953 195
13955 13976 221
13955 14054 132
13956 13900 72
13956 13967 96
13956 14050 92
13957 13919 197
13957 13960 158
13957 14016 157
13958 13928 27
13958 13961 8
13958 13976 13
13959 13914 50
13959 13885 115
13959 13967 11
13960 13957 158
13960 13934 108
13960 14257 187
13961 13958 8
13961 13970 44
13961 14124 95
13962 13837 202
13962 14007 141
13962 14114 199
13963 13951 51
13963 13964 70
13963 14005 30
13964 13963 70
13964 13943 304
13964 13968 1
13965 13921 99
13965 13950 81
13965 14040 82
13966 13796 159
13966 13903 120
13966 14019 105
13967 13956 96
13967 13959 11
13967 13980 64
13967 14071 75
13968 13964 1
13968 13969 36
13968 13983 15
13969 13968 36
13970 13961 44
13970 13918 93
13970 14073 98
13971 13889 80
13971 14010 104
13971 14156 109
13972 13915 52
13972 13948 70
13972 14008 77
13973 13931 83
13973 13856 115
13973 13947 126
13973 14063 59
13974 13934 70
13974 13990 19
13974 14257 187
13975 13911 68
13975 13893 108
13975 14050 63
13975 14079 96
13976 13958 13
13976 13955 221
13976 14119 87
13977 13897 72
13977 14001 27
13977 14009 117
13977 14088 65
13978 13918 61
13978 13979 97
13978 14031 35
13979 13978 97
13980 13967 64
13980 13981 7
13980 14108 75
13981 13980 7
13981 13919 50
13981 14016 89
13982 13876 104
13982 13911 77
13982 14138 88
13983 13968 15
13983 13984 47
13983 14026 31
13984 13983 47
13985 13986 12
13986 13985 12
13986 13995 14
13986 14026 29
13987 13916 81
13987 13988 4
13987 14035 33
13988 13987 4
13988 13989 64
13988 14006 44
13989 13988 64
13990 13974 19
13990 13935 68
13990 14043 42
13991 13951 26
13991 13996 25
13991 14122 75
13992 13874 120
13992 14180 127
13992 14806 613
13993 13878 112
13993 14046 39
13993 14066 47
13994 13953 69
13994 14025 45
13994 14115 96
13995 13986 14
13995 14024 16
13995 14027 27
13996 13991 25
13996 14005 41
13996 14109 61
13997 13907 75
13997 14048 108
13997 14148 439
13998 13999 47
13998 14003 18
13998 14006 59
13998 14036 39
13999 13998 47
14000 13944 137
14000 14056 49
14000 14057 80
14001 13977 27
14001 13812 174
14001 14034 35
14001 14076 43
14002 13937 83
14002 13931 58
14002 14032 17
14003 13998 18
14003 14004 47
14003 14025 24
14004 14003 47
14005 13996 41
14005 13963 30
14005 14072 40
14006 13988 44
14006 13998 59
14006 14036 27
14007 13932 53
14007 13962 141
14007 14030 44
14007 14114 58
14008 13915 116
14008 13972 77
14008 14014 4
14009 13922 74
14009 13977 117
14009 14132 68
14010 13952 44
14010 14013 22
14010 13971 104
14011 14012 93
14011 13764 207
14011 14023 4
14011 14178 100
14012 14011 93
14013 14010 22
14013 13942 90
14013 14116 71
14014 14008 4
14014 14237 151
14014 14245 146
14015 13949 62
14015 14087 50
14015 14103 64
14016 13981 89
14016 13957 157
14016 14060 27
14017 14018 106
14017 14029 8
14017 14059 28
14018 14017 106
14019 13795 192
14019 13966 105
14019 14028 7
14019 14091 39
14020 14021 153
14020 14022 31
14020 14070 37
14021 14020 153
14021 14051 83
14021 14106 86
14022 14020 31
14023 14011 4
14023 13763 211
14023 13889 161
14023 14177 97
14024 13995 16
14024 14027 16
14024 14044 16
14025 13994 45
14025 14003 24
14025 14199 127
14026 13983 31
14026 13986 29
14026 14042 16
14027 14024 16
14027 13995 27
14027 14029 50
14027 14047 17
14028 13800 194
14028 14019 7
14028 14064 81
14028 14477 312
14029 14027 50
14029 14017 8
14029 14049 37
14030 14007 44
14030 14033 11
14030 14130 55
14031 13978 35
14031 14073 47
14031 14189 322
14032 14002 17
14032 14062 116
14032 14063 132
14032 14188 96
14033 13865 142
14033 14030 11
14033 14034 33
14034 14001 35
14034 14033 33
14034 14076 34
14035 13987 33
14036 14006 27
14036 13998 39
14036 14131 92
14037 13947 60
14037 13927 136
14037 14063 125
14037 14129 48
14038 14039 201
14039 14038 201
14040 13965 82
14040 14041 19
14040 14055 29
14041 14040 19
14042 14026 16
14042 14045 6
14042 14084 30
14043 13990 42
14043 13936 187
14043 14081 19
14044 14024 16
14044 14045 20
14044 14047 18
14044 14092 21
14045 14042 6
14045 14044 20
14045 14089 19
14046 13993 39
14046 14181 71
14047 14044 18
14047 14027 17
14047 14049 19
14047 14095 20
14048 13997 108
14048 14161 103
14049 14047 19
14049 14029 37
14049 14098 20
14050 13975 63
14050 13956 92
14050 14143 66
14050 14162 90
14051 14021 83
14051 14106 82
14051 14111 33
14051 14242 147
14052 13946 67
14052 14053 68
14052 14085 86
14052 14219 98
14053 14052 68
14054 13955 132
14054 14068 13
14054 14090 19
14054 14158 98
14055 14040 29
14056 14000 49
14056 14086 84
14056 14127 38
14057 14000 80
14057 14128 44
14058 13826 223
14058 14065 6
14058 14309 1255
14059 14017 28
14059 14067 38
14059 14098 44
14060 14016 27
14060 14101 104
14060 14238 107
14061 13814 206
14061 14064 6
14061 14069 4
14062 13937 96
14062 14032 116
14062 14094 118
14062 14220 93
14063 13973 59
14063 14037 125
14063 14032 132
14063 14165 55
14064 14028 81
14064 14061 6
14064 14069 5
14065 14058 6
14066 13993 47
14066 14363 185
14067 14059 38
14067 14113 22
14067 14147 58
14068 14054 13
14068 14090 11
14068 14121 30
14069 14061 4
14069 14064 5
14069 14080 8
14069 14484 298
14070 14020 37
14070 14120 25
14071 13967 75
14071 14316 152
14072 14005 40
14072 14084 25
14072 14112 31
14073 13970 98
14073 14031 47
14073 14083 6
14074 13863 235
14074 14075 92
14074 14267 141
14075 14074 92
14075 14077 74
14076 14001 43
14076 14034 34
14076 14088 14
14076 14239 97
14077 14078 25
14077 14075 74
14078 14077 25
14078 13933 121
14078 14235 120
14079 13975 96
14079 14138 46
14079 14162 65
14080 13380 561
14080 14069 8
14080 14507 310
14081 14043 19
14081 14191 132
14081 14385 253
14082 13747 360
14082 14152 41
14083 14073 6
14083 14099 13
14083 14139 34
14084 14072 25
14084 14042 30
14084 14089 21
14085 13927 100
14085 14052 86
14085 14129 110
14085 14244 99
14086 14056 84
14086 14127 63
14086 14191 94
14087 14015 50
14087 14100 38
14088 13977 65
14088 14076 14
14088 14132 111
14088 14451 294
14089 14084 21
14089 14045 19
14089 14092 19
14090 14068 11
14090 14054 19
14090 14141 30
14090 14141 61
14091 14019 39
14091 14111 123
14091 14482 282
14092 14089 19
14092 14044 21
14092 14095 20
14093 13832 204
14093 13832 218
14093 14832 544
14094 13872 167
14094 14062 118
14094 14274 110
14095 14092 20
14095 14047 20
14095 14098 18
14096 13942 107
14096 14097 71
14096 14116 102
14096 14266 108
14097 14096 71
14098 14095 18
14098 14049 20
14098 14059 44
14099 14083 13
14099 14194 94
14100 14087 38
14100 14102 7
14100 14110 189
14101 14060 104
14102 14100 7
14102 14125 17
14102 14170 58
14103 14015 64
14103 14107 3
14103 14170 82
14104 14105 371
14105 14104 371
14105 14187 130
14105 14297 152
14106 14051 82
14106 14021 86
14106 14252 94
14107 14103 3
14107 14150 31
14107 23886 31
14108 13980 75
14108 14123 66
14108 14185 54
14109 13996 61
14109 14112 33
14109 14117 14
14110 14100 189
14111 14091 123
14111 14051 33
14111 14276 106
14112 14109 33
14112 14072 31
14112 14367 196
14113 14067 22
14113 14159 34
14113 14163 132
14114 14007 58
14114 13962 199
14114 14130 53
14114 14200 55
14115 13994 96
14115 14241 80
14116 14013 71
14116 14096 102
14116 14156 118
14116 14296 113
14117 14109 14
14117 14122 24
14117 14122 137
14118 13948 104
14118 14245 140
14118 14364 172
14119 13976 87
14119 14136 15
14119 14167 57
14120 14070 25
14120 14135 41
14120 14140 10
14121 14068 30
14121 14142 49
14122 13991 75
14122 14117 24
14122 14126 37
14122 14117 137
14123 14108 66
14124 13961 95
14124 14136 17
14124 14223 74
14125 14102 17
14126 13944 113
14126 14122 37
14126 14128 30
14127 14086 63
14127 14056 38
14127 14175 54
14128 14057 44
14128 14126 30
14128 14134 4
14129 14037 48
14129 14085 110
14129 14165 120
14129 14279 93
14130 14030 55
14130 14114 53
14130 14222 58
14131 14036 92
14131 14268 157
14132 14009 68
14132 14088 111
14132 14326 130
14133 13691 333
14133 14214 55
14133 14224 248
14134 14128 4
14134 14300 115
14134 14320 143
14135 14120 41
14135 14140 18
14135 14246 83
14136 14119 15
14136 14137 1
14136 14124 17
14137 14136 1
14138 13982 88
14138 14079 46
14138 14197 43
14139 14083 34
14140 14135 18
14140 14120 10
14140 14304 110
14141 14090 30
14141 14090 61
14141 14195 40
14142 13953 184
14142 14121 49
14142 14157 12
14143 14050 66
14143 14160 13
14143 14240 89
14144 14145 54
14144 14233 797
14144 14294 111
14145 14144 54
14146 13650 408
14146 14147 36
14147 14067 58
14147 14146 36
14147 14149 6
14148 13997 439
14149 14147 6
14149 14159 27
14149 14399 212
14150 14107 31
14150 23886 31
14150 14151 10
14150 14179 27
14151 14150 10
14152 14082 41
14152 14155 73
14153 13794 489
14153 14154 316
14153 14298 187
14154 14153 316
14155 14152 73
14155 14176 42
14156 13971 109
14156 14116 118
14156 14177 102
14156 14317 109
14157 14142 12
14157 14218 56
14157 14250 62
14158 14054 98
14158 14164 6
14159 14113 34
14159 14149 27
14159 14163 4
14160 14143 13
14160 14397 161
14161 14048 103
14162 14079 65
14162 14050 90
14162 14240 67
14163 14159 4
14163 14113 132
14163 14273 86
14164 14158 6
14164 14167 7
14165 14063 55
14165 14129 120
14165 14188 122
14165 14301 93
14166 13852 233
14166 14174 33
14166 14198 28
14167 14164 7
14167 14119 57
14167 14221 37
14168 14169 68
14169 14168 68
14170 14102 58
14170 14103 82
14170 14201 24
14171 14172 16
14172 14171 16
14173 14174 191
14174 14173 191
14174 14166 33
14174 14209 24
14175 14127 54
14175 14205 17
14176 14155 42
14176 14237 438
14176 14282 78
14176 14410 278
14177 14023 97
14177 14156 102
14177 14178 2
14177 14351 107
14178 14011 100
14178 14177 2
14178 14219 127
14178 14352 107
14179 14150 27
14179 14182 12
14179 14247 56
14180 13992 127
14180 14181 56
14180 14346 168
14181 14180 56
14181 14046 71
14182 14179 12
14183 14184 21
14184 14183 21
14184 14247 51
14185 14108 54
14185 14186 68
14185 14373 118
14186 14185 68
14187 14105 130
14188 14032 96
14188 14165 122
14188 14220 112
14188 14332 93
14189 14190 78
14189 14206 188
14189 14031 322
14190 14189 78
14191 14081 132
14191 14086 94
14191 14234 24
14192 14193 29
14192 14193 60
14192 14288 65
14193 14192 29
14193 14192 60
14193 14246 54
14193 14291 61
14194 14099 94
14194 14217 39
14194 14280 69
14195 14196 24
14195 14141 40
14195 14215 12
14196 14195 24
14197 14138 43
14198 14166 28
14198 14209 8
14198 14413 215
14199 14025 127
14199 14241 94
14200 14114 55
14200 14216 52
14200 14283 67
14201 14170 24
14201 14202 9
14201 14325 134
14202 14201 9
14203 14204 9
14204 14203 9
14204 14232 17
14204 14269 77
14205 14175 17
14205 14272 43
14205 14320 110
14206 14189 188
14207 14208 12
14208 14207 12
14209 14174 24
14209 14198 8
14209 14505 396
14210 14211 12
14210 14217 8
14210 14225 13
14211 14210 12
14211 14212 26
14212 14211 26
14212 14223 15
14213 13924 217
14213 14231 83
14213 14355 94
14214 14133 55
14214 14271 33
14214 14331 263
14215 14195 12
14215 14227 9
14215 14229 41
14216 14200 52
14216 14222 18
14216 14372 123
14217 14210 8
14217 14194 39
14217 14353 95
14218 14157 56
14218 14226 8
14219 14052 98
14219 14178 127
14219 14244 89
14219 14377 108
14220 14062 93
14220 14188 112
14220 14274 140
14220 14374 98
14221 14167 37
14221 14249 36
14222 14130 58
14222 14216 18
14222 14239 46
14223 14124 74
14223 14212 15
14223 14249 31
14224 13817 302
14224 14133 248
14224 14560 258
14225 14210 13
14225 14243 12
14225 14248 36
14226 14218 8
14226 14236 9
14226 14262 38
14227 14215 9
14227 14228 24
14227 14236 4
14228 14227 24
14229 14215 41
14229 14292 40
14229 14311 63
14230 14231 57
14231 14230 57
14231 14213 83
14231 14266 115
14231 14376 100
14232 14204 17
14233 14144 797
14234 14191 24
14234 14272 68
14234 14312 55
14235 14078 120
14235 14455 216
14235 14481 229
14235 14516 268
14236 14226 9
14236 14227 4
14236 14328 66
14237 14014 151
14237 14176 438
14237 14570 462
14238 14060 107
14238 14253 117
14238 14293 36
14239 14076 97
14239 14222 46
14239 14422 158
14240 14162 67
14240 14143 89
14241 14199 94
14241 14115 80
14241 14254 6
14241 14348 72
14242 14051 147
14242 14259 9
14242 14265 11
14243 14225 12
14244 14085 99
14244 14219 89
14244 14279 109
14244 14396 109
14245 14014 146
14245 14118 140
14245 14378 94
14246 14193 54
14246 14135 83
14246 14291 66
14247 14179 56
14247 14184 51
14247 14270 14
14247 14285 47
14248 14225 36
14249 14221 36
14249 14223 31
14249 14260 5
14250 14157 62
14250 14251 33
14250 14368 80
14251 14250 33
14252 14106 94
14252 14255 4
14252 14259 51
14253 14238 117
14254 14241 6
14254 14307 91
14254 14365 72
14255 14252 4
14255 14256 32
14255 14275 13
14256 14255 32
14257 13960 187
14257 13974 187
14257 14385 106
14258 13894 244
14258 14363 187
14258 14564 241
14259 14242 9
14259 14252 51
14259 14265 8
14260 14261 29
14260 14249 5
14260 14284 33
14261 14260 29
14262 14226 38
14263 14264 14
14264 14263 14
14265 14242 11
14265 14259 8
14265 14276 21
14266 14096 108
14266 14231 115
14266 14296 115
14266 14395 97
14267 14074 141
14267 14283 16
14268 14131 157
14268 14354 72
14269 14204 77
14269 14290 106
14269 14321 78
14270 14247 14
14271 14214 33
14271 14498 180
14271 14855 449
14272 14234 68
14272 14205 43
14272 14315 73
14272 14319 37
14273 14163 86
14273 14318 50
14273 14344 80
14274 14094 110
14274 14220 140
14274 14391 88
14274 14406 99
14275 14255 13
14275 14288 41
14275 14314 35
14276 14111 106
14276 14265 21
14276 14335 43
14277 14278 3
14278 14277 3
14279 14129 93
14279 14244 109
14279 14301 122
14279 14424 110
14280 14194 69
14280 14281 31
14280 14287 26
14280 14289 243
14281 14280 31
14281 14309 53
14282 14176 78
14283 14200 67
14283 14267 16
14283 14372 60
14284 14260 33
14284 14311 39
14284 14403 85
14285 14247 47
14285 14286 8
14285 14330 36
14286 14285 8
14287 14280 26
14287 14433 128
14288 14275 41
14288 14192 65
14288 14295 11
14289 14280 243
14290 14269 106
14291 14193 61
14291 14246 66
14291 14295 19
14292 14229 40
14293 14238 36
14293 14310 32
14294 14144 111
14295 14288 11
14295 14291 19
14295 14411 87
14296 14116 113
14296 14266 115
14296 14317 112
14296 14428 96
14297 14105 152
14297 14299 110
14297 14321 97
14298 14153 187
14298 14342 302
14298 14569 227
14299 14297 110
14300 14134 115
14300 14302 39
14300 14367 54
14301 14165 93
14301 14279 122
14301 14332 122
14301 14446 112
14302 14303 18
14302 14300 39
14302 14429 98
14303 14302 18
14303 14327 32
14304 14140 110
14304 14411 166
14304 14459 142
14305 14306 13
14306 14305 13
14306 14308 81
14306 14313 55
14307 14254 91
14308 14306 81
14309 14281 53
14309 14058 1255
14310 14293 32
14310 14350 24
14311 14229 63
14311 14284 39
14311 14358 31
14311 14402 66
14312 14234 55
14312 14319 59
14312 14467 141
14313 14306 55
14314 14275 35
14314 14324 45
14314 14347 84
14315 14272 73
14316 14071 152
14317 14156 109
14317 14296 112
14317 14351 106
14317 14445 98
14318 14273 50
14318 14344 21
14318 14366 35
14319 14312 59
14319 14272 37
14319 14356 19
14320 14205 110
14320 14134 143
14320 14338 11
14321 14297 97
14321 14269 78
14321 14558 916
14322 14323 82
14323 14322 82
14323 14329 54
14323 14339 68
14324 14314 45
14324 14335 26
14324 14347 13
14325 14201 134
14325 14330 48
14325 14342 47
14326 14132 130
14326 14364 76
14326 14453 101
14327 14303 32
14327 14338 10
14327 14425 82
14328 14236 66
14328 14336 2
14328 14345 53
14329 14323 54
14329 14334 6
14329 14359 19
14330 14325 48
14330 14285 36
14330 14354 34
14331 14214 263
14332 14188 93
14332 14301 122
14332 14374 109
14332 14471 114
14333 14334 109
14334 14333 109
14334 14329 6
14334 14355 65
14335 14276 43
14335 14324 26
14335 14417 59
14336 14328 2
14336 14337 46
14336 14362 13
14337 14336 46
14338 14320 11
14338 14327 10
14338 14343 19
14339 14323 68
14339 14407 100
14339 14416 70
14340 14341 192
14340 14651 702
14340 15049 704
14341 14340 192
14342 14298 302
14342 14325 47
14342 14523 252
14343 14338 19
14343 14356 91
14343 14423 82
14344 14318 21
14344 14273 80
14344 14384 37
14345 14328 53
14345 14362 60
14345 14368 32
14346 14180 168
14346 14441 122
14346 14444 276
14347 14324 13
14347 14314 84
14348 14241 72
14348 14349 28
14348 14365 8
14348 14369 17
14349 14348 28
14350 14310 24
14351 14177 107
14351 14317 106
14351 14352 1
14351 14457 97
14352 14178 107
14352 14351 1
14352 14357 6
14352 14458 97
14353 14217 95
14353 14394 38
14353 14401 63
14354 14330 34
14354 14268 72
14354 14437 108
14355 14213 94
14355 14334 65
14355 14376 94
14355 14393 72
14356 14319 19
14356 14343 91
14356 14426 84
14357 14352 6
14357 14377 117
14358 14311 31
14358 14360 8
14358 14408 49
14359 14329 19
14359 14393 40
14359 14416 77
14360 14361 12
14360 14358 8
14360 14362 47
14361 14360 12
14362 14336 13
14362 14360 47
14362 14345 60
14363 14066 185
14363 14258 187
14363 14602 222
14364 14118 172
14364 14326 76
14365 14254 72
14365 14348 8
14365 14369 8
14365 14370 10
14366 14318 35
14366 14392 37
14366 14435 80
14367 14300 54
14367 14112 196
14367 14412 46
14368 14250 80
14368 14345 32
14368 14379 18
14369 14365 8
14369 14348 17
14369 14370 1
14369 14371 1
14370 14365 10
14370 14369 1
14370 14371 0
14370 14375 11
14371 14370 0
14371 14369 1
14371 14375 9
14371 14386 42
14372 14216 123
14372 14283 60
14372 14422 73
14373 14185 118
14373 14397 139
14373 14420 45
14374 14220 98
14374 14332 109
14374 14391 139
14374 14493 108
14375 14370 11
14375 14371 9
14375 14381 14
14375 14381 14
14376 14231 100
14376 14355 94
14376 14395 116
14376 14483 94
14377 14219 108
14377 14357 117
14377 14396 86
14377 14490 100
14378 14245 94
14378 14380 6
14378 14389 15
14379 14368 18
14379 14386 25
14379 14390 13
14379 14604 228
14380 14378 6
14380 14389 9
14380 14389 9
14380 14452 110
14381 14375 14
14381 14375 14
14381 14387 8
14381 14387 8
14382 14383 60
14383 14382 60
14384 14344 37
14385 14257 106
14385 14081 253
14385 14647 306
14386 14371 42
14386 14379 25
14386 14388 14
14386 14398 9
14387 14381 8
14387 14381 8
14387 14388 3
14387 14388 3
14388 14387 3
14388 14386 14
14388 14387 3
14388 14398 20
14389 14378 15
14389 14380 9
14389 14380 9
14390 14379 13
14390 14398 15
14390 14497 96
14391 14274 88
14391 14374 139
14391 14406 39
14391 14518 112
14392 14366 37
14392 14419 37
14392 14456 76
14393 14355 72
14393 14359 40
14393 14578 168
14394 14353 38
14395 14266 97
14395 14376 116
14395 14414 60
14395 14511 97
14396 14244 109
14396 14377 86
14396 14424 114
14396 14508 95
14397 14160 161
14397 14373 139
14397 14405 36
14398 14388 20
14398 14386 9
14398 14390 15
14398 14449 237
14399 14149 212
14399 14400 40
14399 14496 102
14400 14399 40
14401 14353 63
14401 14403 65
14401 14442 48
14402 14311 66
14402 14475 82
14403 14284 85
14403 14401 65
14403 14464 65
14404 14405 42
14405 14404 42
14405 14397 36
14405 14407 5
14406 14274 99
14406 14391 39
14406 14553 123
14407 14339 100
14407 14405 5
14408 14358 49
14409 14410 188
14410 14409 188
14410 14176 278
14410 14625 252
14411 14295 87
14411 14304 166
14411 14418 16
14412 14367 46
14412 14432 17
14413 14198 215
14414 14415 36
14414 14395 60
14414 14428 58
14414 14515 95
14415 14414 36
14416 14359 77
14416 14339 70
14416 14421 8
14417 14335 59
14417 14418 96
14417 14466 53
14418 14411 16
14418 14417 96
14418 14495 80
14419 14392 37
14419 14432 67
14419 14502 105
14420 14373 45
14420 14438 112
14420 14460 48
14421 14416 8
14421 14430 34
14421 14474 52
14422 14239 158
14422 14372 73
14422 14443 32
14423 14343 82
14423 14425 22
14423 14436 71
14423 14476 49
14424 14279 110
14424 14396 114
14424 14446 124
14424 14530 95
14425 14423 22
14425 14327 82
14425 14429 32
14425 14590 152
14426 14356 84
14426 14427 50
14426 14436 19
14427 14426 50
14428 14296 96
14428 14414 58
14428 14445 109
14428 14534 96
14429 14302 98
14429 14425 32
14429 14529 96
14430 14421 34
14430 14431 56
14430 14547 102
14431 14430 56
14431 14526 101
14432 14412 17
14432 14419 67
14432 14440 14
14433 14287 128
14433 14434 7
14433 14439 14
14433 14479 65
14434 14433 7
14435 14366 80
14436 14426 19
14436 14423 71
14436 14465 32
14437 14354 108
14437 14449 69
14437 23853 69
14437 14491 132
14438 14420 112
14438 14447 15
14439 14433 14
14439 14448 17
14439 14448 27
14440 14432 14
14440 14506 80
14440 14527 80
14441 14346 122
14441 14509 103
14441 14589 121
14442 14401 48
14442 14469 45
14443 14422 32
14443 14480 27
14444 14346 276
14445 14317 98
14445 14428 109
14445 14457 108
14445 14563 94
14446 14301 112
14446 14424 124
14446 14471 119
14446 14567 92
14447 14438 15
14447 14603 130
14447 14746 255
14448 14439 17
14448 14439 27
14448 14504 49
14448 14522 81
14449 14450 256
14449 14437 69
14449 23853 69
14449 14398 237
14450 14449 256
14451 14088 294
14451 14486 26
14452 14380 110
14452 14454 121
14452 14487 49
14453 14326 101
14453 14454 106
14453 14461 9
14454 14453 106
14454 14452 121
14455 14235 216
14455 14704 100
14456 14392 76
14456 14496 36
14456 14502 88
14457 14351 97
14457 14445 108
14457 14458 1
14457 14585 98
14458 14352 97
14458 14457 1
14458 14490 119
14458 14586 98
14459 14304 142
14459 14489 24
14459 14495 40
14460 14420 48
14460 14468 42
14460 14499 29
14461 14453 9
14461 14736 315
14462 14463 17
14462 14469 58
14462 14478 60
14463 14462 17
14464 14403 65
14464 14475 7
14465 14436 32
14465 14467 79
14465 14470 3
14466 14417 53
14466 14495 130
14466 14513 76
14467 14312 141
14467 14465 79
14467 14539 106
14468 14460 42
14469 14442 45
14469 14462 58
14470 14465 3
14470 14476 54
14470 14539 56
14471 14332 114
14471 14446 119
14471 14493 110
14471 14591 95
14472 14473 107
14472 14643 203
14473 14472 107
14473 14475 36
14474 14421 52
14474 14565 68
14475 14402 82
14475 14464 7
14475 14473 36
14475 14478 7
14476 14423 49
14476 14470 54
14476 14572 77
14477 14028 312
14478 14475 7
14478 14462 60
14478 14512 33
14479 14433 65
14480 14481 25
14480 14443 27
14481 14480 25
14481 14235 229
14481 14485 8
14481 14660 167
14482 14091 282
14482 14484 73
14482 14503 15
14482 14513 29
14483 14376 94
14483 14494 55
14483 14601 96
14484 14069 298
14484 14482 73
14485 14486 25
14485 14481 8
14485 14599 103
14486 14485 25
14486 14451 26
14487 14488 99
14487 14452 49
14487 14570 182
14488 14487 99
14489 14459 24
14490 14377 100
14490 14458 119
14490 14508 84
14490 14610 98
14491 14492 48
14491 14437 132
14491 14582 74
14492 14491 48
14493 14374 108
14493 14471 110
14493 14518 137
14493 14609 96
14494 14483 55
14494 14511 63
14494 14612 98
14495 14418 80
14495 14459 40
14495 14466 130
14496 14456 36
14496 14399 102
14496 14556 70
14497 14390 96
14497 14536 78
14497 14580 105
14498 14271 180
14498 14560 206
14498 14597 86
14499 14460 29
14499 14526 156
14499 14533 28
14500 14501 133
14501 14500 133
14502 14419 105
14502 14456 88
14502 14506 6
14503 14482 15
14503 14513 14
14503 14517 55
14503 14525 23
14504 14448 49
14504 14510 6
14504 14522 41
14505 14209 396
14505 14514 23
14505 14524 21
14506 14440 80
14506 14502 6
14506 14562 46
14507 14080 310
14507 14517 30
14507 14571 48
14508 14396 95
14508 14490 84
14508 14530 116
14508 14624 100
14509 14441 103
14509 14584 71
14510 14504 6
14510 14561 115
14511 14395 97
14511 14494 63
14511 14515 57
14511 14623 98
14512 14478 33
14513 14503 14
14513 14482 29
14513 14466 76
14513 14598 75
14514 14505 23
14514 14521 16
14514 14524 16
14515 14414 95
14515 14511 57
14515 14534 58
14515 14633 100
14516 14235 268
14517 14507 30
14517 14503 55
14517 14519 18
14517 14571 47
14518 14391 112
14518 14493 137
14518 14553 92
14518 14635 98
14519 14517 18
14519 14525 44
14519 14664 163
14520 14521 243
14521 14520 243
14521 14514 16
14521 14542 14
14521 14606 164
14522 14448 81
14522 14504 41
14522 14576 36
14523 14342 252
14523 14540 12
14523 14544 17
14524 14514 16
14524 14505 21
14524 14554 21
14524 14638 288
14525 14519 44
14525 14503 23
14525 14621 74
14526 14431 101
14526 14499 156
14526 14547 54
14526 14656 103
14527 14528 48
14527 14440 80
14527 14557 17
14528 14527 48
14528 14529 32
14528 14557 58
14529 14429 96
14529 14528 32
14529 14596 62
14530 14424 95
14530 14508 116
14530 14567 123
14530 14658 102
14531 14532 37
14532 14531 37
14532 14545 94
14532 14611 64
14533 14499 28
14533 14549 52
14533 14573 29
14534 14428 96
14534 14515 58
14534 14563 113
14534 14653 98
14535 14536 74
14536 14535 74
14536 14497 78
14536 14546 11
14537 14538 78
14538 14537 78
14539 14470 56
14539 14467 106
14539 14552 7
14540 14523 12
14540 14541 5
14540 14548 19
14540 14555 10
14541 14540 5
14542 14521 14
14542 14543 21
14542 14554 22
14543 14542 21
14543 14615 142
14544 14523 17
14544 14569 41
14544 14579 33
14545 14532 94
14546 14536 11
14546 14566 37
14546 14595 195
14547 14430 102
14547 14526 54
14547 14565 58
14547 14663 99
14548 14540 19
14549 14533 52
14550 14551 131
14551 14550 131
14552 14539 7
14552 14572 43
14552 14880 359
14553 14406 123
14553 14518 92
14553 14577 118
14553 14666 99
14554 14542 22
14554 14524 21
14554 14638 291
14555 14540 10
14556 14496 70
14556 14562 29
14556 14592 72
14557 14528 58
14557 14527 17
14557 14581 22
14558 14559 29
14558 14568 698
14558 14321 916
14559 14558 29
14559 14759 262
14559 14802 198
14560 14224 258
14560 14498 206
14560 14655 84
14561 14510 115
14562 14506 46
14562 14556 29
14562 14574 10
14563 14445 94
14563 14534 113
14563 14585 110
14563 14678 101
14564 14258 241
14564 14602 149
14564 14659 86
14565 14474 68
14565 14547 58
14565 14578 64
14565 14676 98
14566 14546 37
14567 14446 92
14567 14530 123
14567 14591 118
14567 14685 100
14568 14558 698
14568 14625 59
14569 14298 227
14569 14544 41
14569 14626 58
14570 14237 462
14570 14487 182
14570 15043 757
14571 14507 48
14571 14517 47
14571 14654 107
14572 14552 43
14572 14476 77
14572 14590 35
14573 14533 29
14573 14593 17
14573 14594 99
14574 14575 48
14574 14562 10
14574 14630 61
14575 14574 48
14575 14581 47
14575 14652 89
14576 14522 36
14576 14587 20
14576 14762 166
14577 14553 118
14577 14588 75
14577 14702 99
14578 14393 168
14578 14565 64
14578 14601 131
14578 14695 102
14579 14544 33
14580 14497 105
14580 14583 29
14580 14639 78
14581 14557 22
14581 14575 47
14581 14596 95
14581 14672 110
14582 14491 74
14582 14605 25
14582 14645 72
14583 14580 29
14583 14604 31
14584 14509 71
14584 14589 114
14584 14636 47
14585 14457 98
14585 14563 110
14585 14586 1
14585 14723 97
14586 14458 98
14586 14585 1
14586 14610 118
14586 14724 97
14587 14576 20
14588 14577 75
14588 14598 65
14588 14738 102
14589 14584 114
14589 14441 121
14589 14686 81
14590 14572 35
14590 14425 152
14590 14596 48
14590 14657 126
14591 14471 95
14591 14567 118
14591 14609 114
14591 14722 94
14592 14556 72
14592 14618 105
14592 14630 77
14593 14573 17
14593 14608 100
14593 14622 27
14594 14573 99
14595 14546 195
14595 14677 79
14596 14529 62
14596 14581 95
14596 14590 48
14597 14498 86
14597 14655 209
14597 14708 80
14598 14588 65
14598 14513 75
14598 14621 22
14599 14600 179
14599 14485 103
14599 14629 29
14600 14599 179
14600 14770 409
14601 14483 96
14601 14578 131
14601 14612 55
14601 14743 96
14602 14363 222
14602 14564 149
14602 14711 82
14603 14447 130
14603 14607 65
14603 14634 31
14604 14583 31
14604 14379 228
14604 14639 34
14605 14582 25
14606 14521 164
14606 14615 8
14606 14660 109
14607 14603 65
14608 14593 100
14609 14493 96
14609 14591 114
14609 14635 134
14609 14751 96
14610 14490 98
14610 14586 118
14610 14624 86
14610 14753 96
14611 14532 64
14612 14494 98
14612 14601 55
14612 14623 63
14612 14760 97
14613 14614 143
14613 14638 248
14614 14613 143
14614 14670 52
14614 14680 129
14615 14606 8
14615 14543 142
14615 14628 29
14615 14755 95
14616 14617 1215
14617 14616 1215
14617 14662 292
14617 14793 1921
14618 14592 105
14619 14620 190
14620 14619 190
14621 14525 74
14621 14598 22
14621 14750 86
14622 14593 27
14622 14627 9
14622 14644 118
14623 14511 98
14623 14612 63
14623 14633 56
14623 14773 98
14624 14508 100
14624 14610 86
14624 14658 115
14624 14772 96
14625 14568 59
14625 14410 252
14625 14697 95
14626 14569 58
14626 14632 12
14626 14800 128
14627 14622 9
14627 14631 59
14627 14640 13
14628 14615 29
14628 14641 14
14628 14669 79
14629 14599 29
14629 14665 32
14629 14683 39
14630 14574 61
14630 14592 77
14630 14652 24
14631 14627 59
14631 14684 50
14631 14794 155
14632 14626 12
14633 14515 100
14633 14623 56
14633 14653 58
14633 14791 97
14634 14603 31
14634 14637 72
14634 14673 29
14635 14518 98
14635 14609 134
14635 14666 108
14635 14790 96
14636 14584 47
14636 14667 23
14636 14690 42
14637 14634 72
14638 14524 288
14638 14613 248
14638 14554 291
14639 14580 78
14639 14604 34
14639 14649 5
14640 14627 13
14640 14684 80
14640 14970 230
14641 14628 14
14642 14643 62
14643 14642 62
14643 14472 203
14643 14675 22
14644 14622 118
14644 14656 28
14644 14795 91
14645 14582 72
14645 14648 276
14645 14769 93
14646 14647 8
14647 14646 8
14647 14385 306
14647 14650 10
14648 14645 276
14649 14639 5
14649 14675 93
14649 14737 71
14650 14647 10
14650 14687 142
14650 14754 132
14651 14340 702
14651 14662 143
14651 14752 93
14651 15034 608
14652 14575 89
14652 14630 24
14652 14674 48
14653 14534 98
14653 14633 58
14653 14678 114
14653 14803 98
14654 14571 107
14654 14664 17
14654 14928 256
14655 14560 84
14655 14597 209
14655 14786 83
14656 14526 103
14656 14644 28
14656 14663 61
14656 14834 118
14657 14590 126
14657 14780 162
14657 14887 241
14658 14530 102
14658 14624 115
14658 14685 126
14658 14804 94
14659 14564 86
14659 14711 134
14659 14792 82
14660 14481 167
14660 14606 109
14660 14665 12
14660 14669 9
14661 14662 153
14662 14661 153
14662 14651 143
14662 14617 292
14663 14547 99
14663 14656 61
14663 14844 119
14664 14654 17
14664 14519 163
14664 14668 5
14664 14668 5
14665 14629 32
14665 14660 12
14665 14682 9
14665 14683 21
14666 14553 99
14666 14635 108
14666 14702 109
14666 14826 100
14667 14636 23
14667 14694 17
14667 14698 32
14668 14664 5
14668 14664 5
14668 14810 121
14669 14660 9
14669 14628 79
14669 14682 11
14669 14755 147
14670 14671 24
14670 14614 52
14670 14739 80
14671 14670 24
14671 15127 284
14672 14581 110
14672 14674 3
14673 14634 29
14673 14679 82
14673 14714 19
14674 14672 3
14674 14652 48
14674 14780 112
14675 14649 93
14675 14643 22
14675 14737 30
14676 14565 98
14677 14595 79
14677 14729 28
14677 14763 73
14678 14563 101
14678 14653 114
14678 14723 114
14678 14830 96
14679 14673 82
14680 14614 129
14680 14681 88
14680 14715 114
14681 14680 88
14682 14665 9
14682 14669 11
14682 14717 72
14682 14774 95
14683 14629 39
14683 14665 21
14683 14703 29
14684 14640 80
14684 14631 50
14684 14910 159
14685 14567 100
14685 14658 126
14685 14696 62
14685 14831 97
14686 14589 81
14686 14690 85
14686 14721 34
14687 14650 142
14687 14745 57
14687 14754 35
14688 14689 45
14689 14688 45
14690 14636 42
14690 14686 85
14690 14694 12
14690 14706 11
14691 14692 1031
14692 14691 1031
14692 14693 593
14692 14869 180
14692 15365 633
14693 14692 593
14694 14667 17
14694 14690 12
14694 14698 30
14694 14713 10
14695 14578 102
14695 14743 136
14695 14833 98
14696 14685 62
14696 14722 54
14696 14845 100
14697 14625 95
14697 14815 91
14697 15043 484
14698 14667 32
14698 14694 30
14698 14720 38
14699 14700 6
14699 14712 8
14699 14729 18
14700 14699 6
14700 14701 2
14700 14705 67
14701 14700 2
14702 14577 99
14702 14666 109
14702 14738 70
14702 14843 96
14703 14683 29
14703 14704 178
14703 14717 20
14704 14703 178
14704 14455 100
14705 14700 67
14706 14690 11
14706 14707 23
14706 14713 13
14706 14742 21
14707 14706 23
14707 14721 84
14707 14742 20
14708 14597 80
14708 14749 112
14708 14816 75
14709 14710 109
14709 14757 37
14710 14709 109
14710 14717 64
14710 14836 90
14711 14602 82
14711 14659 134
14711 14821 83
14712 14699 8
14713 14694 10
14713 14706 13
14713 14727 44
14713 14913 173
14714 14673 19
14714 14728 82
14714 14756 26
14715 14680 114
14715 14716 104
14715 14718 24
14716 14715 104
14717 14710 64
14717 14703 20
14717 14682 72
14717 14808 70
14718 14715 24
14718 14719 109
14718 14725 24
14719 14718 109
14720 14698 38
14720 14727 32
14720 14731 121
14721 14707 84
14721 14686 34
14721 14741 20
14722 14591 94
14722 14696 54
14722 14740 36
14723 14585 97
14723 14678 114
14723 14724 0
14723 14789 44
14724 14586 97
14724 14723 0
14724 14753 117
14724 14789 44
14725 14718 24
14725 14726 111
14725 14730 23
14726 14725 111
14727 14713 44
14727 14720 32
14727 14744 12
14728 14714 82
14729 14677 28
14729 14699 18
14729 14748 60
14730 14725 23
14730 14731 41
14730 15024 344
14731 14730 41
14731 14720 121
14731 14747 12
14732 14733 43
14732 14829 188
14732 14988 278
14733 14732 43
14733 14737 7
14733 14785 58
14734 14735 29
14734 14796 60
14734 14801 65
14735 14734 29
14736 14461 315
14736 14775 24
14737 14649 71
14737 14675 30
14737 14733 7
14737 14932 146
14738 14588 102
14738 14702 70
14738 14750 82
14738 14874 100
14739 14670 80
14739 15024 202
14740 14722 36
14740 14751 74
14740 14766 33
14741 14721 20
14741 14825 79
14741 14904 348
14742 14706 21
14742 14707 20
14742 14912 151
14743 14601 96
14743 14695 136
14743 14760 54
14743 14872 93
14744 14727 12
14744 14747 160
14744 14778 27
14745 14687 57
14746 14447 255
14747 14731 12
14747 14744 160
14747 14812 79
14748 14729 60
14748 14787 44
14748 14822 59
14749 14708 112
14749 14786 96
14749 14861 78
14750 14621 86
14750 14738 82
14750 14782 91
14750 14894 102
14751 14609 96
14751 14740 74
14751 14790 135
14752 14651 93
14752 14781 159
14752 14998 278
14753 14610 96
14753 14724 117
14753 14772 85
14753 14888 94
14754 14650 132
14754 14687 35
14754 14805 50
14755 14615 95
14755 14669 147
14755 14765 12
14755 15017 312
14756 14714 26
14756 14758 66
14756 14794 26
14757 14709 37
14757 14761 67
14757 14948 136
14758 14756 66
14759 14559 262
14759 14860 149
14759 14891 158
14760 14612 97
14760 14743 54
14760 14773 64
14760 14889 94
14761 14757 67
14761 14764 51
14761 14905 104
14762 14576 166
14762 14923 186
14763 14677 73
14763 14769 24
14763 14822 140
14764 14761 51
14764 14779 59
14764 14905 119
14765 14755 12
14765 14774 71
14765 14917 217
14766 14740 33
14767 14768 40
14767 14779 39
14768 14767 40
14768 14770 16
14768 15574 609
14769 14645 93
14769 14763 24
14769 14771 8
14770 14600 409
14770 14768 16
14770 14775 60
14770 14940 3198
14771 14769 8
14771 14817 143
14771 15026 379
14772 14624 96
14772 14753 85
14772 14804 117
14772 14906 93
14773 14623 98
14773 14760 64
14773 14791 56
14773 14907 93
14774 14682 95
14774 14765 71
14774 14799 15
14775 14770 60
14775 14736 24
14776 14777 34
14777 14776 34
14778 14744 27
14778 14820 107
14778 14921 119
14779 14767 39
14779 14764 59
14779 14919 116
14780 14657 162
14780 14674 112
14780 14887 93
14781 14752 159
14782 14750 91
14782 14811 80
14782 14862 57
14783 14784 157
14783 14818 41
14783 14829 75
14784 14783 157
14785 14733 58
14786 14655 83
14786 14749 96
14786 14837 39
14787 14748 44
14787 14788 80
14787 14796 68
14788 14787 80
14789 14724 44
14789 14723 44
14789 14856 50
14789 14857 50
14790 14635 96
14790 14751 135
14790 14826 132
14790 14926 97
14791 14633 97
14791 14773 56
14791 14803 55
14791 14918 91
14792 14659 82
14792 14821 119
14792 14838 37
14793 14617 1921
14794 14631 155
14794 14756 26
14794 14933 119
14795 14644 91
14796 14734 60
14796 14787 68
14796 14801 19
14797 14798 36
14798 14797 36
14798 14800 34
14798 14823 27
14799 14774 15
14800 14626 128
14800 14798 34
14800 14807 145
14801 14796 19
14801 14734 65
14801 14813 23
14802 14559 198
14803 14653 98
14803 14791 55
14803 14830 116
14803 14952 95
14804 14658 94
14804 14772 117
14804 14814 51
14804 14939 90
14805 14754 50
14805 14809 114
14805 14880 161
14806 13992 613
14806 14972 133
14806 15035 155
14807 14800 145
14808 14717 70
14809 14805 114
14810 14668 121
14810 14841 41
14810 15111 270
14811 14782 80
14811 14871 57
14812 14747 79
14812 14820 17
14813 14801 23
14813 14839 55
14813 14895 65
14814 14804 51
14814 14831 70
14814 14969 94
14815 14697 91
14816 14708 75
14816 14848 89
14817 14771 143
14817 14854 28
14818 14783 41
14818 14819 210
14818 14901 55
14819 14818 210
14820 14812 17
14820 14778 107
14820 14943 115
14821 14711 83
14821 14792 119
14821 14942 82
14822 14763 140
14822 14748 59
14822 14835 22
14823 14798 27
14823 14824 31
14823 14851 26
14823 14944 121
14824 14823 31
14825 14741 79
14825 14912 91
14825 14962 99
14826 14666 100
14826 14790 132
14826 14843 81
14826 14978 89
14827 14828 32
14827 14882 136
14827 14898 49
14828 14827 32
14828 15010 120
14829 14732 188
14829 14783 75
14829 14849 51
14830 14678 96
14830 14803 116
14830 14856 116
14830 14916 60
14831 14685 97
14831 14814 70
14831 14845 67
14831 14986 96
14832 14093 544
14832 14868 31
14832 15305 277
14833 14695 98
14833 14872 156
14833 14909 78
14834 14656 118
14834 14844 66
14834 14970 96
14835 14822 22
14836 14710 90
14836 14899 55
14837 14786 39
14837 14897 41
14837 15622 505
14838 14792 37
14838 14900 41
14838 15620 505
14839 14813 55
14839 14840 46
14839 14892 59
14840 14839 46
14841 14810 41
14841 14842 145
14841 14871 29
14841 14881 32
14842 14841 145
14843 14702 96
14843 14826 81
14843 14850 5
14844 14663 119
14844 14834 66
14844 14852 23
14845 14696 100
14845 14831 67
14845 14908 40
14846 14847 22
14847 14846 22
14847 14885 23
14848 14816 89
14848 14861 22
14848 14861 22
14848 14866 101
14849 14829 51
14849 14965 69
14849 14901 196
14850 14843 5
14850 14874 73
14850 14911 41
14851 14823 26
14852 14844 23
14853 14854 12
14854 14853 12
14854 14817 28
14854 14944 56
14855 14271 449
14855 14866 48
14855 14879 16
14855 14884 22
14856 14789 50
14856 14830 116
14856 14857 0
14856 14960 60
14857 14789 50
14857 14856 0
14857 14888 119
14857 14961 60
14858 14859 45
14859 14858 45
14859 14893 47
14860 14759 149
14861 14749 78
14861 14848 22
14861 14848 22
14861 14897 93
14862 14782 57
14863 14864 25
14863 14865 3
14863 14867 5
14864 14863 25
14865 14863 3
14866 14848 101
14866 14855 48
14866 14886 29
14866 15105 144
14867 14863 5
14867 14964 65
14867 15060 146
14867 23855 146
14868 14832 31
14868 14928 170
14868 15032 103
14869 14692 180
14869 14870 89
14869 14873 7
14870 14869 89
14871 14841 29
14871 14811 57
14871 14902 36
14871 14914 39
14872 14743 93
14872 14833 156
14872 14889 55
14872 14981 62
14873 14869 7
14873 14941 73
14873 15365 756
14874 14738 100
14874 14850 73
14874 14894 83
14874 14938 41
14875 14876 2
14876 14875 2
14876 14877 24
14876 14878 2
14877 14876 24
14878 14876 2
14878 14892 14
14878 14896 23
14879 14855 16
14879 14884 14
14879 14890 24
14879 18118 2584
14880 14805 161
14880 14552 359
14880 14922 44
14881 14841 32
14882 14827 136
14882 14883 137
14882 14963 64
14883 14882 137
14884 14855 22
14884 14879 14
14884 14886 4
14885 14847 23
14885 14893 49
14885 14917 75
14886 14884 4
14886 14866 29
14886 15142 145
14887 14657 241
14887 14780 93
14887 15027 118
14888 14753 94
14888 14857 119
14888 14906 76
14888 15053 94
14889 14760 94
14889 14872 55
14889 14907 63
14889 15068 99
14890 14879 24
14890 13596 975
14890 16114 787
14891 14759 158
14891 14925 131
14891 15018 94
14892 14839 59
14892 14878 14
14892 14932 131
14893 14859 47
14893 14885 49
14893 15019 115
14894 14750 102
14894 14874 83
14894 15044 85
14895 14813 65
14896 14878 23
14897 14837 41
14897 14861 93
14897 14974 42
14898 14827 49
14898 14915 56
14899 14836 55
14899 14948 44
14899 15025 92
14900 14838 41
14900 14942 95
14900 15190 163
14901 14818 55
14901 14923 48
14901 14849 196
14902 14871 36
14902 14903 43
14902 14949 38
14902 14966 40
14903 14902 43
14904 14741 348
14904 14945 55
14904 15240 195
14905 14764 119
14905 14761 104
14906 14772 93
14906 14888 76
14906 14931 59
14906 15086 98
14907 14773 93
14907 14889 63
14907 14918 57
14907 15090 98
14908 14845 40
14908 14924 50
14908 15006 56
14909 14833 78
14909 14981 207
14909 14982 44
14910 14684 159
14911 14850 41
14911 14938 71
14911 14991 44
14912 14742 151
14912 14825 91
14912 14913 10
14912 14953 19
14913 14713 173
14913 14912 10
14913 14920 53
14913 15092 95
14914 14871 39
14914 14966 39
14914 15023 77
14915 14898 56
14915 14946 15
14916 14830 60
14916 14960 119
14916 14983 33
14917 14885 75
14917 14765 217
14917 15017 62
14918 14791 91
14918 14907 57
14918 14952 58
14918 15113 101
14919 14779 116
14919 14997 67
14919 15015 70
14920 14913 53
14920 14921 26
14920 15008 62
14921 14778 119
14921 14920 26
14921 14943 192
14922 14880 44
14922 15009 177
14922 15027 277
14923 14901 48
14923 14762 186
14923 15096 110
14924 14908 50
14924 14929 4
14924 14947 53
14925 14891 131
14926 14790 97
14926 14927 71
14926 14956 64
14926 14978 147
14926 15123 100
14927 14926 71
14928 14654 256
14928 14868 170
14928 15036 89
14929 14924 4
14929 14930 4
14929 14951 8
14929 14951 15
14930 14929 4
14930 14951 14
14931 14906 59
14931 14939 58
14931 15107 92
14932 14737 146
14932 14892 131
14932 15002 47
14933 14794 119
14933 15495 382
14934 14935 36
14934 15046 148
14934 15055 136
14935 14934 36
14935 14940 84
14935 14971 69
14936 14937 14
14937 14936 14
14937 14977 18
14938 14874 41
14938 14911 71
14938 15013 45
14939 14804 90
14939 14931 58
14939 14969 55
14939 15128 100
14940 14935 84
14940 14971 15
14940 14770 3198
14941 14873 73
14942 14821 82
14942 14900 95
14942 15051 66
14943 14820 115
14943 14921 192
14943 14980 28
14944 14823 121
14944 14854 56
14944 15003 66
14945 14904 55
14945 14972 80
14945 15001 105
14946 14915 15
14946 15020 46
14946 15047 112
14947 14924 53
14947 14973 61
14947 15054 58
14948 14757 136
14948 14899 44
14948 15067 104
14949 14902 38
14949 14950 25
14949 14993 39
14950 14949 25
14951 14929 8
14951 14930 14
14951 14929 15
14951 15030 46
14952 14803 95
14952 14918 58
14952 14968 58
14952 15130 96
14953 14912 19
14953 15042 76
14953 15140 104
14954 14955 26
14954 14959 17
14954 15118 93
14955 14954 26
14955 14967 31
14955 15103 79
14956 14926 64
14956 14978 83
14956 15151 149
14957 14958 43
14958 14957 43
14959 14954 17
14959 15121 91
14959 15489 342
14960 14856 60
14960 14916 119
14960 14961 0
14960 14979 11
14961 14857 60
14961 14960 0
14961 14979 11
14962 14825 99
14962 15042 78
14962 15091 102
14963 14882 64
14963 15000 32
14963 15057 79
14964 14867 65
14965 14849 69
14965 14988 41
14966 14914 39
14966 14902 40
14966 14993 36
14966 15076 76
14967 14955 31
14967 14984 58
14967 14987 17
14968 14952 58
14968 14983 55
14968 15146 99
14969 14814 94
14969 14939 55
14969 14986 74
14969 15150 100
14970 14834 96
14970 14640 230
14970 14985 13
14971 14935 69
14971 14940 15
14971 14976 5
14972 14945 80
14972 14806 133
14972 15001 33
14973 14947 61
14973 15069 56
14974 14897 42
14974 14975 70
14974 15041 43
14975 14974 70
14975 15077 151
14976 14971 5
14976 15306 90
14977 14937 18
14977 15017 50
14977 15019 49
14978 14826 89
14978 14926 147
14978 14956 83
14978 14991 69
14978 15162 103
14979 14961 11
14979 14960 11
14979 15012 25
14979 15014 25
14980 14943 28
14980 15011 33
14980 15106 97
14981 14872 62
14981 14909 207
14981 15048 40
14982 14909 44
14982 15007 106
14982 15338 216
14983 14916 33
14983 14968 55
14983 14992 64
14983 15160 99
14984 14967 58
14984 14985 7
14984 14987 56
14985 14970 13
14985 14984 7
14985 15033 29
14986 14831 96
14986 14969 74
14986 15006 61
14986 15169 97
14987 14984 56
14987 14967 17
14987 15037 27
14988 14732 278
14988 14989 41
14988 14990 31
14988 14965 41
14989 14988 41
14990 14988 31
14991 14911 44
14991 14978 69
14991 15013 71
14991 15172 98
14992 14983 64
14992 15012 56
14992 15174 98
14993 14966 36
14993 14949 39
14993 15028 27
14993 15117 75
14994 14995 129
14994 15239 46
14995 14994 129
14995 15084 26
14996 14997 9
14997 14996 9
14997 14919 67
14997 15108 65
14998 14752 278
14998 15052 330
14998 15074 148
14999 15000 79
15000 14999 79
15000 14963 32
15000 15047 26
15001 14945 105
15001 14972 33
15001 15035 62
15002 14932 47
15002 15026 456
15002 15096 492
15003 14944 66
15003 15115 71
15004 15005 16
15004 15061 73
15004 15184 131
15005 15004 16
15006 14908 56
15006 14986 61
15006 15030 58
15006 15182 96
15007 14982 106
15007 15048 119
15007 15177 94
15008 14920 62
15008 15011 137
15009 14922 177
15010 14828 120
15010 15016 32
15011 14980 33
15011 15008 137
15011 15078 38
15011 15186 137
15012 14979 25
15012 14992 56
15012 15014 0
15012 15193 98
15013 14938 45
15013 14991 71
15013 15044 82
15013 15187 96
15014 14979 25
15014 15012 0
15014 15031 54
15014 15194 98
15015 14919 70
15015 15067 31
15015 15108 71
15016 15010 32
15017 14977 50
15017 14917 62
15017 14755 312
15017 15073 31
15018 14891 94
15019 14893 115
15019 14977 49
15019 15073 65
15020 14946 46
15020 15082 30
15021 15022 128
15021 15066 30
15022 15021 128
15022 15195 46
15023 14914 77
15023 15070 27
15023 15076 39
15024 14739 202
15024 14730 344
15024 15104 84
15025 14899 92
15026 14771 379
15026 15002 456
15026 15085 225
15027 14922 277
15027 14887 118
15027 15087 47
15028 14993 27
15028 15029 44
15028 15125 68
15029 15028 44
15030 14951 46
15030 15006 58
15030 15054 53
15030 15200 94
15031 15014 54
15031 15053 57
15031 15216 99
15032 14868 103
15032 15036 162
15032 15185 85
15033 14985 29
15033 15037 58
15033 15094 26
15034 14651 608
15034 15145 131
15034 15188 199
15035 15001 62
15035 14806 155
15035 15051 18
15035 15225 107
15036 15032 162
15036 14928 89
15036 15081 45
15037 15033 58
15037 14987 27
15037 15100 27
15038 15039 6
15038 15040 17
15038 15056 6
15039 15038 6
15040 15038 17
15041 14974 43
15041 15134 48
15041 15189 115
15042 14953 76
15042 14962 78
15042 15173 95
15043 14697 484
15043 14570 757
15043 15045 5
15044 14894 85
15044 15013 82
15044 15222 99
15045 15043 5
15046 14934 148
15046 15097 26
15047 14946 112
15047 15000 26
15047 15098 27
15048 14981 40
15048 15007 119
15048 15068 54
15048 15218 94
15049 14340 704
15049 15050 164
15049 15171 70
15050 15049 164
15051 15035 18
15051 14942 66
15051 15083 46
15051 15137 42
15052 14998 330
15052 15059 86
15052 15056 127
15053 14888 94
15053 15031 57
15053 15086 82
15053 15228 100
15054 14947 58
15054 15030 53
15054 15069 53
15054 15220 94
15055 14934 136
15055 15246 30
15056 15038 6
15056 15052 127
15056 15157 174
15057 14963 79
15057 15058 124
15057 15183 79
15057 15217 144
15058 15057 124
15059 15052 86
15060 14867 146
15060 23855 146
15061 15004 73
15061 15062 27
15061 15079 30
15061 15144 47
15062 15061 27
15063 15064 133
15064 15063 133
15064 15114 32
15065 15066 158
15065 15138 132
15065 15120 251
15066 15065 158
15066 15021 30
15067 15015 31
15067 14948 104
15067 15129 39
15067 15149 72
15068 14889 99
15068 15048 54
15068 15090 63
15068 15235 94
15069 14973 56
15069 15054 53
15069 15093 64
15069 15226 91
15070 15023 27
15071 15072 25
15071 15124 39
15071 15159 60
15072 15071 25
15073 15019 65
15073 15017 31
15073 15141 52
15074 15075 82
15074 14998 148
15074 15464 861
15075 15074 82
15076 15023 39
15076 14966 76
15076 15102 16
15076 15112 28
15077 14975 151
15077 15105 69
15078 15011 38
15078 15126 37
15078 15256 144
15079 15061 30
15079 15080 53
15079 15109 33
15079 15184 64
15080 15079 53
15081 15036 45
15081 15201 211
15082 15020 30
15082 15098 106
15082 15099 69
15083 15051 46
15083 15136 33
15083 15137 47
15084 15085 227
15084 14995 26
15085 15084 227
15085 15115 75
15085 15026 225
15086 14906 98
15086 15053 82
15086 15107 65
15086 15260 97
15087 15027 47
15087 15176 144
15087 15304 158
15088 15089 39
15089 15088 39
15090 14907 98
15090 15068 63
15090 15113 52
15090 15254 95
15091 14962 102
15091 15173 86
15091 15209 96
15092 14913 95
15092 15140 25
15092 15143 42
15093 15069 64
15093 15123 73
15093 15258 94
15094 15033 26
15094 15095 31
15094 15199 61
15095 15094 31
15095 15100 24
15095 15204 62
15096 14923 110
15096 15097 9
15096 15002 492
15097 15096 9
15097 15046 26
15098 15082 106
15098 15047 27
15098 15154 35
15098 15183 97
15099 15082 69
15099 15181 65
15100 15095 24
15100 15037 27
15100 15101 4
15101 15100 4
15101 15103 30
15101 15208 62
15102 15076 16
15103 15101 30
15103 14955 79
15103 15116 6
15104 15024 84
15104 15127 61
15104 15179 69
15105 15077 69
15105 14866 144
15105 15142 39
15106 14980 97
15106 15186 51
15107 14931 92
15107 15086 65
15107 15128 57
15107 15273 99
15108 14997 65
15108 15015 71
15108 15149 28
15109 15079 33
15109 15110 68
15109 15131 30
15109 15211 64
15110 15109 68
15111 14810 270
15111 15185 136
15111 15298 209
15112 15076 28
15113 14918 101
15113 15090 52
15113 15130 56
15113 15271 95
15114 15064 32
15114 15155 32
15114 15181 134
15115 15085 75
15115 15003 71
15116 15103 6
15116 15118 26
15116 15156 27
15117 14993 75
15118 15116 26
15118 14954 93
15118 15121 29
15119 15120 647
15119 15175 284
15119 15246 354
15120 15119 647
15120 15065 251
15120 15243 193
15121 15118 29
15121 14959 91
15121 15122 15
15121 15161 27
15122 15121 15
15123 14926 100
15123 15093 73
15123 15270 168
15123 15283 97
15124 15071 39
15124 15135 9
15124 15207 59
15125 15028 68
15126 15078 37
15126 15229 91
15127 14671 284
15127 15104 61
15127 15203 105
15128 14939 100
15128 15107 57
15128 15150 51
15128 15290 98
15129 15067 39
15129 15205 57
15129 15206 74
15130 14952 96
15130 15113 56
15130 15146 65
15130 15278 92
15131 15109 30
15131 15132 71
15131 15147 31
15131 15227 64
15132 15131 71
15133 15134 13
15133 15191 24
15134 15133 13
15134 15041 48
15134 15168 34
15135 15124 9
15136 15083 33
15136 15190 42
15137 15051 42
15137 15083 47
15137 15434 196
15138 15139 15
15138 15065 132
15138 15223 71
15139 15138 15
15139 15163 42
15139 15219 452
15140 15092 25
15140 14953 104
15140 15143 31
15140 15274 103
15140 15376 329
15141 15073 52
15141 15180 52
15141 15395 205
15142 15105 39
15142 14886 145
15142 15334 127
15143 15092 42
15143 15140 31
15143 15350 295
15144 15061 47
15145 15034 131
15145 15171 67
15145 15301 105
15146 14968 99
15146 15130 65
15146 15160 54
15146 15291 102
15147 15131 31
15147 15148 14
15147 15152 9
15147 15230 54
15148 15147 14
15149 15108 28
15149 15067 72
15149 15206 41
15149 15232 85
15150 14969 100
15150 15128 51
15150 15169 69
15150 15244 57
15151 14956 149
15151 15270 71
15152 15147 9
15153 15154 71
15154 15153 71
15154 15098 35
15154 15170 14
15155 15114 32
15155 15241 52
15156 15116 27
15156 15161 51
15156 15210 28
15157 15056 174
15157 15188 187
15157 16369 2289
15158 15159 71
15159 15158 71
15159 15071 60
15159 15207 41
15160 14983 99
15160 15146 54
15160 15174 56
15160 15317 94
15161 15156 51
15161 15121 27
15161 15210 66
15162 14978 103
15162 15172 41
15162 15344 150
15163 15139 42
15163 15221 54
15163 15266 74
15164 15165 97
15164 15243 47
15165 15164 97
15166 15167 267
15166 15326 323
15166 16067 670
15167 15166 267
15168 15134 34
15168 15189 40
15168 15233 44
15169 14986 97
15169 15150 69
15169 15182 60
15169 15316 91
15170 15154 14
15171 15145 67
15171 15049 70
15171 15238 91
15172 14991 98
15172 15162 41
15172 15187 72
15173 15042 95
15173 15091 86
15173 15245 56
15173 15274 82
15174 14992 98
15174 15160 56
15174 15193 61
15174 15324 93
15175 15119 284
15175 15214 7
15176 15087 144
15177 15007 94
15177 15178 58
15177 15202 67
15178 15177 58
15179 15104 69
15179 15237 37
15180 15141 52
15180 15224 134
15180 15363 141
15181 15114 134
15181 15099 65
15181 15192 55
15182 15006 96
15182 15169 60
15182 15200 57
15182 15323 87
15183 15098 97
15183 15057 79
15183 15212 25
15183 15217 34
15184 15004 131
15184 15079 64
15184 15211 31
15185 15032 85
15185 15111 136
15185 15305 67
15186 15106 51
15186 15011 137
15186 15256 42
15187 15013 96
15187 15172 72
15187 15222 77
15187 15344 99
15188 15034 199
15188 15157 187
15188 15377 193
15189 15168 40
15189 15041 115
15189 15201 119
15190 15136 42
15190 14900 163
15190 15191 36
15190 15328 91
15191 15190 36
15191 15133 24
15192 15181 55
15192 15236 29
15192 15262 140
15193 15012 98
15193 15174 61
15193 15194 3
15193 15337 93
15194 15014 98
15194 15193 3
15194 15216 54
15194 15340 93
15195 15196 180
15195 15022 46
15196 15195 180
15196 15219 24
15196 15287 109
15197 15198 110
15198 15197 110
15199 15094 61
15199 15204 30
15199 15248 29
15200 15030 94
15200 15182 57
15200 15220 54
15200 15341 95
15201 15189 119
15201 15081 211
15202 15177 67
15202 15218 50
15202 15349 98
15203 15127 105
15203 15249 146
15203 15329 113
15204 15199 30
15204 15095 62
15204 15208 27
15205 15129 57
15206 15149 41
15206 15129 74
15206 15307 74
15207 15159 41
15207 15124 59
15207 15234 29
15208 15204 27
15208 15101 62
15208 15253 27
15209 15091 96
15209 15240 30
15209 15259 54
15210 15156 28
15210 15161 66
15210 15255 27
15211 15184 31
15211 15109 64
15211 15227 33
15212 15213 49
15212 15183 25
15212 15262 74
15213 15212 49
15214 15215 12
15214 15175 7
15215 15214 12
15215 15265 41
15215 15325 187
15216 15031 99
15216 15194 54
15216 15228 58
15216 15362 96
15217 15183 34
15217 15057 144
15217 15288 57
15218 15048 94
15218 15202 50
15218 15235 59
15218 15355 92
15219 15196 24
15219 15139 452
15219 15289 51
15220 15054 94
15220 15200 54
15220 15226 58
15220 15361 94
15221 15163 54
15222 15044 99
15222 15187 77
15222 15465 160
15223 15138 71
15223 15243 151
15223 15266 49
15224 15180 134
15224 15249 181
15224 15277 31
15225 15035 107
15225 15396 228
15225 15565 236
15226 15069 91
15226 15220 58
15226 15258 69
15226 15382 99
15227 15211 33
15227 15131 64
15227 15315 82
15228 15053 100
15228 15216 58
15228 15242 42
15228 15367 93
15229 15126 91
15229 15292 51
15229 15335 98
15230 15147 54
15231 15232 107
15232 15231 107
15232 15149 85
15232 15321 93
15233 15168 44
15233 15297 37
15234 15207 29
15234 15247 107
15235 15068 94
15235 15218 59
15235 15254 55
15235 15359 82
15236 15192 29
15236 15257 84
15236 15285 28
15237 15179 37
15237 15275 40
15237 15276 45
15238 15171 91
15238 15239 254
15238 15272 39
15239 15238 254
15239 14994 46
15240 15209 30
15240 14904 195
15240 15310 60
15241 15155 52
15241 15306 458
15241 15314 96
15242 15228 42
15242 15260 42
15242 15385 95
15243 15223 151
15243 15164 47
15243 15120 193
15243 15267 12
15244 15150 57
15245 15173 56
15245 15259 59
15245 15360 84
15246 15119 354
15246 15055 30
15247 15234 107
15247 15312 37
15248 15199 29
15248 15252 50
15249 15224 181
15249 15203 146
15249 15394 114
15250 15251 115
15251 15250 115
15252 15248 50
15252 15253 7
15252 15452 129
15253 15252 7
15253 15208 27
15253 15255 33
15254 15090 95
15254 15235 55
15254 15271 56
15254 15525 188
15255 15253 33
15255 15210 27
15255 15261 34
15256 15186 42
15256 15078 144
15256 15292 35
15257 15236 84
15258 15093 94
15258 15226 69
15258 15283 67
15258 15407 98
15259 15209 54
15259 15245 59
15259 15383 86
15260 15086 97
15260 15242 42
15260 15273 55
15260 15400 97
15261 15255 34
15262 15192 140
15262 15212 74
15262 15423 110
15263 15264 107
15264 15263 107
15264 15268 35
15264 15430 146
15265 15215 41
15265 15391 126
15266 15163 74
15266 15223 49
15266 15302 65
15267 15243 12
15267 15416 44
15268 15264 35
15268 15269 95
15268 15281 31
15269 15268 95
15270 15151 71
15270 15123 168
15270 15344 151
15271 15113 95
15271 15254 56
15271 15284 48
15271 15538 187
15272 15238 39
15272 15374 147
15273 15107 99
15273 15260 55
15273 15290 61
15274 15140 103
15274 15173 82
15274 15293 15
15275 15237 40
15275 15318 56
15276 15237 45
15276 15318 35
15277 15224 31
15277 15296 51
15277 15322 31
15278 15130 92
15278 15284 7
15278 15291 34
15279 15280 66
15279 15308 21
15279 15417 164
15280 15279 66
15281 15268 31
15281 15282 86
15281 15294 26
15282 15281 86
15283 15123 97
15283 15258 67
15283 15421 95
15284 15278 7
15284 15271 48
15284 15553 188
15285 15236 28
15285 15286 85
15285 15333 41
15286 15285 85
15287 15196 109
15287 15397 145
15288 15217 57
15289 15219 51
15289 15309 82
15289 15319 106
15290 15128 98
15290 15273 61
15290 15433 96
15291 15146 102
15291 15278 34
15291 15317 85
15291 15561 202
15292 15256 35
15292 15229 51
15292 15335 36
15293 15274 15
15293 15360 71
15293 15381 88
15294 15281 26
15294 15295 47
15294 15315 209
15295 15294 47
15296 15277 51
15297 15233 37
15297 15298 163
15297 15347 45
15297 15399 70
15298 15297 163
15298 15111 209
15299 15300 123
15300 15299 123
15301 15145 105
15302 15266 65
15302 15346 30
15303 15304 107
15304 15303 107
15304 15087 158
15304 15357 128
15304 15657 512
15305 14832 277
15305 15185 67
15305 15871 399
15306 15241 458
15306 14976 90
15307 15206 74
15307 15327 21
15307 15330 43
15308 15279 21
15309 15289 82
15310 15240 60
15310 15351 54
15310 15396 86
15311 15312 88
15312 15311 88
15312 15247 37
15312 15380 48
15313 15314 36
15313 15336 104
15313 15428 337
15314 15313 36
15314 15241 96
15314 15333 100
15315 15227 82
15315 15294 209
15316 15169 91
15316 15323 66
15316 15671 261
15317 15160 94
15317 15291 85
15317 15324 57
15317 15587 191
15318 15275 56
15318 15276 35
15318 15339 39
15319 15289 106
15320 15321 103
15321 15320 103
15321 15232 93
15321 15368 46
15321 15476 142
15322 15277 31
15322 15332 46
15323 15182 87
15323 15316 66
15323 15457 85
15324 15174 93
15324 15317 57
15324 15337 64
15324 15598 190
15325 15215 187
15325 15425 126
15325 15449 97
15326 15166 323
15327 15307 21
15327 15529 217
15328 15190 91
15328 15352 26
15328 15431 63
15329 15203 113
15330 15331 79
15330 15307 43
15330 15348 21
15331 15330 79
15332 15322 46
15333 15314 100
15333 15285 41
15333 15423 138
15334 15142 127
15334 15443 85
15334 15919 416
15335 15292 36
15335 15229 98
15335 15350 9
15336 15313 104
15337 15193 93
15337 15324 64
15337 15340 5
15337 15611 191
15338 14982 216
15338 15349 140
15338 15490 114
15339 15318 39
15340 15194 93
15340 15337 5
15340 15362 53
15340 15612 191
15341 15200 95
15341 15361 51
15341 15406 36
15342 15343 56
15342 15384 71
15342 15393 32
15343 15342 56
15343 15364 23
15344 15187 99
15344 15162 150
15344 15270 151
15344 15465 92
15345 15346 8
15345 15436 174
15345 15512 189
15346 15345 8
15346 15302 30
15347 15297 45
15347 15352 31
15348 15330 21
15348 15387 71
15348 15427 78
15349 15202 98
15349 15338 140
15349 15355 48
15349 15494 95
15350 15335 9
15350 15143 295
15350 15356 5
15351 15310 54
15351 15383 53
15351 15458 71
15352 15328 26
15352 15347 31
15353 15354 224
15354 15353 224
15354 15687 568
15355 15218 92
15355 15349 48
15355 15359 62
15355 15498 93
15356 15350 5
15356 15375 233
15356 15375 17
15357 15304 128
15357 15358 164
15357 15366 22
15358 15357 164
15359 15235 82
15359 15355 62
15359 15504 99
15360 15293 71
15360 15245 84
15360 15386 67
15360 15500 94
15361 15220 94
15361 15341 51
15361 15382 63
15361 15472 71
15362 15216 96
15362 15340 53
15362 15367 53
15362 15618 187
15363 15180 141
15363 15395 20
15363 15456 74
15364 15343 23
15364 15378 28
15364 15466 65
15365 14692 633
15365 14873 756
15365 15701 278
15366 15357 22
15366 15687 417
15367 15228 93
15367 15362 53
15367 15385 42
15367 15633 189
15368 15321 46
15369 15370 31
15370 15369 31
15370 15371 48
15370 15410 54
15371 15370 48
15372 15373 16
15372 15377 68
15372 15591 339
15373 15372 16
15373 15374 9
15373 17475 1798
15374 15373 9
15374 15272 147
15375 15356 233
15375 15356 17
15375 15818 434
15376 15140 329
15376 15390 16
15376 15597 196
15377 15188 193
15377 15372 68
15377 15468 74
15378 15364 28
15378 15393 33
15378 15478 65
15379 15380 55
15380 15379 55
15380 15312 48
15380 15520 100
15381 15293 88
15381 15467 92
15381 15597 220
15382 15226 99
15382 15361 63
15382 15407 71
15382 15509 88
15383 15259 86
15383 15351 53
15383 15386 45
15383 15503 82
15384 15342 71
15384 15440 34
15385 15242 95
15385 15367 42
15385 15400 43
15385 15646 190
15386 15360 67
15386 15383 45
15386 15511 86
15387 15348 71
15388 15389 41
15389 15388 41
15390 15376 16
15390 15531 142
15390 15569 163
15391 15265 126
15391 15392 11
15391 15606 162
15392 15391 11
15393 15342 32
15393 15378 33
15393 15440 79
15393 15447 33
15394 15249 114
15394 15446 57
15394 15486 74
15395 15141 205
15395 15363 20
15395 15422 18
15395 15432 29
15396 15310 86
15396 15225 228
15396 15479 89
15397 15398 22
15397 15287 145
15398 15397 22
15398 15591 202
15398 16163 705
15399 15297 70
15399 15485 72
15399 15499 67
15400 15260 97
15400 15385 43
15400 15419 61
15400 15661 193
15401 15402 14
15401 15451 227
15401 15454 227
15401 23859 227
15402 15401 14
15403 15404 34
15403 15405 62
15403 15445 74
15404 15403 34
15404 15413 6
15405 15403 62
15406 15341 36
15407 15258 98
15407 15382 71
15407 15421 61
15407 15568 129
15408 15409 30
15408 15420 16
15409 15408 30
15410 15370 54
15411 15412 145
15412 15411 145
15412 15492 63
15413 15404 6
15413 15414 22
15413 15435 18
15414 15413 22
15414 15415 67
15414 15435 24
15415 15416 55
15415 15414 67
15415 15463 34
15416 15415 55
15416 15267 44
15417 15279 164
15418 15419 72
15419 15418 72
15419 15400 61
15419 15433 56
15419 15668 191
15420 15408 16
15420 15459 36
15420 15639 159
15421 15283 95
15421 15407 61
15421 15426 6
15422 15395 18
15422 15432 24
15422 15444 21
15423 15333 138
15423 15262 110
15423 15430 321
15424 15425 96
15425 15424 96
15425 15325 126
15425 15445 125
15426 15421 6
15426 15439 48
15426 15568 145
15427 15348 78
15428 15429 66
15428 15313 337
15428 15555 188
15429 15428 66
15430 15264 146
15430 15423 321
15430 15705 669
15431 15328 63
15431 15475 28
15431 15620 150
15432 15422 24
15432 15395 29
15432 15456 32
15432 15460 24
15433 15290 96
15433 15419 56
15433 15455 72
15433 15542 80
15434 15137 196
15434 15475 89
15434 15557 90
15435 15414 24
15435 15413 18
15435 15477 29
15436 15437 52
15436 15345 174
15436 15463 64
15437 15436 52
15438 15439 93
15439 15438 93
15439 15426 48
15439 15448 47
15439 15528 69
15440 15384 34
15440 15393 79
15440 15480 28
15441 15442 195
15441 15520 153
15441 15537 112
15442 15441 195
15442 15444 9
15442 15510 51
15443 15334 85
15444 15442 9
15444 15422 21
15444 15460 59
15445 15403 74
15445 15425 125
15445 15551 83
15446 15394 57
15447 15393 33
15447 15480 77
15447 15484 31
15448 15439 47
15449 15325 97
15449 15607 157
15450 15451 36
15451 15450 36
15451 15401 227
15451 15454 227
15451 23859 227
15452 15252 129
15452 15488 28
15452 15559 123
15453 15454 36
15454 15453 36
15454 15401 227
15454 15451 227
15454 23859 227
15455 15433 72
15456 15432 32
15456 15363 74
15456 15610 194
15457 15323 85
15458 15351 71
15459 15420 36
15459 15523 52
15460 15444 59
15460 15432 24
15460 15496 32
15461 15462 42
15462 15461 42
15463 15436 64
15463 15415 34
15463 15471 31
15463 15482 42
15464 15074 861
15465 15222 160
15465 15344 92
15465 15624 132
15466 15364 65
15466 15478 25
15466 15502 32
15467 15381 92
15467 15500 59
15467 15533 58
15468 15377 74
15469 15470 43
15470 15469 43
15470 15481 39
15470 15617 141
15471 15463 31
15471 15477 58
15471 15483 29
15472 15361 71
15473 15474 50
15474 15473 50
15475 15431 28
15475 15434 89
15475 15557 70
15476 15321 142
15476 15648 360
15476 15801 324
15477 15471 58
15477 15435 29
15477 15493 23
15478 15378 65
15478 15466 25
15478 15484 32
15479 15396 89
15479 15530 66
15479 15654 173
15480 15440 28
15480 15447 77
15480 15516 36
15481 15470 39
15482 15463 42
15482 15483 66
15482 15548 45
15483 15482 66
15483 15471 29
15483 15487 32
15484 15447 31
15484 15478 32
15484 15516 76
15485 15399 72
15485 15945 336
15486 15394 74
15486 15508 24
15486 15552 55
15487 15483 32
15487 15493 19
15487 15589 73
15488 15452 28
15488 15489 68
15488 15519 26
15489 15488 68
15489 14959 342
15489 15501 10
15490 15338 114
15490 15494 81
15490 15578 72
15491 15492 157
15492 15491 157
15492 15412 63
15492 15527 29
15493 15487 19
15493 15477 23
15493 15551 85
15494 15349 95
15494 15490 81
15494 15498 49
15494 15619 99
15495 14933 382
15495 15497 115
15495 15501 53
15496 15460 32
15496 15601 135
15496 15710 194
15497 15495 115
15498 15355 93
15498 15494 49
15498 15504 59
15499 15399 67
15499 15576 75
15499 15622 97
15500 15467 59
15500 15360 94
15500 15511 57
15500 15536 32
15501 15489 10
15501 15495 53
15501 15521 17
15502 15466 32
15502 15532 80
15502 15627 150
15503 15383 82
15503 15511 63
15503 15547 31
15504 15359 99
15504 15498 59
15504 15514 10
15505 15506 48
15506 15505 48
15507 15508 47
15508 15507 47
15508 15486 24
15508 15564 49
15509 15382 88
15510 15442 51
15510 15513 35
15510 15556 32
15511 15500 57
15511 15386 86
15511 15503 63
15512 15345 189
15512 15663 124
15513 15510 35
15513 15515 24
15513 15535 18
15514 15504 10
15514 15525 51
15514 15575 43
15515 15513 24
15515 15522 5
15515 15524 25
15516 15480 36
15516 15484 76
15516 15532 59
15517 15518 169
15518 15517 169
15519 15488 26
15519 15521 77
15519 15560 26
15520 15380 100
15520 15441 153
15520 15567 150
15521 15519 77
15521 15501 17
15521 15562 28
15522 15515 5
15522 15535 20
15522 15581 47
15523 15459 52
15523 15526 1
15523 15545 13
15524 15515 25
15524 15546 18
15525 15254 188
15525 15514 51
15525 15538 58
15525 15655 102
15526 15523 1
15527 15492 29
15527 15550 52
15527 15567 59
15528 15439 69
15529 15327 217
15529 15550 22
15529 15558 77
15530 15479 66
15530 15547 13
15530 15709 177
15531 15390 142
15531 15672 146
15531 15822 286
15532 15516 59
15532 15502 80
15532 15627 75
15533 15467 58
15533 15534 0
15533 15536 10
15533 15641 123
15534 15533 0
15535 15522 20
15535 15513 18
15535 15554 23
15535 15593 46
15536 15533 10
15536 15500 32
15536 15628 90
15537 15441 112
15537 15539 21
15537 15572 25
15538 15271 187
15538 15525 58
15538 15553 42
15538 15670 102
15539 15537 21
15539 15543 31
15539 15543 78
15540 15541 49
15541 15540 49
15542 15433 80
15542 15563 89
15542 15678 108
15543 15539 31
15543 15546 26
15543 15539 78
15544 15545 44
15545 15544 44
15545 15523 13
15545 15632 71
15546 15543 26
15546 15524 18
15546 15626 72
15547 15503 31
15547 15530 13
15547 15590 50
15548 15549 89
15548 15482 45
15548 15605 47
15549 15548 89
15549 15573 101
15549 15600 48
15550 15529 22
15550 15527 52
15550 15615 108
15551 15493 85
15551 15445 83
15551 15614 110
15552 15486 55
15553 15284 188
15553 15538 42
15553 15561 40
15554 15535 23
15554 15604 45
15555 15428 188
15555 15712 371
15555 15718 370
15556 15510 32
15556 15613 46
15556 15740 178
15557 15434 90
15557 15475 70
15557 15565 13
15557 16193 424
15558 15529 77
15558 15588 31
15558 15592 137
15559 15452 123
15559 15560 31
15559 15762 164
15560 15559 31
15560 15519 26
15560 15562 76
15560 15595 27
15561 15291 202
15561 15553 40
15561 15566 31
15561 15987 346
15562 15560 76
15562 15521 28
15562 15596 24
15563 15542 89
15564 15508 49
15565 15225 236
15565 15557 13
15565 15901 232
15566 15561 31
15566 15587 58
15566 15690 99
15567 15527 59
15567 15520 150
15567 15615 39
15568 15426 145
15568 15407 129
15569 15390 163
15569 15651 80
15569 15672 137
15570 15571 38
15571 15570 38
15572 15537 25
15572 15626 60
15573 15549 101
15573 15642 56
15574 14768 609
15575 15514 43
15575 15619 101
15575 15674 80
15576 15499 75
15576 15577 1
15576 15577 6
15576 15669 79
15577 15576 1
15577 15576 6
15577 15761 143
15578 15490 72
15579 15580 236
15579 15599 403
15579 15684 200
15580 15579 236
15581 15522 47
15581 15593 20
15581 15647 58
15582 15583 37
15582 15584 23
15582 15589 50
15583 15582 37
15584 15582 23
15585 15586 48
15586 15585 48
15587 15317 191
15587 15566 58
15587 15594 38
15587 15700 96
15588 15558 31
15588 15637 55
15588 15680 98
15589 15582 50
15589 15487 73
15589 15634 38
15590 15547 50
15590 15628 57
15590 15778 182
15591 15398 202
15591 15372 339
15591 15921 228
15592 15558 137
15592 15648 54
15592 15680 117
15593 15581 20
15593 15535 46
15593 15604 24
15593 15656 61
15594 15587 38
15595 15560 27
15595 15596 75
15595 15621 26
15596 15595 75
15596 15562 24
15596 15625 29
15597 15376 196
15597 15381 220
15597 15645 47
15598 15324 190
15598 15611 64
15598 15711 95
15599 15579 403
15599 15638 95
15599 15769 351
15600 15549 48
15600 15605 75
15600 15642 77
15600 15704 89
15601 15496 135
15601 15785 154
15601 15792 167
15602 15603 697
15603 15602 697
15604 15593 24
15604 15554 45
15604 15692 83
15605 15548 47
15605 15600 75
15605 15634 108
15605 15696 74
15606 15391 162
15606 15608 26
15606 15616 14
15607 15449 157
15607 15609 48
15607 15677 73
15608 15606 26
15608 15609 16
15609 15607 48
15609 15608 16
15610 15456 194
15610 15936 226
15611 15337 191
15611 15598 64
15611 15612 7
15611 15724 93
15612 15340 191
15612 15611 7
15612 15618 52
15612 15725 93
15613 15556 46
15613 15660 38
15613 15686 70
15614 15551 110
15614 15673 247
15614 15706 83
15615 15550 108
15615 15567 39
15615 15688 61
15616 15606 14
15616 15640 259
15616 15640 252
15616 15771 367
15617 15470 141
15617 15640 144
15617 15718 215
15618 15362 187
15618 15612 52
15618 15633 53
15618 15738 95
15619 15575 101
15619 15494 99
15619 15702 81
15620 15431 150
15620 14838 505
15620 15961 218
15621 15595 26
15621 15625 86
15621 15658 27
15622 14837 505
15622 15499 97
15622 15991 233
15623 15624 53
15624 15623 53
15624 15465 132
15624 15652 134
15624 16048 268
15625 15621 86
15625 15596 29
15625 15659 27
15626 15572 60
15626 15546 72
15626 15647 27
15627 15532 75
15627 15502 150
15627 15718 113
15628 15536 90
15628 15590 57
15628 15629 2
15629 15628 2
15629 15679 60
15629 15848 186
15630 15631 74
15630 15737 115
15630 15747 183
15631 15630 74
15631 15671 71
15631 15732 81
15632 15545 71
15632 15649 37
15632 15666 32
15633 15367 189
15633 15618 53
15633 15646 41
15633 15756 97
15634 15605 108
15634 15589 38
15634 15685 132
15634 15708 64
15635 15636 98
15636 15635 98
15637 15588 55
15637 15688 118
15637 15719 91
15638 15599 95
15638 15764 114
15638 15795 152
15639 15420 159
15640 15616 259
15640 15616 252
15640 15617 144
15641 15533 123
15641 15723 94
15642 15573 56
15642 15600 77
15642 15676 72
15643 15644 27
15643 15683 51
15644 15643 27
15644 15650 19
15644 15694 47
15645 15597 47
15645 15651 14
15645 15809 154
15646 15385 190
15646 15633 41
15646 15661 46
15647 15626 27
15647 15581 58
15647 15656 17
15648 15592 54
15648 15476 360
15649 15632 37
15650 15644 19
15650 15662 22
15650 15703 52
15651 15569 80
15651 15645 14
15651 15849 166
15652 15624 134
15652 15653 238
15652 15927 316
15653 15652 238
15654 15479 173
15655 15525 102
15655 15670 57
15655 15733 62
15656 15647 17
15656 15593 61
15656 15667 9
15657 15304 512
15657 15687 47
15657 15707 43
15658 15621 27
15658 15659 87
15658 15689 26
15659 15658 87
15659 15625 27
15659 15693 30
15660 15613 38
15660 15715 43
15660 15891 162
15661 15400 193
15661 15646 46
15661 15668 55
15662 15650 22
15662 15675 22
15662 15722 55
15663 15512 124
15663 15664 36
15663 15665 1
15663 15665 7
15664 15663 36
15664 15676 52
15664 15774 85
15665 15663 1
15665 15663 7
15665 15695 62
15665 15729 52
15666 15632 32
15666 15682 41
15666 15871 211
15667 15656 9
15667 15692 21
15667 15720 65
15668 15419 191
15668 15661 55
15668 15678 61
15669 15576 79
15670 15538 102
15670 15655 57
15670 15917 155
15671 15631 71
15671 15316 261
15671 15728 49
15672 15531 146
15672 15569 137
15673 15614 247
15673 15677 5
15673 15745 91
15674 15575 80
15674 15702 47
15674 15733 68
15675 15662 22
15675 15734 54
15676 15664 52
15676 15642 72
15677 15673 5
15677 15607 73
15677 15681 29
15678 15542 108
15678 15668 61
15679 15629 60
15679 15723 60
15679 15918 190
15680 15592 117
15680 15588 98
15680 15719 52
15681 15677 29
15682 15666 41
15682 15721 85
15683 15643 51
15683 15703 44
15684 15579 200
15684 15779 365
15684 15939 412
15685 15634 132
15685 15706 53
15685 15783 116
15686 15613 70
15686 15864 121
15687 15657 47
15687 15366 417
15687 15354 568
15688 15637 118
15688 15615 61
15688 15851 112
15689 15658 26
15689 15693 71
15689 15750 47
15690 15566 99
15690 15691 71
15690 15700 58
15690 15836 93
15691 15690 71
15692 15667 21
15692 15604 83
15692 15727 29
15693 15689 71
15693 15659 30
15693 15699 6
15694 15644 47
15695 15665 62
15695 15717 33
15695 15759 47
15696 15605 74
15696 15708 95
15696 15868 103
15697 15698 91
15697 15698 86
15697 15717 25
15698 15697 91
15698 15697 86
15699 15693 6
15699 15716 14
15699 15954 166
15700 15587 96
15700 15690 58
15700 15711 58
15700 15862 97
15701 15365 278
15701 16939 890
15701 17036 1122
15702 15674 47
15702 15619 81
15702 15841 96
15703 15683 44
15703 15650 52
15703 15714 4
15703 15722 22
15704 15600 89
15705 15430 669
15705 15779 15
15706 15685 53
15706 15614 83
15706 15713 6
15707 15657 43
15707 15925 134
15707 15946 242
15708 15696 95
15708 15634 64
15708 15835 75
15709 15530 177
15709 15775 81
15709 15778 63
15709 15791 57
15710 15496 194
15711 15598 95
15711 15700 58
15711 15724 63
15711 15883 99
15712 15555 371
15712 15731 41
15712 16336 660
15713 15706 6
15713 15726 57
15713 15754 85
15714 15703 4
15714 15816 74
15715 15660 43
15715 15760 31
15715 15902 124
15716 15699 14
15716 15750 64
15717 15697 25
15717 15695 33
15717 15751 37
15718 15617 215
15718 15627 113
15718 15555 370
15719 15680 52
15719 15637 91
15719 15755 33
15719 15851 140
15720 15667 65
15720 15727 24
15720 15767 64
15720 15784 48
15721 15682 85
15722 15703 22
15722 15662 55
15722 15734 22
15722 15794 47
15723 15641 94
15723 15679 60
15723 15782 53
15723 15866 104
15724 15611 93
15724 15711 63
15724 15725 5
15724 15896 98
15725 15612 93
15725 15724 5
15725 15738 53
15725 15898 98
15726 15713 57
15726 15730 32
15726 15771 113
15727 15720 24
15727 15692 29
15727 15740 8
15728 15671 49
15728 15732 69
15728 16000 159
15728 16001 154
15729 15665 52
15729 15759 42
15729 15780 28
15730 15726 32
15730 15790 45
15731 15712 41
15731 15859 151
15731 16043 331
15732 15631 81
15732 15728 69
15732 15737 65
15732 16005 154
15733 15655 62
15733 15674 68
15733 15812 51
15734 15722 22
15734 15675 54
15734 15781 50
15734 15794 44
15735 15736 149
15735 15757 14
15735 15777 29
15736 15735 149
15736 15744 142
15737 15630 115
15737 15732 65
15737 15739 41
15737 16021 156
15738 15618 95
15738 15725 53
15738 15756 53
15738 15915 98
15739 15737 41
15739 15747 48
15739 16016 155
15740 15727 8
15740 15556 178
15740 15813 53
15741 15742 74
15741 15743 71
15741 15786 29
15741 15804 74
15742 15741 74
15743 15741 71
15744 15736 142
15744 15773 24
15744 15846 62
15745 15746 37
15745 15673 91
15745 15770 51
15746 15745 37
15747 15630 183
15747 15739 48
15748 15749 96
15748 15761 16
15749 15748 96
15749 23860 138
15750 15689 47
15750 15716 64
15750 15758 42
15750 15887 74
15751 15717 37
15751 15752 45
15751 15959 125
15752 15753 233
15752 15751 45
15752 15772 63
15753 15752 233
15754 15713 85
15754 15776 11
15754 15783 73
15755 15719 33
15756 15633 97
15756 15738 53
15756 15940 102
15757 15735 14
15757 15880 75
15757 15894 71
15758 15750 42
15758 15762 51
15758 15895 89
15759 15695 47
15759 15729 42
15759 15842 48
15760 15715 31
15760 15903 87
15760 15903 93
15761 15577 143
15761 15748 16
15761 15763 61
15761 15979 138
15762 15559 164
15762 15758 51
15762 15908 99
15763 15761 61
15764 15638 114
15764 15810 33
15764 15811 61
15765 15766 75
15766 15765 75
15767 15768 5
15767 15720 64
15767 15784 20
15768 15767 5
15769 15599 351
15769 15806 40
15769 15819 55
15770 15745 51
15771 15726 113
15771 15616 367
15771 15911 85
15772 15752 63
15772 15788 58
15772 15952 105
15773 15744 24
15773 15793 25
15773 15850 58
15774 15664 85
15774 15780 55
15775 15709 81
15775 15791 58
15775 15808 39
15776 15754 11
15776 15838 39
15776 15875 67
15777 15735 29
15777 15820 36
15777 15892 60
15778 15590 182
15778 15709 63
15778 15843 52
15779 15684 365
15779 15705 15
15780 15729 28
15780 15774 55
15780 15807 21
15781 15734 50
15782 15723 53
15782 15832 45
15782 15935 105
15783 15685 116
15783 15754 73
15783 15798 21
15784 15767 20
15784 15720 48
15784 15802 18
15784 15813 33
15785 15601 154
15785 15920 113
15786 15741 29
15786 15787 74
15786 15811 22
15786 15858 70
15787 15786 74
15788 15789 104
15788 15772 58
15788 15882 126
15789 15788 104
15790 15730 45
15790 15911 131
15791 15709 57
15791 15775 58
15791 15867 35
15792 15601 167
15792 15805 7
15792 15920 86
15793 15773 25
15793 15830 25
15793 15889 58
15794 15722 47
15794 15734 44
15794 15839 22
15795 15638 152
15795 15801 17
15796 15797 31
15797 15796 31
15797 15856 70
15797 15943 85
15798 15783 21
15798 15835 28
15799 15800 70
15800 15799 70
15800 15831 53
15801 15476 324
15801 15795 17
15802 15784 18
15802 15847 30
15802 15873 48
15803 15804 35
15803 15821 67
15804 15803 35
15804 15741 74
15804 15858 30
15804 15876 58
15805 15792 7
15805 15936 82
15806 15769 40
15806 15855 36
15806 15893 61
15807 15780 21
15808 15775 39
15808 15829 10
15808 15867 80
15809 15645 154
15809 15832 37
15809 15845 14
15810 15764 33
15811 15786 22
15811 15764 61
15811 15854 19
15811 15879 54
15812 15733 51
15812 15841 52
15812 15888 32
15813 15784 33
15813 15740 53
15813 15826 4
15813 15847 17
15814 15815 10
15814 15834 38
15815 15814 10
15816 15817 47
15816 15714 74
15816 15839 40
15817 15816 47
15818 15375 434
15818 15822 8
15818 16135 292
15819 15769 55
15819 15878 47
15819 15893 42
15820 15777 36
15820 15870 28
15820 15996 96
15821 15803 67
15821 15876 33
15821 15885 50
15822 15818 8
15822 15531 286
15822 16002 132
15822 16153 293
15823 15824 53
15824 15823 53
15824 15825 45
15824 15904 88
15825 15824 45
15826 15813 4
15826 15864 28
15826 15958 76
15827 15828 57
15828 15827 57
15828 23861 50
15828 23862 50
15829 15808 10
15829 15881 28
15830 15793 25
15830 15870 27
15830 15890 36
15831 15800 53
15832 15782 45
15832 15809 37
15832 15865 25
15833 15834 9
15834 15833 9
15834 15814 38
15835 15708 75
15835 15798 28
15835 15853 54
15835 15838 109
15836 15690 93
15836 15837 58
15836 15862 59
15836 15909 41
15837 15836 58
15838 15776 39
15838 15835 109
15838 16167 212
15839 15816 40
15839 15794 22
15839 15840 65
15839 15948 93
15840 15839 65
15840 15861 19
15840 15947 92
15841 15812 52
15841 15702 96
15841 16090 208
15842 15759 48
15843 15778 52
15843 15844 67
15843 15848 4
15844 15843 67
15844 15884 33
15845 15809 14
15845 15849 10
15845 15865 14
15846 15744 62
15846 15850 9
15846 15910 41
15847 15802 30
15847 15813 17
15847 15863 11
15848 15629 186
15848 15843 4
15848 15874 21
15849 15651 166
15849 15845 10
15849 15852 2
15850 15846 9
15850 15773 58
15850 15889 26
15851 15719 140
15851 15688 112
15852 15849 2
15852 15857 2
15853 15835 54
15853 15868 29
15853 15972 71
15854 15811 19
15855 15806 36
15855 15885 21
15855 15933 71
15856 15797 70
15857 15852 2
15857 15872 12
15857 15957 90
15858 15804 30
15858 15786 70
15858 15869 5
15859 15731 151
15859 15860 246
15859 15877 56
15860 15859 246
15861 15840 19
15861 15899 28
15861 15974 96
15862 15700 97
15862 15836 59
15862 15883 58
15862 15928 35
15863 15847 11
15863 15873 7
15863 16042 114
15864 15826 28
15864 15686 121
15864 15891 22
15865 15845 14
15865 15832 25
15865 15872 8
15866 15723 104
15866 15914 41
15866 15978 86
15867 15791 35
15867 15808 80
15867 15930 35
15868 15696 103
15868 15853 29
15868 15953 57
15869 15858 5
15870 15830 27
15870 15820 28
15870 15886 8
15871 15305 399
15871 15666 211
15871 16024 89
15872 15857 12
15872 15865 8
15872 15971 97
15873 15802 48
15873 15863 7
15873 15900 22
15874 15848 21
15874 15918 35
15874 16084 130
15875 15776 67
15876 15821 33
15876 15804 58
15876 15916 28
15877 15859 56
15877 16028 386
15877 16028 412
15878 15819 47
15878 15923 31
15878 15939 57
15879 15811 54
15880 15757 75
15880 15894 41
15880 15926 26
15881 15829 28
15881 15930 91
15881 15964 59
15882 15788 126
15882 15942 78
15882 16032 98
15883 15711 99
15883 15862 58
15883 15896 61
15883 16082 126
15884 15844 33
15884 15913 71
15884 15937 33
15885 15855 21
15885 15821 50
15885 15897 12
15886 15870 8
15886 15890 44
15886 15922 23
15887 15750 74
15887 15895 12
15887 15967 54
15888 15812 32
15889 15850 26
15889 15793 58
15889 15907 25
15890 15830 36
15890 15886 44
15890 15907 20
15891 15864 22
15891 15660 162
15891 15902 22
15891 15958 50
15892 15777 60
15892 15894 17
15892 15931 24
15893 15819 42
15893 15806 61
15893 15933 32
15894 15892 17
15894 15757 71
15894 15880 41
15895 15758 89
15895 15887 12
15895 15908 48
15896 15724 98
15896 15883 61
15896 15898 3
15896 16104 132
15897 15885 12
15897 15944 34
15897 15969 77
15898 15725 98
15898 15896 3
15898 15915 53
15898 16104 131
15899 15861 28
15899 15932 19
15899 16006 92
15900 15873 22
15900 15968 59
15900 16091 120
15901 15565 232
15901 15964 186
15901 16010 64
15902 15891 22
15902 15715 124
15902 15903 27
15903 15902 27
15903 15760 87
15903 15760 93
15904 15824 88
15904 15982 87
15904 16025 85
15905 15906 65
15905 15941 33
15905 15982 59
15906 15905 65
15907 15889 25
15907 15890 20
15907 15949 67
15908 15762 99
15908 15895 48
15908 15999 60
15909 15836 41
15910 15846 41
15910 16113 151
15910 16149 228
15911 15790 131
15911 15771 85
15911 15912 46
15912 15911 46
15912 16501 1117
15913 15884 71
15914 15866 41
15914 15935 18
15914 16098 133
15915 15738 98
15915 15898 53
15915 15940 58
15916 15876 28
15917 15670 155
15918 15679 190
15918 15874 35
15918 15978 65
15919 15334 416
15919 15938 32
15920 15785 113
15920 15792 86
15920 15934 14
15920 16055 125
15921 15591 228
15921 15942 24
15921 16163 530
15922 15886 23
15922 15929 41
15922 15949 17
15923 15878 31
15923 15924 13
15923 15955 28
15923 16014 86
15924 15923 13
15925 15707 134
15925 15983 50
15925 16004 52
15926 15880 26
15926 15931 56
15926 15960 24
15927 15652 316
15928 15862 35
15929 15922 41
15930 15867 35
15930 15881 91
15930 15962 27
15931 15892 24
15931 15926 56
15931 15965 24
15932 15899 19
15932 15968 28
15932 15980 47
15933 15893 32
15933 15855 71
15933 15969 31
15934 15920 14
15934 15951 81
15935 15782 105
15935 15914 18
15936 15805 82
15936 15610 226
15936 16058 86
15937 15884 33
15937 15970 84
15937 15988 32
15938 15919 32
15938 15945 89
15938 15979 118
15939 15684 412
15939 15878 57
15939 15963 28
15940 15756 102
15940 15915 58
15940 16180 154
15941 15905 33
15941 15966 175
15941 16027 66
15942 15921 24
15942 15882 78
15942 16148 277
15943 15797 85
15943 15992 56
15943 16060 81
15944 15897 34
15944 16026 75
15944 16035 61
15945 15938 89
15945 15485 336
15946 15707 242
15947 15840 92
15947 15950 4
15948 15839 93
15948 15966 20
15948 16013 48
15949 15922 17
15949 15907 67
15949 15996 37
15950 15947 4
15950 15974 19
15950 16013 50
15951 15934 81
15951 15981 31
15952 15772 105
15952 16045 125
15952 16046 123
15953 15868 57
15953 15972 72
15953 16165 324
15954 15699 166
15954 15967 29
15954 16236 202
15955 15923 28
15955 15956 11
15955 15997 28
15955 16047 85
15956 15955 11
15957 15857 90
15957 15971 11
15957 16063 108
15958 15826 76
15958 15891 50
15958 15995 40
15959 15751 125
15959 16046 50
15960 15926 24
15960 15965 49
15960 16012 31
15961 15620 218
15961 16193 152
15961 18251 1843
15962 15930 27
15963 15939 28
15963 16014 33
15963 16038 72
15964 15881 59
15964 15901 186
15964 16007 82
15965 15931 24
15965 15960 49
15965 16009 24
15966 15941 175
15966 15948 20
15966 16041 47
15967 15887 54
15967 15954 29
15967 15999 41
15968 15932 28
15968 15900 59
15968 16056 62
15969 15933 31
15969 15897 77
15969 15977 6
15970 15937 84
15971 15957 11
15971 15872 97
15971 16020 32
15971 16081 107
15972 15853 71
15972 15973 37
15972 15953 72
15973 15972 37
15974 15950 19
15974 15861 96
15974 16006 24
15974 16059 76
15975 15976 578
15975 16186 147
15976 15975 578
15977 15969 6
15977 16026 28
15977 16029 45
15978 15866 86
15978 15918 65
15978 16121 108
15979 15761 138
15979 15938 118
15979 15991 90
15980 15932 47
15980 16034 37
15980 16137 99
15980 16141 120
15981 15951 31
15981 15995 158
15981 16057 76
15981 16066 87
15982 15904 87
15982 15905 59
15982 16027 32
15983 15925 50
15983 16011 52
15983 16062 61
15984 15985 100
15985 15984 100
15985 15986 56
15985 15994 70
15985 16195 131
15986 15985 56
15987 15561 346
15987 16017 61
15987 16070 55
15988 15937 32
15988 15989 36
15988 15990 112
15988 16036 92
15989 15988 36
15990 15988 112
15991 15622 233
15991 15979 90
15991 18144 1728
15992 15943 56
15993 15994 74
15994 15993 74
15994 15985 70
15994 16000 94
15994 16168 116
15995 15958 40
15995 15981 158
15995 16044 38
15996 15949 37
15996 15820 96
15996 16008 12
15997 15955 28
15997 15998 11
15997 16029 24
15997 16071 84
15998 15997 11
15999 15908 60
15999 15967 41
15999 16090 322
15999 16196 135
16000 15728 159
16000 15994 94
16000 16001 40
16000 16107 79
16001 15728 154
16001 16000 40
16001 16005 66
16001 16178 117
16002 15822 132
16002 16023 12
16002 16023 163
16003 16004 97
16004 16003 97
16004 15925 52
16004 16011 3
16005 15732 154
16005 16001 66
16005 16021 66
16005 16184 117
16006 15974 24
16006 15899 92
16006 16034 23
16006 16087 85
16007 15964 82
16007 16068 43
16007 16084 176
16008 15996 12
16008 16009 19
16009 16008 19
16009 15965 24
16009 16012 36
16009 16015 2
16010 15901 64
16010 16031 32
16010 16077 47
16011 16004 3
16011 15983 52
16011 16223 149
16012 16009 36
16012 15960 31
16012 16072 44
16013 15948 48
16013 15950 50
16013 16041 21
16014 15963 33
16014 15923 86
16014 16047 26
16014 16078 77
16015 16009 2
16016 15739 155
16016 16021 68
16016 16022 28
16017 15987 61
16018 16019 68
16018 16053 40
16019 16018 68
16019 16020 1
16020 15971 32
16020 16019 1
16020 16037 19
16021 16016 68
16021 15737 156
16021 16005 66
16021 16188 113
16022 16016 28
16023 16002 12
16023 16033 12
16023 16002 163
16024 15871 89
16024 16060 62
16024 16192 112
16025 15904 85
16026 15977 28
16026 15944 75
16026 16030 7
16027 15982 32
16027 15941 66
16027 16311 210
16028 15877 386
16028 15877 412
16028 16088 172
16029 15997 24
16029 15977 45
16029 16064 31
16029 16103 83
16030 16026 7
16031 16010 32
16031 16096 53
16031 16106 58
16032 15882 98
16032 16045 74
16032 16111 68
16033 16023 12
16034 16006 23
16034 15980 37
16034 16054 24
16034 16134 72
16035 15944 61
16036 15988 92
16037 16020 19
16037 16073 35
16037 16126 97
16038 15963 72
16038 16109 151
16038 16129 79
16039 16040 59
16040 16039 59
16041 15966 47
16041 16013 21
16041 16059 18
16042 15863 114
16042 16044 7
16042 16102 54
16043 15731 331
16044 16042 7
16044 15995 38
16044 16117 76
16045 16032 74
16045 15952 125
16046 15952 123
16046 15959 50
16046 16154 119
16047 16014 26
16047 15955 85
16047 16071 28
16047 16129 97
16048 15624 268
16048 16050 112
16048 16189 95
16049 16050 90
16050 16049 90
16050 16048 112
16050 16080 99
16051 16052 313
16051 16212 108
16052 16051 313
16052 16446 298
16053 16018 40
16053 16073 73
16053 16105 37
16054 16034 24
16054 16074 26
16054 16142 60
16055 15920 125
16056 15968 62
16056 16091 34
16056 16130 66
16057 15981 76
16057 16110 50
16057 16122 66
16058 15936 86
16058 16099 45
16058 16159 75
16059 16041 18
16059 15974 76
16059 16087 18
16060 16024 62
16060 15943 81
16060 16061 4
16061 16060 4
16061 16101 42
16061 16192 93
16062 15983 61
16063 15957 108
16063 16081 12
16063 16250 186
16064 16029 31
16064 16065 10
16064 16092 21
16064 16131 80
16065 16064 10
16066 15981 87
16067 15166 670
16067 16164 107
16068 16007 43
16068 16069 81
16068 16123 37
16068 16162 156
16069 16068 81
16069 16076 61
16070 15987 55
16070 16112 120
16070 16452 240
16071 16047 28
16071 15997 84
16071 16103 24
16071 16156 97
16072 16012 44
16073 16037 35
16073 16053 73
16073 16128 36
16073 16152 87
16074 16054 26
16074 16127 51
16074 16147 48
16075 16076 4
16075 16076 4
16075 16123 45
16076 16075 4
16076 16075 4
16076 16069 61
16077 16010 47
16077 16106 21
16077 16204 82
16078 16014 77
16079 16080 29
16080 16079 29
16080 16050 99
16080 16083 12
16080 16207 86
16081 16063 12
16081 15971 107
16081 16126 31
16081 16247 171
16082 15883 126
16083 16080 12
16084 15874 130
16084 16007 176
16084 16121 29
16085 16086 57
16086 16085 57
16086 16089 2
16086 16159 85
16087 16059 18
16087 16006 85
16087 16127 28
16088 16028 172
16088 16094 108
16088 16143 48
16089 16086 2
16089 16201 97
16089 16376 200
16090 15841 208
16090 15999 322
16090 16108 15
16091 16056 34
16091 15900 120
16091 16102 7
16092 16064 21
16092 16093 12
16092 16124 27
16092 16157 79
16093 16092 12
16094 16088 108
16094 16095 520
16094 16143 107
16094 16109 707
16095 16094 520
16096 16097 52
16096 16031 53
16096 16146 40
16097 16096 52
16097 16133 61
16098 15914 133
16099 16058 45
16099 16100 158
16099 16135 49
16100 16099 158
16101 16061 42
16102 16091 7
16102 16042 54
16102 16117 23
16102 16158 52
16103 16071 24
16103 16029 83
16103 16131 27
16103 16198 99
16104 15898 131
16104 15896 132
16104 16580 369
16104 16583 369
16105 16053 37
16105 16128 66
16105 16155 37
16106 16031 58
16106 16077 21
16106 16219 88
16107 16000 79
16107 16168 81
16107 16174 46
16108 16090 15
16108 16253 92
16109 16038 151
16109 16176 127
16109 16094 707
16110 16057 50
16110 16150 46
16110 16179 67
16111 16032 68
16111 16238 250
16111 16258 151
16112 16070 120
16113 15910 151
16113 16340 139
16113 16378 224
16114 14890 787
16114 18084 1751
16115 16116 162
16116 16115 162
16117 16102 23
16117 16044 76
16117 16173 63
16117 16175 54
16118 16119 23
16119 16118 23
16119 16120 20
16119 16160 31
16120 16119 20
16121 15978 108
16121 16084 29
16121 16162 68
16121 16343 284
16122 16057 66
16122 16173 49
16122 16179 56
16123 16068 37
16123 16075 45
16123 16185 145
16124 16092 27
16124 16125 8
16124 16199 79
16125 16124 8
16126 16081 31
16126 16037 97
16126 16172 33
16127 16087 28
16127 16074 51
16127 16170 40
16128 16073 36
16128 16105 66
16128 16181 38
16128 16218 95
16129 16038 79
16129 16047 97
16129 16156 27
16129 16169 41
16130 16056 66
16130 16139 9
16130 16206 50
16131 16103 27
16131 16064 80
16131 16157 24
16131 16227 101
16132 16133 52
16132 16230 74
16133 16132 52
16133 16097 61
16133 16237 73
16134 16034 72
16134 16136 12
16134 16138 13
16135 16099 49
16135 15818 292
16135 16153 20
16136 16134 12
16136 16137 7
16136 16281 90
16137 16136 7
16137 15980 99
16137 16140 19
16138 16134 13
16138 16142 6
16138 16249 68
16139 16130 9
16139 16141 12
16139 16246 66
16140 16137 19
16140 16141 4
16140 16291 91
16141 16140 4
16141 15980 120
16141 16139 12
16142 16054 60
16142 16138 6
16142 16170 40
16143 16088 48
16143 16094 107
16143 16222 357
16144 16145 182
16145 16144 182
16145 16210 47
16145 16232 134
16146 16096 40
16146 16219 53
16146 16251 75
16147 16074 48
16148 15942 277
16149 15910 228
16150 16110 46
16150 16151 35
16150 16202 38
16150 16231 66
16151 16150 35
16152 16073 87
16152 16172 24
16152 16218 40
16153 16135 20
16153 15822 293
16153 16264 126
16154 16046 119
16154 16161 5
16154 16217 136
16155 16105 37
16155 16181 63
16155 16216 35
16156 16129 27
16156 16071 97
16156 16177 20
16156 16198 25
16157 16131 24
16157 16092 79
16157 16199 26
16157 16252 93
16158 16102 52
16158 16175 16
16158 16206 36
16159 16086 85
16159 16058 75
16159 16240 53
16160 16119 31
16160 16171 41
16160 16208 136
16161 16154 5
16161 16165 51
16161 16439 188
16162 16121 68
16162 16068 156
16162 16185 27
16163 15398 705
16163 15921 530
16163 17481 1078
16164 16067 107
16164 16255 55
16164 16431 219
16165 16166 244
16165 15953 324
16165 16161 51
16166 16165 244
16167 15838 212
16167 16902 826
16168 16107 81
16168 15994 116
16168 16195 78
16168 16396 136
16169 16129 41
16169 16286 103
16170 16127 40
16170 16142 40
16170 16208 24
16171 16160 41
16171 16183 36
16171 16213 23
16172 16126 33
16172 16152 24
16172 16211 81
16172 16239 40
16173 16117 63
16173 16122 49
16173 16229 53
16173 16256 60
16174 16107 46
16174 16178 70
16174 16399 134
16175 16158 16
16175 16117 54
16175 16256 71
16176 16109 127
16176 16214 27
16176 16267 77
16177 16156 20
16178 16001 117
16178 16174 70
16178 16184 64
16178 16403 136
16179 16122 56
16179 16110 67
16179 16229 43
16179 16231 48
16180 15940 154
16180 16191 74
16180 16388 125
16181 16128 38
16181 16155 63
16181 16242 38
16181 16277 97
16182 16183 67
16182 16194 87
16183 16182 67
16183 16171 36
16183 16194 33
16184 16005 117
16184 16178 64
16184 16188 69
16184 16411 136
16185 16162 27
16185 16123 145
16185 16205 34
16186 15975 147
16186 16187 67
16186 16282 73
16187 16186 67
16188 16021 113
16188 16184 69
16188 16203 132
16188 16315 78
16189 16048 95
16189 16245 97
16189 16402 140
16190 16191 84
16191 16190 84
16191 16180 74
16191 16195 59
16191 16393 125
16192 16024 112
16192 16061 93
16192 16592 465
16193 15557 424
16193 15961 152
16193 16204 15
16193 17287 818
16194 16182 87
16194 16183 33
16194 16197 8
16195 15985 131
16195 16191 59
16195 16168 78
16195 16398 124
16196 15999 135
16196 16236 74
16196 16248 35
16197 16194 8
16198 16156 25
16198 16103 99
16198 16209 16
16198 16227 26
16199 16157 26
16199 16124 79
16199 16290 93
16199 16378 391
16200 16201 85
16201 16200 85
16201 16089 97
16201 16387 145
16202 16150 38
16202 16284 65
16203 16188 132
16203 16212 66
16203 16346 85
16204 16077 82
16204 16193 15
16204 16228 83
16204 16472 169
16205 16185 34
16205 16215 40
16205 16292 52
16206 16130 50
16206 16158 36
16206 16246 32
16207 16080 86
16207 16282 104
16207 16295 57
16208 16160 136
16208 16170 24
16208 16249 34
16209 16198 16
16210 16145 47
16210 16288 92
16210 16419 137
16211 16172 81
16211 16268 37
16211 16294 79
16212 16051 108
16212 16203 66
16212 16364 90
16213 16171 23
16213 16220 42
16213 16261 31
16214 16176 27
16214 16263 32
16214 16296 67
16215 16205 40
16215 16230 77
16216 16155 35
16216 16242 65
16216 16272 36
16217 16154 136
16217 16278 84
16217 16306 55
16218 16152 40
16218 16128 95
16218 16260 26
16219 16146 53
16219 16106 88
16219 16228 6
16220 16213 42
16220 16224 35
16220 16321 61
16221 16222 280
16222 16221 280
16222 16143 357
16222 16316 274
16223 16011 149
16223 16241 14
16223 16325 79
16224 16220 35
16224 16333 65
16225 16226 27
16225 16279 43
16226 16225 27
16226 16243 30
16226 16293 42
16227 16198 26
16227 16131 101
16227 16235 8
16227 16301 52
16228 16219 6
16228 16204 83
16228 16257 38
16229 16173 53
16229 16179 43
16229 16285 48
16229 16309 56
16230 16215 77
16230 16132 74
16230 16237 50
16231 16179 48
16231 16150 66
16231 16284 44
16231 16285 45
16232 16145 134
16233 16234 262
16234 16233 262
16234 16255 40
16234 16307 47
16235 16227 8
16236 16196 74
16236 15954 202
16236 16288 43
16237 16230 50
16237 16133 73
16237 16251 54
16238 16111 250
16239 16172 40
16239 16268 74
16239 16269 18
16240 16159 53
16240 16280 55
16240 16313 49
16241 16223 14
16241 16297 79
16241 16337 59
16242 16181 38
16242 16216 65
16242 16305 38
16242 16345 96
16243 16226 30
16243 16270 29
16243 16308 42
16244 16245 55
16245 16244 55
16245 16189 97
16245 16295 79
16245 16443 124
16246 16139 66
16246 16206 32
16246 16291 40
16247 16081 171
16247 16266 17
16247 16294 29
16248 16196 35
16248 16459 147
16248 16520 289
16249 16208 34
16249 16138 68
16249 16281 29
16250 16063 186
16250 16266 10
16250 16377 123
16251 16237 54
16251 16146 75
16251 16257 24
16252 16157 93
16253 16108 92
16253 16254 56
16253 16406 130
16254 16253 56
16255 16164 55
16255 16234 40
16255 16347 57
16256 16175 71
16256 16173 60
16256 16309 53
16256 16360 77
16257 16251 24
16257 16228 38
16257 16332 48
16258 16111 151
16258 16259 51
16258 16262 9
16259 16258 51
16260 16218 26
16260 16269 27
16260 16277 11
16261 16213 31
16261 16279 84
16261 16317 35
16262 16258 9
16262 16271 71
16262 16278 27
16263 16214 32
16263 16357 92
16264 16153 126
16264 16265 95
16264 16283 29
16264 16353 75
16265 16264 95
16266 16250 10
16266 16247 17
16266 16314 31
16266 16444 173
16267 16176 77
16267 16287 15
16267 16357 54
16268 16211 37
16268 16239 74
16268 16328 39
16268 16358 78
16269 16239 18
16269 16260 27
16269 16302 16
16270 16243 29
16270 16320 33
16270 16350 75
16271 16262 71
16272 16216 36
16272 16305 62
16272 16343 40
16273 16274 86
16274 16273 86
16274 16276 21
16274 16287 170
16275 16276 82
16276 16275 82
16276 16274 21
16276 16289 43
16277 16260 11
16277 16181 97
16277 16345 40
16278 16262 27
16278 16217 84
16278 16646 409
16279 16261 84
16279 16225 43
16279 16293 22
16280 16240 55
16280 16355 84
16280 16365 54
16281 16249 29
16281 16136 90
16281 16303 14
16282 16186 73
16282 16207 104
16282 16344 58
16283 16264 29
16283 16312 37
16283 16352 89
16284 16231 44
16284 16202 65
16284 16342 42
16285 16229 48
16285 16231 45
16285 16342 49
16285 16362 52
16286 16169 103
16287 16274 170
16287 16267 15
16287 16695 342
16288 16236 43
16288 16210 92
16288 16436 89
16289 16276 43
16290 16199 93
16291 16140 91
16291 16246 40
16291 16303 16
16292 16205 52
16292 16304 75
16292 16373 51
16293 16279 22
16293 16226 42
16293 16308 28
16294 16247 29
16294 16211 79
16294 16314 22
16294 16358 42
16295 16207 57
16295 16245 79
16295 16344 75
16295 16466 113
16296 16214 67
16297 16241 79
16297 16298 90
16297 16322 20
16298 16297 90
16299 16300 28
16299 16341 132
16299 16574 325
16300 16299 28
16301 16227 52
16302 16269 16
16302 16328 68
16302 16361 37
16303 16281 14
16303 16291 16
16303 16331 25
16304 16292 75
16304 16323 114
16304 16389 54
16305 16242 38
16305 16272 62
16305 16382 102
16306 16217 55
16306 16439 89
16307 16234 47
16307 16325 22
16307 16347 43
16308 16293 28
16308 16243 42
16308 16319 13
16309 16256 53
16309 16229 56
16309 16362 48
16309 16409 79
16310 16311 185
16311 16310 185
16311 16027 210
16311 16475 113
16312 16283 37
16312 16394 62
16312 16493 124
16313 16240 49
16313 16365 55
16314 16266 31
16314 16294 22
16314 16354 25
16315 16188 78
16315 16346 137
16315 16417 59
16316 16222 274
16316 16336 139
16316 16929 917
16317 16261 35
16317 16318 22
16317 16321 41
16318 16317 22
16319 16308 13
16319 16324 10
16320 16270 33
16320 16371 43
16320 16401 66
16321 16220 61
16321 16317 41
16321 16333 34
16322 16297 20
16322 16380 71
16322 16384 40
16323 16304 114
16323 16332 42
16323 16413 53
16324 16319 10
16324 16351 56
16324 16374 32
16325 16307 22
16325 16223 79
16325 16370 35
16326 16327 9
16326 16452 136
16326 16575 166
16327 16326 9
16327 16334 82
16328 16268 39
16328 16302 68
16328 16383 36
16328 16410 78
16329 16330 93
16330 16329 93
16331 16303 25
16331 16350 14
16331 16375 31
16332 16323 42
16332 16257 48
16332 16379 31
16333 16224 65
16333 16321 34
16334 16335 144
16334 16327 82
16334 16363 15
16335 16334 144
16336 15712 660
16336 16316 139
16336 16561 394
16337 16241 59
16337 16370 26
16337 16380 50
16338 16339 53
16338 16464 157
16339 16338 53
16339 16379 142
16340 16113 139
16340 16378 222
16341 16299 132
16342 16285 49
16342 16284 42
16342 16387 49
16342 16412 52
16343 16272 40
16343 16121 284
16343 16392 33
16344 16282 58
16344 16295 75
16344 16486 102
16345 16277 40
16345 16242 96
16345 16382 25
16346 16203 85
16346 16315 137
16346 16364 82
16347 16255 57
16347 16307 43
16347 16480 109
16348 16349 68
16349 16348 68
16350 16270 75
16350 16331 14
16350 16401 43
16351 16324 56
16351 16429 46
16352 16283 89
16352 16377 148
16352 16400 40
16353 16264 75
16353 16465 135
16354 16314 25
16354 16395 69
16354 16430 43
16355 16280 84
16355 16356 70
16355 16432 50
16356 16355 70
16357 16267 54
16357 16263 92
16357 16390 30
16357 16695 524
16358 16294 42
16358 16268 78
16358 16414 34
16359 16360 42
16359 16375 71
16360 16359 42
16360 16256 77
16360 16409 54
16360 16440 61
16361 16302 37
16361 16383 62
16361 16397 25
16362 16309 48
16362 16285 52
16362 16412 48
16362 16458 79
16363 16334 15
16363 16550 165
16363 16582 152
16364 16212 90
16364 16346 82
16365 16313 55
16365 16280 54
16365 16424 42
16365 16432 84
16366 16367 27
16366 16368 131
16366 16501 103
16367 16366 27
16368 16366 131
16369 15157 2289
16370 16325 35
16370 16337 26
16370 16480 96
16371 16320 43
16371 16374 7
16371 16381 15
16372 16373 28
16372 16373 28
16372 16451 53
16373 16372 28
16373 16372 28
16373 16292 51
16373 16389 79
16374 16324 32
16374 16371 7
16374 16429 105
16375 16331 31
16375 16359 71
16375 16467 60
16376 16089 200
16376 16420 42
16376 16447 58
16377 16250 123
16377 16352 148
16377 16404 102
16378 16113 224
16378 16199 391
16378 16340 222
16378 16566 133
16379 16332 31
16379 16339 142
16379 16423 24
16380 16337 50
16380 16322 71
16380 16426 29
16381 16371 15
16381 16456 50
16382 16345 25
16382 16305 102
16382 16397 30
16383 16328 36
16383 16361 62
16383 16449 38
16383 16469 85
16384 16322 40
16384 16385 4
16384 16552 125
16385 16384 4
16385 16386 119
16385 16407 33
16386 16385 119
16387 16342 49
16387 16201 145
16387 16447 50
16387 16461 53
16388 16180 125
16388 16393 68
16388 16580 132
16389 16373 79
16389 16304 54
16389 16413 116
16389 16473 51
16390 16357 30
16390 16391 81
16390 16543 150
16391 16390 81
16392 16343 33
16392 16499 79
16392 16671 416
16393 16191 125
16393 16388 68
16393 16398 72
16393 16589 134
16394 16312 62
16394 16438 24
16394 16530 98
16395 16354 69
16395 16455 38
16395 16471 75
16396 16168 136
16396 16398 64
16396 16399 64
16396 16599 138
16397 16361 25
16397 16382 30
16397 16421 12
16398 16396 64
16398 16195 124
16398 16393 72
16398 16593 135
16399 16174 134
16399 16396 64
16399 16403 71
16399 16604 138
16400 16352 40
16400 16404 18
16400 16438 36
16401 16320 66
16401 16350 43
16401 16448 60
16402 16189 140
16402 16443 100
16402 16450 30
16403 16178 136
16403 16399 71
16403 16411 64
16403 16609 139
16404 16400 18
16404 16377 102
16404 16418 11
16405 16406 182
16406 16405 182
16406 16253 130
16406 16452 98
16406 16545 102
16407 16385 33
16407 16408 52
16407 16515 98
16408 16407 52
16409 16360 54
16409 16309 79
16409 16458 48
16409 16485 67
16410 16328 78
16410 16414 5
16410 16469 39
16411 16184 136
16411 16403 64
16411 16417 66
16411 16619 139
16412 16362 48
16412 16342 52
16412 16461 51
16412 16495 77
16413 16389 116
16413 16323 53
16413 16415 16
16414 16358 34
16414 16410 5
16414 16430 24
16415 16413 16
16415 16416 4
16415 16423 31
16415 16491 53
16416 16415 4
16417 16315 59
16417 16411 66
16417 16422 69
16417 16625 140
16418 16404 11
16418 16477 43
16419 16210 137
16419 16428 22
16419 16669 289
16420 16376 42
16420 16457 51
16420 16570 126
16421 16397 12
16421 16449 58
16421 16468 32
16422 16417 69
16422 16425 66
16422 16630 140
16423 16415 31
16423 16379 24
16423 16464 28
16424 16365 42
16424 16476 41
16424 16482 84
16425 16422 66
16425 16433 66
16425 16633 141
16426 16380 29
16427 16428 47
16427 16436 56
16428 16427 47
16428 16419 22
16428 16539 89
16429 16351 46
16429 16374 105
16430 16354 43
16430 16414 24
16430 16455 68
16430 16478 38
16431 16164 219
16431 16462 129
16431 16560 100
16432 16365 84
16432 16355 50
16432 16441 6
16433 16425 66
16433 16437 67
16433 16637 142
16434 16435 31
16434 16503 83
16435 16434 31
16435 16453 32
16435 16514 77
16436 16288 89
16436 16427 56
16436 16459 110
16436 16539 168
16437 16433 67
16437 16442 68
16437 16643 142
16438 16394 24
16438 16400 36
16438 16460 18
16439 16306 89
16439 16161 188
16439 16810 382
16440 16360 61
16440 16467 28
16440 16485 54
16441 16432 6
16441 16465 104
16441 16482 37
16442 16437 68
16442 16445 71
16442 16644 143
16443 16245 124
16443 16402 100
16443 16466 78
16443 16598 121
16444 16266 173
16444 16477 48
16444 16513 65
16444 16519 101
16445 16442 71
16445 16446 24
16445 16649 143
16446 16052 298
16446 16445 24
16446 16450 133
16446 16658 167
16447 16387 50
16447 16376 58
16448 16401 60
16448 16500 61
16449 16383 38
16449 16421 58
16449 16492 37
16449 16504 88
16450 16402 30
16450 16446 133
16450 16715 194
16451 16372 53
16451 16454 28
16451 16473 116
16452 16326 136
16452 16070 240
16452 16406 98
16452 16588 98
16453 16435 32
16453 16470 30
16453 16535 71
16454 16451 28
16454 16600 143
16455 16395 38
16455 16430 68
16455 16497 37
16455 16507 77
16456 16381 50
16457 16420 51
16457 16476 28
16457 16621 129
16458 16409 48
16458 16362 79
16458 16495 47
16458 16511 65
16459 16248 147
16459 16436 110
16459 16798 406
16460 16438 18
16460 16494 70
16460 16530 59
16461 16412 51
16461 16387 53
16461 16479 20
16462 16463 100
16462 16431 129
16462 16490 22
16463 16462 100
16464 16423 28
16464 16338 157
16464 16491 50
16464 16584 89
16465 16353 135
16465 16441 104
16465 16493 75
16466 16295 113
16466 16443 78
16466 16486 74
16466 16578 87
16467 16375 60
16467 16440 28
16467 16536 61
16468 16421 32
16468 16492 51
16469 16410 39
16469 16383 85
16469 16504 37
16470 16453 30
16470 16481 52
16470 16540 64
16471 16395 75
16471 16507 38
16472 16204 169
16472 16484 9
16472 16571 89
16473 16451 116
16473 16389 51
16473 16491 132
16473 16531 50
16474 16475 139
16475 16474 139
16475 16311 113
16475 16532 95
16476 16457 28
16476 16424 41
16476 16487 23
16477 16418 43
16477 16444 48
16477 16494 21
16478 16430 38
16478 16497 60
16478 16516 37
16479 16461 20
16479 16534 58
16479 16568 109
16480 16347 109
16480 16370 96
16480 16529 90
16480 16552 90
16481 16470 52
16481 16488 28
16481 16563 65
16482 16424 84
16482 16441 37
16482 16505 33
16483 16484 77
16483 16544 80
16484 16483 77
16484 16472 9
16484 16518 34
16485 16440 54
16485 16409 67
16485 16511 48
16485 16536 52
16486 16344 102
16486 16466 74
16486 16592 76
16487 16476 23
16487 16510 48
16487 16648 127
16488 16481 28
16488 16489 2
16488 16496 28
16488 16573 64
16489 16488 2
16490 16462 22
16490 16498 137
16491 16415 53
16491 16464 50
16491 16473 132
16491 16548 45
16492 16449 37
16492 16468 51
16492 16569 90
16493 16465 75
16493 16312 124
16493 16559 47
16494 16477 21
16494 16460 70
16494 16519 32
16495 16458 47
16495 16412 77
16495 16534 48
16495 16564 65
16496 16488 28
16496 16500 37
16496 16585 63
16497 16455 37
16497 16478 60
16497 16538 35
16497 16565 82
16498 16490 137
16499 16392 79
16499 16600 155
16499 16613 71
16500 16496 37
16500 16448 61
16500 16502 3
16501 16366 103
16501 15912 1117
16501 16542 230
16502 16500 3
16503 16434 83
16503 16512 26
16504 16469 37
16504 16449 88
16504 16526 31
16505 16506 7
16505 16482 33
16505 16559 209
16506 16505 7
16506 16510 11
16506 16572 42
16507 16471 38
16507 16455 77
16507 16525 11
16508 16509 14
16508 16531 111
16508 16626 66
16509 16508 14
16509 16603 72
16510 16487 48
16510 16506 11
16510 16690 124
16511 16485 48
16511 16458 65
16511 16564 46
16511 16639 93
16512 16503 26
16512 16514 4
16512 16657 92
16513 16444 65
16513 16537 13
16513 16627 134
16514 16512 4
16514 16435 77
16514 16535 30
16515 16407 98
16516 16478 37
16516 16526 5
16516 16538 55
16517 16518 67
16518 16517 67
16518 16484 34
16518 16567 28
16519 16494 32
16519 16444 101
16519 16547 21
16520 16248 289
16521 16522 95
16522 16521 95
16522 16523 38
16522 16557 46
16523 16522 38
16523 16524 85
16523 16527 37
16524 16523 85
16525 16507 11
16525 16537 26
16525 16565 23
16525 16565 23
16526 16516 5
16526 16504 31
16526 16581 33
16527 16523 37
16527 16528 68
16527 16532 43
16528 16527 68
16529 16480 90
16529 16560 75
16529 16577 30
16530 16394 98
16530 16460 59
16530 16547 38
16530 16559 64
16530 16601 43
16531 16508 111
16531 16473 50
16531 16541 108
16531 16629 58
16532 16527 43
16532 16533 38
16532 16475 95
16532 16689 104
16533 16532 38
16534 16495 48
16534 16479 58
16534 16618 63
16535 16514 30
16535 16453 71
16535 16540 33
16535 16652 76
16536 16467 61
16536 16485 52
16536 16639 62
16537 16513 13
16537 16525 26
16537 16576 24
16538 16497 35
16538 16516 55
16538 16562 20
16539 16428 89
16539 16436 168
16539 16596 42
16540 16535 33
16540 16470 64
16540 16563 53
16541 16531 108
16541 16548 24
16541 16629 164
16542 16501 230
16542 16561 13
16542 16809 249
16543 16390 150
16544 16483 80
16544 16567 126
16544 16584 33
16545 16406 102
16545 16546 165
16545 16588 102
16545 16659 69
16546 16545 165
16547 16519 21
16547 16530 38
16547 16601 50
16548 16541 24
16548 16491 45
16548 16549 10
16549 16548 10
16550 16551 22
16550 16363 165
16550 16582 81
16551 16550 22
16551 16597 104
16551 16881 248
16552 16480 90
16552 16384 125
16552 16579 17
16553 16554 76
16554 16553 76
16554 16555 122
16554 16566 58
16555 16554 122
16556 16557 114
16557 16556 114
16557 16558 89
16557 16522 46
16557 17009 940
16558 16557 89
16559 16493 47
16559 16530 64
16559 16505 209
16559 16653 60
16560 16431 100
16560 16529 75
16560 16651 67
16561 16542 13
16561 16336 394
16561 17091 1050
16562 16538 20
16562 16614 46
16562 16631 39
16563 16540 53
16563 16481 65
16563 16573 31
16563 16716 125
16564 16511 46
16564 16495 65
16564 16618 50
16564 16698 114
16565 16525 23
16565 16525 23
16565 16497 82
16565 16628 38
16566 16554 58
16566 16378 133
16566 17449 948
16567 16544 126
16567 16518 28
16567 16571 55
16567 16620 30
16568 16479 109
16568 16570 8
16568 16692 111
16569 16492 90
16569 16581 39
16570 16568 8
16570 16420 126
16570 16608 42
16571 16567 55
16571 16472 89
16571 16632 37
16572 16506 42
16572 16635 69
16573 16563 31
16573 16488 64
16573 16585 28
16573 16634 34
16574 16299 325
16575 16326 166
16575 16582 94
16575 16636 35
16576 16537 24
16576 16641 40
16576 16681 136
16577 16529 30
16577 16642 53
16577 16660 79
16578 16466 87
16578 16607 84
16578 16709 97
16579 16552 17
16579 16606 17
16579 16728 187
16580 16388 132
16580 16104 369
16580 16583 2
16580 16589 72
16581 16526 33
16581 16569 39
16581 16591 8
16581 16631 70
16582 16550 81
16582 16363 152
16582 16575 94
16582 16724 100
16583 16580 2
16583 16104 369
16583 16595 72
16583 16597 8
16584 16464 89
16584 16544 33
16584 16590 3
16585 16573 28
16585 16496 63
16585 16594 25
16585 16680 62
16586 16587 30
16586 16670 58
16587 16586 30
16587 16656 55
16588 16452 98
16588 16545 102
16588 16636 103
16588 16860 198
16589 16393 134
16589 16580 72
16589 16593 63
16589 16595 3
16590 16584 3
16590 16620 147
16590 16640 32
16591 16581 8
16591 16638 26
16591 16718 148
16592 16192 465
16592 16486 76
16592 16607 15
16593 16398 135
16593 16589 63
16593 16599 71
16593 16602 5
16594 16585 25
16595 16589 3
16595 16583 72
16595 16602 63
16595 16762 141
16596 16539 42
16597 16583 8
16597 16551 104
16597 16756 134
16598 16443 121
16599 16396 138
16599 16593 71
16599 16604 62
16599 16610 6
16600 16499 155
16600 16454 143
16600 16605 4
16600 16605 4
16601 16530 43
16601 16547 50
16601 16653 60
16601 16697 66
16602 16593 5
16602 16595 63
16602 16610 71
16602 16767 139
16603 16509 72
16603 16626 51
16603 16674 52
16604 16399 138
16604 16599 62
16604 16622 7
16604 16622 386
16605 16600 4
16605 16600 4
16605 16682 54
16606 16579 17
16606 16765 138
16606 16771 189
16607 16592 15
16607 16578 84
16607 16709 135
16608 16570 42
16608 16621 8
16608 16723 122
16609 16403 139
16609 16619 65
16609 16782 147
16610 16599 6
16610 16602 71
16610 16615 29
16610 16772 138
16611 16612 33
16611 16667 49
16612 16611 33
16612 16613 4
16612 16691 53
16613 16612 4
16613 16499 71
16613 16623 10
16614 16562 46
16614 16628 10
16615 16610 29
16615 16622 32
16616 16617 7
16616 16645 69
16617 16616 7
16617 16645 140
16617 16661 80
16618 16564 50
16618 16534 63
16618 16727 129
16619 16411 139
16619 16609 65
16619 16625 66
16619 16775 138
16620 16590 147
16620 16567 30
16620 16632 76
16620 16662 30
16621 16608 8
16621 16457 129
16621 16647 44
16622 16604 7
16622 16615 32
16622 16604 386
16622 16781 140
16623 16613 10
16623 16624 40
16623 16650 50
16624 16623 40
16625 16417 140
16625 16619 66
16625 16630 68
16625 16792 145
16626 16508 66
16626 16603 51
16626 16629 105
16627 16513 134
16627 16681 39
16628 16565 38
16628 16614 10
16628 16641 37
16629 16626 105
16629 16531 58
16629 16541 164
16629 16675 37
16630 16422 140
16630 16625 68
16630 16633 61
16630 16795 143
16631 16562 39
16631 16581 70
16632 16620 76
16632 16571 37
16632 16673 35
16633 16425 141
16633 16630 61
16633 16637 67
16633 16801 145
16634 16573 34
16635 16572 69
16635 16665 69
16635 16708 95
16636 16575 35
16636 16588 103
16637 16433 142
16637 16633 67
16637 16643 71
16637 16806 144
16638 16591 26
16638 16671 28
16639 16536 62
16639 16511 93
16639 16694 43
16640 16590 32
16640 16662 153
16640 16677 26
16641 16576 40
16641 16628 37
16641 16717 136
16642 16577 53
16643 16437 142
16643 16637 71
16643 16644 68
16643 16805 140
16644 16442 143
16644 16643 68
16644 16649 70
16644 16818 143
16645 16617 140
16645 16616 69
16645 16666 50
16646 16278 409
16647 16621 44
16647 16648 6
16647 16742 128
16648 16647 6
16648 16487 127
16648 16690 47
16649 16445 143
16649 16644 70
16649 16663 68
16649 16827 145
16650 16623 50
16650 16682 52
16650 16712 51
16651 16560 67
16651 16660 10
16651 16711 66
16652 16535 76
16652 16657 42
16652 16664 34
16653 16559 60
16653 16601 60
16653 16678 31
16654 16655 15
16654 16668 10
16655 16654 15
16656 16587 55
16657 16512 92
16657 16652 42
16657 16670 49
16658 16446 167
16658 16663 39
16658 16696 33
16659 16545 69
16660 16651 10
16660 16577 79
16660 16728 77
16661 16617 80
16661 16667 14
16661 16719 55
16662 16640 153
16662 16620 30
16662 16673 96
16662 16699 29
16663 16658 39
16663 16649 68
16663 16845 145
16664 16652 34
16664 16785 129
16665 16635 69
16665 16701 63
16665 16740 126
16666 16645 50
16666 16672 27
16666 16704 34
16667 16661 14
16667 16611 49
16667 16691 31
16668 16654 10
16668 16672 5
16669 16419 289
16670 16586 58
16670 16657 49
16670 16734 61
16671 16638 28
16671 16392 416
16671 16700 22
16672 16668 5
16672 16666 27
16672 16813 125
16673 16662 96
16673 16632 35
16673 16710 35
16674 16603 52
16674 16729 87
16674 16804 124
16675 16629 37
16675 16729 108
16676 16677 62
16677 16676 62
16677 16640 26
16677 16699 151
16677 16707 26
16678 16679 58
16678 16653 31
16678 16701 32
16679 16678 58
16680 16585 62
16681 16627 39
16681 16576 136
16681 16717 37
16682 16650 52
16682 16605 54
16682 16774 99
16683 16684 80
16684 16683 80
16684 16685 38
16685 16684 38
16685 16686 83
16685 16687 38
16686 16685 83
16687 16685 38
16687 16688 82
16687 16689 69
16688 16687 82
16689 16687 69
16689 16532 104
16690 16648 47
16690 16510 124
16690 16708 51
16690 16739 85
16691 16667 31
16691 16612 53
16691 16693 10
16691 16693 10
16692 16568 111
16692 16723 52
16692 16731 110
16693 16691 10
16693 16691 10
16693 16712 56
16693 16732 51
16694 16639 43
16694 16698 7
16694 16746 126
16695 16287 342
16695 16357 524
16695 16766 96
16696 16658 33
16696 16715 25
16696 16842 119
16697 16601 66
16697 16763 74
16697 16876 219
16698 16694 7
16698 16564 114
16698 16727 32
16699 16677 151
16699 16662 29
16699 16710 116
16699 16730 28
16700 16671 22
16700 16773 77
16701 16665 63
16701 16678 32
16701 16796 141
16702 16703 42
16703 16702 42
16703 16910 165
16704 16666 34
16704 16705 95
16704 16741 56
16705 16704 95
16706 16707 143
16707 16706 143
16707 16677 26
16707 16713 5
16708 16690 51
16708 16635 95
16708 16714 11
16709 16607 135
16709 16578 97
16709 16733 30
16710 16699 116
16710 16673 35
16710 16738 34
16711 16651 66
16711 16721 60
16711 16728 110
16712 16693 56
16712 16650 51
16712 16750 50
16713 16707 5
16713 16730 150
16713 16736 27
16714 16708 11
16714 16740 49
16714 16777 99
16715 16450 194
16715 16696 25
16715 16823 91
16716 16563 125
16717 16681 37
16717 16641 136
16718 16591 148
16718 16749 40
16719 16720 46
16719 16661 55
16719 16725 7
16720 16719 46
16720 16741 89
16720 16780 94
16721 16722 96
16721 16711 60
16721 16726 79
16721 16906 217
16722 16721 96
16723 16692 52
16723 16608 122
16723 16742 52
16723 16768 69
16724 16582 100
16725 16719 7
16725 16732 47
16725 16861 138
16726 16721 79
16727 16698 32
16727 16618 129
16727 16854 114
16728 16660 77
16728 16579 187
16728 16711 110
16728 16869 160
16729 16674 87
16729 16675 108
16729 16793 93
16730 16713 150
16730 16699 28
16730 16738 136
16730 16745 30
16731 16692 110
16731 16768 89
16731 16854 90
16732 16725 47
16732 16693 51
16732 16737 10
16733 16709 30
16733 16803 131
16733 16812 69
16734 16670 61
16735 16736 172
16736 16735 172
16736 16713 27
16736 16745 150
16736 16759 27
16737 16732 10
16737 16750 48
16737 16911 175
16738 16730 136
16738 16710 34
16738 16885 112
16739 16690 85
16739 16777 53
16739 16783 54
16740 16714 49
16740 16665 126
16740 16796 59
16740 16832 92
16741 16704 56
16741 16720 89
16741 16780 34
16742 16723 52
16742 16647 128
16742 16783 47
16742 16814 68
16743 16744 30
16743 16752 33
16743 16819 57
16744 16743 30
16744 16748 48
16745 16736 150
16745 16730 30
16745 16758 101
16745 16788 28
16746 16694 126
16746 16747 99
16746 16757 21
16747 16746 99
16748 16744 48
16748 16751 30
16748 16824 48
16749 16718 40
16749 16764 44
16749 16955 143
16750 16737 48
16750 16712 50
16750 16774 46
16750 16971 206
16751 16748 30
16751 16753 30
16751 16843 55
16752 16743 33
16752 16776 30
16752 16840 152
16752 16856 72
16753 16751 30
16753 16759 45
16753 16802 31
16754 16755 335
16755 16754 335
16755 16807 33
16755 16848 117
16756 16597 134
16756 16762 67
16756 16897 91
16757 16746 21
16758 16745 101
16759 16753 45
16759 16736 27
16759 16788 149
16759 16811 31
16760 16761 78
16760 16773 48
16760 16875 69
16761 16760 78
16762 16595 141
16762 16756 67
16762 16767 68
16762 16928 108
16763 16697 74
16763 16839 47
16763 16913 160
16764 16749 44
16764 16770 54
16764 16836 43
16765 16606 138
16765 16771 85
16765 16919 111
16766 16695 96
16766 16838 72
16766 17084 267
16767 16602 139
16767 16762 68
16767 16772 70
16767 16973 141
16768 16731 89
16768 16769 5
16768 16723 69
16768 16814 47
16768 16890 109
16769 16768 5
16770 16764 54
16770 16817 47
16770 16853 47
16771 16765 85
16771 16606 189
16771 16778 6
16772 16610 138
16772 16767 70
16772 16781 64
16772 16977 140
16773 16700 77
16773 16760 48
16773 16898 82
16774 16750 46
16774 16682 99
16774 16804 53
16774 16895 82
16775 16619 138
16775 16782 57
16775 16792 72
16775 16984 145
16776 16752 30
16776 16871 89
16776 17064 241
16777 16739 53
16777 16714 99
16777 16832 48
16778 16771 6
16778 16779 79
16778 16866 51
16779 16778 79
16780 16741 34
16780 16720 94
16780 16813 51
16780 16861 52
16780 16980 146
16781 16622 140
16781 16772 64
16781 16782 74
16781 16979 137
16782 16775 57
16782 16609 147
16782 16781 74
16782 16982 139
16783 16742 47
16783 16739 54
16783 16864 70
16783 16872 85
16784 16785 72
16785 16784 72
16785 16664 129
16785 16791 5
16785 16865 61
16785 16944 143
16786 16787 36
16786 16847 92
16786 16855 37
16787 16786 36
16787 16794 116
16787 16844 69
16788 16759 149
16788 16745 28
16788 16797 81
16788 16857 36
16789 16790 49
16789 16823 78
16789 16920 89
16790 16789 49
16791 16785 5
16792 16625 145
16792 16775 72
16792 16795 67
16792 16991 138
16793 16729 93
16793 16820 34
16793 16840 34
16794 16787 116
16795 16630 143
16795 16792 67
16795 16801 65
16795 16994 141
16796 16740 59
16796 16701 141
16796 16876 55
16796 16884 87
16797 16788 81
16797 16926 85
16798 16459 406
16798 16800 123
16798 16917 81
16799 16800 44
16800 16799 44
16800 16798 123
16800 16822 83
16800 16925 81
16801 16633 145
16801 16795 65
16801 16806 74
16801 16997 137
16802 16753 31
16802 16811 47
16802 16841 19
16803 16733 131
16803 16825 17
16803 16883 109
16804 16774 53
16804 16674 124
16804 16820 21
16805 16643 140
16805 16806 62
16805 16818 76
16805 17007 145
16806 16805 62
16806 16637 144
16806 16801 74
16806 17003 141
16807 16755 33
16807 16808 113
16807 16849 22
16808 16807 113
16809 16542 249
16810 16439 382
16810 16833 23
16810 16862 32
16811 16802 47
16811 16759 31
16811 16826 92
16811 16852 21
16812 16733 69
16812 16825 26
16812 16863 29
16813 16672 125
16813 16780 51
16813 16828 36
16813 17004 146
16814 16768 47
16814 16742 68
16814 16864 41
16815 16816 68
16816 16815 68
16817 16770 47
16817 16851 48
16817 16886 49
16818 16644 143
16818 16805 76
16818 16827 68
16818 17015 142
16819 16743 57
16820 16804 21
16820 16793 34
16821 16822 79
16822 16821 79
16822 16800 83
16822 16835 89
16822 16934 80
16823 16789 78
16823 16715 91
16823 16837 7
16824 16748 48
16825 16803 17
16825 16812 26
16825 16846 13
16826 16811 92
16827 16649 145
16827 16818 68
16827 16845 71
16827 17021 138
16828 16829 107
16828 16813 36
16828 16868 20
16829 16828 107
16830 16831 78
16831 16830 78
16831 16860 69
16831 16887 43
16832 16777 48
16832 16740 92
16832 16884 60
16833 16810 23
16833 16914 94
16834 16835 77
16835 16834 77
16835 16822 89
16835 16859 102
16835 16951 86
16836 16764 43
16836 16853 44
16836 17008 132
16837 16823 7
16837 16842 33
16837 16937 80
16838 16766 72
16839 16763 47
16839 16894 41
16839 17039 154
16840 16793 34
16840 16752 152
16840 16871 26
16841 16802 19
16842 16837 33
16842 16696 119
16842 16845 61
16842 17028 139
16843 16751 55
16844 16787 69
16844 16918 61
16844 16978 105
16845 16842 61
16845 16663 145
16845 16827 71
16845 17030 140
16846 16825 13
16846 16863 15
16846 16905 100
16847 16786 92
16848 16755 117
16848 16865 15
16849 16807 22
16849 16891 36
16849 16912 103
16850 16851 4
16851 16850 4
16851 16817 48
16851 16948 75
16852 16811 21
16852 16870 87
16852 16882 26
16853 16770 47
16853 16836 44
16853 16878 19
16854 16727 114
16854 16731 90
16854 16890 46
16855 16786 37
16855 16880 69
16855 16983 103
16856 16752 72
16857 16788 36
16857 16877 37
16857 16958 88
16858 16859 77
16859 16858 77
16859 16835 102
16859 16874 87
16859 16968 87
16860 16588 198
16860 16831 69
16860 16879 128
16860 16909 44
16861 16780 52
16861 16725 138
16861 16911 52
16862 16810 32
16862 16896 83
16862 16960 86
16863 16846 15
16863 16812 29
16863 16899 34
16864 16814 41
16864 16783 70
16864 16956 107
16865 16785 61
16865 16848 15
16865 16912 55
16865 16952 110
16866 16778 51
16866 16867 105
16866 16949 68
16867 16866 105
16868 16828 20
16868 16875 46
16868 17027 127
16869 16728 160
16869 16919 95
16869 16947 73
16870 16852 87
16871 16840 26
16871 16776 89
16871 16889 31
16871 16938 70
16872 16783 85
16872 16922 73
16873 16874 65
16874 16873 65
16874 16859 87
16874 16887 79
16874 16987 93
16875 16760 69
16875 16868 46
16875 16969 76
16876 16796 55
16876 16697 219
16876 16913 45
16876 16981 141
16877 16857 37
16877 16893 42
16877 16976 82
16878 16853 19
16878 16886 46
16878 17050 131
16879 16860 128
16880 16855 69
16881 16551 248
16881 16897 104
16881 16930 36
16882 16852 26
16882 16904 18
16882 17064 165
16883 16803 109
16884 16832 60
16884 16796 87
16884 16922 47
16885 16738 112
16885 16900 34
16885 17299 312
16886 16817 49
16886 16878 46
16886 16935 37
16887 16831 43
16887 16874 79
16887 16909 75
16887 17000 85
16888 16889 34
16889 16888 34
16889 16871 31
16889 16907 25
16889 16961 71
16890 16854 46
16890 16768 109
16890 16956 82
16891 16849 36
16891 16892 123
16891 16936 79
16891 16942 61
16892 16891 123
16893 16877 42
16893 16903 37
16893 16988 78
16894 16839 41
16894 16966 90
16894 17038 106
16895 16774 82
16895 16921 48
16895 17068 132
16896 16862 83
16897 16756 91
16897 16881 104
16897 17082 132
16898 16773 82
16898 16910 46
16898 16975 59
16899 16863 34
16899 16915 12
16899 16920 60
16900 16901 80
16900 16885 34
16900 16926 41
16900 17033 102
16901 16900 80
16902 16167 826
16902 16957 136
16902 17194 717
16903 16893 37
16903 16904 39
16903 17006 80
16904 16882 18
16904 16903 39
16904 17025 91
16905 16846 100
16906 16721 217
16906 16990 74
16906 17418 711
16907 16908 33
16907 16889 25
16907 16932 29
16907 16985 72
16908 16907 33
16909 16860 44
16909 16887 75
16909 16962 42
16910 16703 165
16910 16898 46
16910 16946 25
16911 16861 52
16911 16737 175
16911 16971 51
16912 16865 55
16912 16849 103
16912 16945 34
16912 16989 91
16913 16876 45
16913 16763 160
16913 16966 50
16913 17034 144
16914 16833 94
16914 16916 4
16914 16965 46
16915 16899 12
16915 16959 90
16915 17002 68
16916 16914 4
16916 17391 421
16916 17889 1600
16917 16798 81
16917 16925 124
16917 17029 85
16918 16844 61
16918 17001 65
16919 16869 95
16919 16765 111
16919 16927 6
16920 16899 60
16920 16789 89
16920 16937 66
16920 17014 72
16921 16895 48
16921 16953 42
16921 17129 175
16922 16872 73
16922 16884 47
16922 16972 61
16922 16981 52
16923 16924 293
16924 16923 293
16925 16800 81
16925 16917 124
16925 16934 83
16925 17035 85
16926 16797 85
16926 16900 41
16926 16941 43
16926 17109 144
16927 16919 6
16927 16954 136
16927 17043 106
16928 16762 108
16929 16316 917
16930 16881 36
16930 16931 93
16930 17072 103
16931 16930 93
16932 16933 29
16932 16907 29
16932 16953 29
16932 17005 74
16933 16932 29
16934 16822 80
16934 16925 83
16934 16951 90
16934 17054 86
16935 16886 37
16935 16948 45
16935 17062 91
16936 16891 79
16936 16945 10
16936 16995 53
16937 16920 66
16937 16837 80
16937 17032 70
16938 16871 70
16938 16961 28
16938 16967 30
16939 15701 890
16939 17036 577
16939 17539 479
16940 16941 79
16941 16940 79
16941 16926 43
16941 16958 40
16941 17125 145
16942 16891 61
16942 16943 67
16942 16995 99
16942 17108 146
16943 16942 67
16944 16785 143
16944 16963 22
16945 16912 34
16945 16936 10
16945 17020 86
16946 16910 25
16946 16955 47
16946 17067 86
16947 16869 73
16947 16990 171
16947 17051 94
16948 16851 75
16948 16935 45
16948 17187 182
16949 16866 68
16949 16950 111
16949 16954 5
16950 16949 111
16951 16835 86
16951 16934 90
16951 16968 97
16951 17071 87
16952 16865 110
16952 16963 14
16952 16989 56
16953 16921 42
16953 16932 29
16953 17052 78
16954 16927 136
16954 16949 5
16954 16970 12
16955 16749 143
16955 16946 47
16955 16996 33
16956 16890 82
16956 16864 107
16956 17079 142
16957 16902 136
16958 16857 88
16958 16941 40
16958 16976 42
16958 17138 144
16959 16915 90
16960 16862 86
16960 16964 12
16960 17192 180
16961 16889 71
16961 16938 28
16961 16985 27
16962 16909 42
16962 17010 37
16962 17048 138
16963 16944 22
16963 16952 14
16963 16993 42
16963 17018 54
16964 16960 12
16965 16914 46
16966 16913 50
16966 16894 90
16966 17024 51
16966 17094 146
16967 16938 30
16967 16992 25
16967 17019 58
16968 16859 87
16968 16951 97
16968 16987 80
16968 17081 81
16969 16875 76
16969 16975 43
16969 17070 72
16970 16954 12
16970 16986 68
16970 17016 34
16971 16911 51
16971 16750 206
16971 16980 38
16971 17154 155
16972 16922 61
16972 17031 51
16972 17079 124
16973 16767 141
16973 16974 62
16973 16977 72
16973 17191 161
16974 16973 62
16975 16898 59
16975 16969 43
16975 17056 55
16976 16877 82
16976 16958 42
16976 16988 39
16976 17159 145
16977 16772 140
16977 16973 72
16977 16979 68
16977 17155 138
16978 16844 105
16979 16781 137
16979 16977 68
16979 16982 69
16979 17160 136
16980 16780 146
16980 16971 38
16980 17004 54
16980 17171 150
16981 16922 52
16981 16876 141
16981 17031 61
16981 17034 47
16982 16782 139
16982 16979 69
16982 16984 64
16982 17173 142
16983 16855 103
16983 16998 15
16984 16775 145
16984 16982 64
16984 16991 66
16984 17176 141
16985 16907 72
16985 16961 27
16985 17005 25
16985 17019 29
16986 16970 68
16986 17043 164
16987 16874 93
16987 16968 80
16987 17000 92
16987 17096 78
16988 16893 78
16988 16976 39
16988 17006 41
16988 17181 148
16989 16952 56
16989 16912 91
16989 17018 29
16989 17020 36
16990 16947 171
16990 16906 74
16990 17115 141
16991 16792 138
16991 16984 66
16991 16994 70
16991 17178 138
16992 16967 25
16992 17011 25
16992 17045 62
16993 16963 42
16994 16795 141
16994 16991 70
16994 16997 68
16994 17179 133
16995 16936 53
16995 16942 99
16995 17113 118
16995 17128 115
16996 16955 33
16996 17008 44
16996 17053 38
16997 16801 137
16997 16994 68
16997 17003 71
16997 17182 136
16998 16999 41
16998 16983 15
16998 17026 33
16998 17093 87
16999 16998 41
17000 16887 85
17000 16987 92
17000 17010 78
17000 17119 88
17001 16918 65
17002 16915 68
17002 17044 73
17002 17288 227
17003 16806 141
17003 16997 71
17003 17007 68
17003 17195 138
17004 16813 146
17004 16980 54
17004 17027 52
17004 17107 78
17005 16932 74
17005 16985 25
17005 17041 35
17006 16903 80
17006 16988 41
17006 17025 38
17006 17196 147
17007 16805 145
17007 17003 68
17007 17015 67
17007 17199 142
17008 16836 132
17008 16996 44
17008 17066 35
17009 16557 940
17010 16962 37
17010 17000 78
17010 17124 86
17011 16992 25
17011 17040 27
17011 17106 87
17012 17013 134
17013 17012 134
17014 16920 72
17015 16818 142
17015 17007 67
17015 17021 70
17015 17205 141
17016 16970 34
17016 17017 90
17016 17083 44
17017 17016 90
17018 16963 54
17018 16989 29
17018 17037 19
17019 16985 29
17019 16967 58
17019 17045 24
17019 17078 65
17020 16989 36
17020 16945 86
17020 17055 36
17021 16827 138
17021 17015 70
17021 17030 67
17021 17211 142
17022 17023 92
17022 17084 324
17022 17145 106
17023 17022 92
17024 16966 51
17024 17038 41
17024 17060 32
17024 17127 127
17025 16904 91
17025 17006 38
17025 17042 34
17025 17215 147
17026 16998 33
17026 17075 57
17026 17111 87
17027 16868 127
17027 17004 52
17027 17061 20
17028 16842 139
17028 17030 68
17028 17032 75
17028 17216 139
17029 16917 85
17029 17035 95
17029 17046 11
17030 17028 68
17030 16845 140
17030 17021 67
17030 17219 140
17031 16972 51
17031 16981 61
17031 17069 38
17031 17090 50
17032 16937 70
17032 17028 75
17032 17222 143
17033 16900 102
17034 16981 47
17034 16913 144
17034 17090 62
17034 17094 50
17035 16925 85
17035 17029 95
17035 17054 88
17036 15701 1122
17036 16939 577
17036 17163 330
17037 17018 19
17037 17055 16
17037 17102 67
17038 17024 41
17038 16894 106
17038 17039 54
17038 17059 14
17039 17038 54
17039 16839 154
17039 17197 122
17040 17011 27
17040 17063 25
17040 17116 77
17041 17005 35
17041 17052 12
17041 17078 29
17042 17025 34
17042 17065 42
17042 17230 148
17043 16927 106
17043 16986 164
17043 17049 10
17044 17002 73
17045 17019 24
17045 16992 62
17045 17073 25
17045 17085 46
17046 17029 11
17046 17162 129
17046 17682 689
17047 17048 104
17048 17047 104
17048 16962 138
17048 17144 84
17049 17043 10
17049 17051 5
17049 17104 42
17050 16878 131
17050 17062 46
17050 17249 151
17051 16947 94
17051 17049 5
17051 17074 60
17052 16953 78
17052 17041 12
17052 17193 112
17053 16996 38
17053 17066 44
17053 17126 61
17054 16934 86
17054 17035 88
17054 17071 87
17054 17097 42
17055 17037 16
17055 17020 36
17055 17113 65
17056 16975 55
17056 17067 42
17056 17139 75
17057 17058 142
17058 17057 142
17058 17183 166
17058 17346 397
17059 17038 14
17059 17212 126
17059 17223 130
17060 17024 32
17060 17142 114
17061 17027 20
17061 17070 46
17061 17221 129
17062 16935 91
17062 17050 46
17062 17175 89
17063 17040 25
17063 17073 13
17063 17092 27
17064 16776 241
17064 16882 165
17064 17098 47
17065 17042 42
17065 17080 39
17065 17247 147
17066 17008 35
17066 17053 44
17066 17231 132
17067 16946 86
17067 17056 42
17067 17114 42
17068 16895 132
17068 17129 60
17069 17031 38
17070 16969 72
17070 17061 46
17070 17131 57
17071 16951 87
17071 17054 87
17071 17086 88
17071 17140 63
17072 16930 103
17072 17082 90
17072 17172 80
17073 17045 25
17073 17063 13
17073 17112 52
17074 17051 60
17075 17026 57
17075 17108 44
17075 17143 89
17076 17077 151
17077 17076 151
17078 17041 29
17078 17019 65
17078 17103 24
17079 16956 142
17079 16972 124
17079 17099 56
17079 17232 132
17080 17065 39
17080 17098 51
17080 17266 148
17081 16968 81
17081 17086 7
17081 17096 96
17082 16897 132
17082 17072 90
17082 17188 85
17083 17016 44
17083 17087 181
17083 17118 32
17084 16766 267
17084 17022 324
17085 17045 46
17085 17103 24
17085 17112 25
17086 17081 7
17086 17071 88
17086 17262 140
17087 17083 181
17087 17104 21
17087 17295 185
17088 17089 130
17089 17088 130
17089 17095 77
17089 17137 63
17089 17156 97
17090 17031 50
17090 17034 62
17090 17141 53
17091 16561 1050
17091 17213 12
17092 17063 27
17092 17123 41
17092 17136 68
17093 16998 87
17093 17111 27
17094 17034 50
17094 16966 146
17094 17100 10
17095 17089 77
17096 16987 78
17096 17081 96
17096 17119 88
17097 17054 42
17097 17202 84
17098 17064 47
17098 17080 51
17098 17106 21
17098 17286 148
17099 17079 56
17099 17120 28
17099 17167 161
17100 17094 10
17100 17127 62
17100 17141 61
17101 17102 59
17101 17105 66
17102 17101 59
17102 17037 67
17102 17117 19
17103 17078 24
17103 17085 24
17103 17177 62
17104 17049 42
17104 17087 21
17104 17115 108
17105 17101 66
17105 17174 75
17105 17180 62
17106 17011 87
17106 17098 21
17106 17110 7
17107 17004 78
17107 17121 48
17107 17198 74
17108 16942 146
17108 17075 44
17108 17132 46
17108 17190 83
17109 16926 144
17110 17106 7
17110 17116 21
17110 17301 147
17111 17026 87
17111 17093 27
17111 17143 56
17112 17085 25
17112 17073 52
17112 17136 27
17113 17055 65
17113 16995 118
17113 17147 49
17114 17067 42
17114 17126 48
17114 17273 123
17115 16990 141
17115 17104 108
17115 17575 457
17116 17040 77
17116 17110 21
17116 17122 19
17117 17102 19
17117 17174 58
17117 17208 94
17118 17083 32
17118 17394 292
17118 17465 335
17119 17000 88
17119 17096 88
17119 17124 75
17120 17099 28
17120 17130 18
17120 17240 141
17121 17107 48
17121 17217 71
17122 17116 19
17122 17123 9
17122 17315 147
17123 17092 41
17123 17122 9
17123 17135 32
17124 17010 86
17124 17119 75
17124 17144 123
17125 16941 145
17125 17138 42
17126 17053 61
17126 17114 48
17126 17305 132
17127 17100 62
17127 17024 127
17127 17165 35
17127 17209 95
17128 16995 115
17129 17068 60
17129 16921 175
17129 17154 70
17129 17218 70
17130 17120 18
17131 17070 57
17131 17139 46
17131 17244 76
17132 17108 46
17132 17148 29
17133 17134 15
17133 17137 6
17133 17150 29
17134 17133 15
17135 17123 32
17135 17149 41
17135 17336 147
17136 17112 27
17136 17092 68
17136 17149 17
17137 17133 6
17137 17089 63
17137 17145 18
17138 16958 144
17138 17125 42
17138 17159 35
17138 17332 144
17139 17056 75
17139 17131 46
17139 17263 87
17140 17071 63
17140 17242 68
17141 17090 53
17141 17100 61
17141 17209 50
17141 17232 139
17142 17060 114
17142 17165 23
17143 17075 89
17143 17111 56
17143 17185 30
17143 17190 53
17144 17048 84
17144 17124 123
17144 17146 4
17145 17137 18
17145 17022 106
17145 17227 192
17146 17144 4
17146 17170 89
17146 17220 51
17147 17113 49
17147 17208 69
17147 17245 72
17148 17132 29
17148 17168 19
17148 17252 93
17149 17136 17
17149 17135 41
17149 17177 31
17149 17347 147
17150 17133 29
17151 17152 70
17152 17151 70
17152 17153 142
17152 17164 8
17153 17152 142
17154 16971 155
17154 17129 70
17154 17171 50
17154 17251 67
17155 16977 138
17155 17160 72
17155 17236 54
17156 17089 97
17157 17158 42
17158 17157 42
17158 17164 6
17158 17294 133
17159 16976 145
17159 17138 35
17159 17181 42
17160 16979 136
17160 17155 72
17160 17166 5
17161 17162 64
17162 17161 64
17162 17046 129
17162 17202 50
17162 17316 116
17163 17036 330
17164 17158 6
17164 17152 8
17164 17228 89
17165 17127 35
17165 17142 23
17165 17186 29
17166 17160 5
17166 17173 67
17166 17303 100
17167 17099 161
17167 17203 37
17167 17255 101
17168 17148 19
17168 17210 55
17168 17275 92
17169 17170 90
17170 17169 90
17170 17146 89
17170 17189 110
17170 17269 71
17171 16980 150
17171 17154 50
17171 17198 56
17171 17268 74
17172 17072 80
17172 17188 84
17172 17189 12
17173 16982 142
17173 17166 67
17173 17176 66
17173 17250 54
17174 17105 75
17174 17117 58
17174 17184 9
17175 17062 89
17175 17187 43
17175 17304 97
17176 16984 141
17176 17173 66
17176 17178 67
17176 17243 47
17177 17103 62
17177 17149 31
17177 17193 30
17178 16991 138
17178 17176 67
17178 17179 74
17179 16994 133
17179 17178 74
17179 17182 73
17180 17105 62
17180 17225 48
17180 17241 61
17181 16988 148
17181 17159 42
17181 17196 38
17181 17356 145
17182 16997 136
17182 17179 73
17182 17195 64
17183 17058 166
17184 17174 9
17184 17246 64
17184 17253 69
17185 17143 30
17186 17165 29
17187 16948 182
17187 17175 43
17187 17197 51
17187 17312 91
17188 17082 85
17188 17172 84
17188 17235 78
17188 17260 53
17189 17172 12
17189 17170 110
17189 17265 56
17190 17108 83
17190 17143 53
17190 17239 51
17190 17252 70
17191 16973 161
17192 16960 180
17193 17052 112
17193 17177 30
17193 17201 46
17193 17363 141
17194 16902 717
17195 17003 138
17195 17182 64
17195 17199 71
17196 17006 147
17196 17181 38
17196 17215 48
17197 17039 122
17197 17187 51
17197 17212 47
17197 17317 95
17198 17107 74
17198 17171 56
17198 17217 48
17198 17351 124
17199 17007 142
17199 17195 71
17199 17205 62
17199 17274 55
17200 17201 120
17201 17200 120
17201 17193 46
17201 17226 54
17201 17387 146
17202 17097 84
17202 17162 50
17202 17242 108
17202 17328 94
17203 17167 37
17203 17204 67
17203 17240 32
17203 17293 106
17204 17203 67
17205 17015 141
17205 17199 62
17205 17211 70
17205 17388 164
17206 17207 21
17206 17224 30
17206 17267 64
17207 17206 21
17208 17117 94
17208 17147 69
17208 17253 60
17208 17285 71
17209 17141 50
17209 17127 95
17209 17257 38
17210 17168 55
17210 17245 52
17210 17318 91
17211 17021 142
17211 17205 70
17211 17219 65
17211 17306 71
17212 17059 126
17212 17197 47
17212 17223 53
17212 17330 87
17213 17214 203
17213 17091 12
17214 17213 203
17214 17227 121
17214 17276 57
17215 17025 147
17215 17196 48
17215 17230 35
17215 17389 144
17216 17028 139
17216 17219 68
17216 17222 90
17216 17314 74
17217 17121 71
17217 17198 48
17217 17221 26
17217 17335 91
17218 17129 70
17218 17226 38
17219 17216 68
17219 17030 140
17219 17211 65
17219 17395 136
17220 17146 51
17220 17254 31
17220 17269 101
17221 17061 129
17221 17217 26
17221 17238 28
17222 17032 143
17222 17216 90
17222 17321 119
17223 17059 130
17223 17212 53
17223 17224 5
17223 17413 150
17224 17206 30
17224 17223 5
17224 17267 33
17225 17180 48
17225 17233 4
17226 17218 38
17226 17201 54
17226 17256 50
17226 17409 148
17227 17214 121
17227 17145 192
17227 17434 239
17228 17164 89
17228 17229 44
17228 17334 88
17229 17228 44
17230 17042 148
17230 17215 35
17230 17247 31
17231 17066 132
17231 17249 47
17231 17327 71
17232 17079 132
17232 17141 139
17232 17248 23
17233 17225 4
17233 17259 25
17233 17272 42
17234 17235 154
17235 17234 154
17235 17188 78
17235 17237 84
17235 17281 37
17236 17155 54
17236 17237 58
17236 17282 38
17237 17236 58
17237 17235 84
17237 17302 62
17238 17221 28
17238 17244 16
17238 17444 171
17239 17190 51
17240 17203 32
17240 17120 141
17240 17322 105
17241 17180 61
17241 17246 5
17241 17277 42
17242 17140 68
17242 17202 108
17242 17262 68
17242 17354 96
17243 17176 47
17244 17131 76
17244 17238 16
17244 17261 37
17245 17147 72
17245 17210 52
17245 17285 63
17245 17345 94
17246 17241 5
17246 17184 64
17246 17296 52
17247 17065 147
17247 17230 31
17247 17266 48
17247 17421 148
17248 17232 23
17248 17264 31
17248 17319 91
17249 17050 151
17249 17231 47
17249 17300 39
17250 17173 54
17251 17154 67
17252 17148 93
17252 17190 70
17252 17275 41
17252 17278 46
17253 17184 69
17253 17208 60
17253 17296 67
17253 17341 76
17254 17220 31
17255 17167 101
17255 17258 8
17255 17364 162
17256 17226 50
17256 17270 49
17256 17427 145
17257 17209 38
17258 17255 8
17258 17293 31
17258 17324 82
17259 17233 25
17259 17277 22
17259 17297 37
17260 17188 53
17260 17265 87
17260 17325 50
17261 17244 37
17261 17263 5
17261 17455 166
17262 17086 140
17262 17242 68
17262 17279 83
17262 17379 98
17263 17139 87
17263 17261 5
17263 17273 43
17264 17248 31
17264 17284 25
17264 17344 106
17265 17260 87
17265 17189 56
17265 17311 34
17266 17080 148
17266 17247 48
17266 17286 53
17267 17206 64
17267 17224 33
17267 17310 36
17268 17171 74
17269 17170 71
17269 17220 101
17269 17311 109
17270 17256 49
17270 17283 30
17270 17450 145
17271 17272 22
17271 17298 39
17272 17271 22
17272 17233 42
17272 17280 11
17273 17114 123
17273 17263 43
17273 17305 54
17273 17461 153
17274 17199 55
17275 17168 92
17275 17252 41
17275 17318 58
17275 17372 91
17276 17214 57
17276 17362 145
17276 17656 411
17277 17259 22
17277 17241 42
17277 17406 138
17278 17252 46
17279 17262 83
17280 17272 11
17280 17297 15
17280 17326 43
17281 17235 37
17281 17325 83
17281 17331 35
17282 17236 38
17282 17303 69
17283 17270 30
17284 17264 25
17284 17313 23
17284 17365 106
17285 17208 71
17285 17245 63
17285 17341 67
17285 17386 95
17286 17098 148
17286 17266 53
17286 17301 28
17286 17454 144
17287 16193 818
17287 17299 14
17287 17451 142
17288 17002 227
17288 17321 150
17288 17456 170
17289 17290 522
17290 17289 522
17291 17292 71
17292 17291 71
17292 23863 129
17293 17258 31
17293 17203 106
17293 17322 32
17293 17352 81
17294 17158 133
17295 17087 185
17296 17246 52
17296 17253 67
17296 17371 84
17297 17280 15
17297 17259 37
17297 17307 12
17298 17271 39
17298 17326 30
17299 16885 312
17299 17287 14
17299 17332 78
17299 17464 142
17300 17249 39
17300 17343 34
17301 17110 147
17301 17286 28
17301 17315 38
17301 17469 144
17302 17237 62
17303 17166 100
17303 17308 3
17303 17282 69
17304 17175 97
17304 17355 56
17305 17126 132
17305 17273 54
17305 17327 47
17305 17578 245
17306 17211 71
17306 17390 70
17307 17297 12
17307 17333 26
17307 17350 48
17308 17303 3
17308 17320 11
17309 17310 108
17310 17309 108
17310 17267 36
17310 17348 35
17311 17265 34
17311 17269 109
17312 17187 91
17312 17317 39
17312 17317 39
17313 17284 23
17313 17339 25
17313 17384 100
17314 17216 74
17314 17321 17
17314 17329 30
17315 17122 147
17315 17301 38
17315 17336 41
17315 17486 144
17316 17162 116
17316 17328 47
17316 17401 71
17317 17197 95
17317 17312 39
17317 17312 39
17317 17323 40
17317 17323 40
17317 17382 67
17318 17210 91
17318 17275 58
17318 17345 47
17318 17372 132
17319 17248 91
17319 17344 27
17319 17358 86
17320 17308 11
17320 17340 37
17320 17426 97
17321 17222 119
17321 17314 17
17321 17288 150
17322 17293 32
17322 17240 105
17322 17383 73
17323 17317 40
17323 17317 40
17323 17330 19
17323 17330 19
17323 17405 66
17324 17258 82
17324 17352 31
17325 17281 83
17325 17260 50
17325 17534 192
17326 17298 30
17326 17280 43
17326 17350 29
17327 17231 71
17327 17305 47
17327 17343 54
17327 17606 247
17328 17202 94
17328 17316 47
17328 17354 104
17328 17520 221
17329 17314 30
17329 17397 60
17330 17212 87
17330 17323 19
17330 17323 19
17330 17342 34
17330 17342 34
17331 17281 35
17332 17138 144
17332 17299 78
17332 17356 83
17332 17499 142
17333 17307 26
17333 17349 27
17333 17366 50
17334 17228 88
17334 17411 70
17335 17217 91
17336 17135 147
17336 17315 41
17336 17347 44
17336 17503 144
17337 17338 38
17337 17378 46
17337 17385 119
17338 17337 38
17338 17348 115
17339 17313 25
17339 17353 21
17339 17410 106
17340 17320 37
17340 17361 145
17340 17415 115
17341 17253 76
17341 17285 67
17341 17371 52
17341 17425 86
17342 17330 34
17342 17330 34
17342 17419 70
17343 17300 34
17343 17327 54
17343 17355 50
17343 17614 245
17344 17319 27
17344 17264 106
17344 17365 25
17344 17423 118
17345 17245 94
17345 17318 47
17345 17386 64
17345 17445 91
17346 17058 397
17347 17149 147
17347 17336 44
17347 17363 45
17347 17510 145
17348 17338 115
17348 17310 35
17348 17385 36
17349 17333 27
17349 17377 35
17349 17398 49
17350 17326 29
17350 17307 48
17350 17366 23
17351 17198 124
17351 17493 117
17352 17324 31
17352 17293 81
17352 17383 47
17353 17339 21
17353 17367 18
17353 17433 104
17354 17242 96
17354 17328 104
17354 17379 76
17354 17424 54
17355 17304 56
17355 17343 50
17355 17382 55
17355 17629 248
17356 17181 145
17356 17332 83
17356 17389 77
17356 17518 142
17357 17358 20
17357 17408 38
17358 17357 20
17358 17319 86
17358 17423 52
17359 17360 34
17360 17359 34
17360 17404 37
17361 17340 145
17361 17392 36
17361 17415 61
17362 17276 145
17362 17376 130
17362 17566 230
17363 17193 141
17363 17347 45
17363 17387 62
17363 17523 144
17364 17255 162
17364 17373 65
17365 17344 25
17365 17284 106
17365 17393 24
17365 17441 95
17366 17350 23
17366 17333 50
17366 17398 32
17367 17353 18
17367 17378 13
17367 17739 366
17368 17369 942
17368 17370 265
17368 17414 47
17369 17368 942
17370 17368 265
17371 17296 84
17371 17341 52
17371 17406 34
17371 17474 90
17372 17275 91
17372 17318 132
17373 17364 65
17373 17436 58
17373 17655 363
17374 17375 27
17375 17374 27
17375 17381 77
17375 17392 82
17375 17442 50
17376 17362 130
17377 17349 35
17377 17402 25
17377 17429 51
17378 17367 13
17378 17337 46
17378 17380 4
17379 17262 98
17379 17354 76
17379 17396 50
17379 17536 137
17380 17378 4
17380 17420 105
17380 17590 186
17381 17375 77
17382 17317 67
17382 17355 55
17382 17405 53
17382 17646 247
17383 17352 47
17383 17322 73
17383 17403 13
17384 17313 100
17384 17393 7
17385 17337 119
17385 17348 36
17385 17416 32
17386 17285 95
17386 17345 64
17386 17425 64
17386 17488 92
17387 17201 146
17387 17363 62
17387 17409 48
17387 17551 145
17388 17205 164
17388 17390 34
17389 17215 144
17389 17356 77
17389 17421 81
17389 17550 142
17390 17306 70
17390 17388 34
17390 17395 66
17390 17490 78
17391 16916 421
17392 17361 36
17392 17375 82
17393 17365 24
17393 17384 7
17393 17410 20
17393 17462 91
17394 17118 292
17395 17219 136
17395 17390 66
17395 17397 62
17395 17494 79
17396 17379 50
17397 17329 60
17397 17395 62
17397 17492 82
17398 17366 32
17398 17349 49
17398 17429 39
17399 17400 26
17399 23863 26
17400 17399 26
17400 23863 26
17401 17316 71
17402 17377 25
17402 17428 36
17402 17452 52
17403 17383 13
17403 17404 98
17403 17431 27
17404 17403 98
17404 17360 37
17404 17440 35
17405 17323 66
17405 17382 53
17405 17419 50
17405 17663 249
17406 17277 138
17406 17371 34
17406 17407 4
17407 17406 4
17407 17428 23
17407 17443 31
17408 17357 38
17408 17422 14
17408 17432 57
17409 17226 148
17409 17387 48
17409 17427 53
17409 17568 145
17410 17393 20
17410 17339 106
17410 17433 23
17410 17484 89
17411 17334 70
17411 17412 147
17411 17625 241
17412 17411 147
17413 17223 150
17413 17417 51
17413 17448 23
17414 17368 47
17414 17533 159
17414 17584 184
17415 17361 61
17415 17340 115
17415 17463 58
17416 17385 32
17416 17417 36
17416 17420 16
17416 17560 118
17417 17416 36
17417 17413 51
17417 17569 131
17418 16906 711
17418 17491 55
17418 17708 290
17419 17342 70
17419 17405 50
17419 17448 56
17419 17684 251
17420 17380 105
17420 17416 16
17420 17446 18
17421 17247 148
17421 17389 81
17421 17454 86
17421 17576 142
17422 17408 14
17422 17423 18
17422 17457 27
17423 17422 18
17423 17358 52
17423 17344 118
17424 17354 54
17425 17341 86
17425 17386 64
17425 17474 56
17425 17519 98
17426 17320 97
17426 17430 54
17426 17468 39
17427 17256 145
17427 17409 53
17427 17450 51
17427 17581 145
17428 17402 36
17428 17407 23
17428 17489 55
17429 17398 39
17429 17377 51
17429 17452 26
17430 17426 54
17431 17403 27
17431 17436 10
17431 17440 82
17432 17408 57
17432 17480 54
17432 17496 48
17433 17410 23
17433 17353 104
17433 17453 28
17434 17227 239
17434 17435 185
17434 17656 240
17435 17434 185
17436 17373 58
17436 17431 10
17436 17502 57
17437 17438 75
17438 17437 75
17438 17439 45
17438 17447 21
17439 17438 45
17440 17431 82
17440 17404 35
17441 17365 95
17442 17375 50
17442 17466 71
17442 17463 109
17443 17407 31
17443 17485 36
17443 17504 55
17444 17238 171
17445 17345 91
17445 17488 63
17446 17420 18
17446 17528 104
17446 17558 96
17447 17438 21
17447 17483 77
17447 17567 112
17448 17413 23
17448 17419 56
17448 17699 244
17449 16566 948
17450 17270 145
17450 17427 51
17450 17471 51
17450 17600 145
17451 17287 142
17451 17464 16
17451 17610 151
17452 17429 26
17452 17402 52
17452 17489 37
17453 17433 28
17454 17286 144
17454 17421 86
17454 17469 33
17454 17605 142
17455 17261 166
17456 17288 170
17456 17472 12
17456 17492 35
17457 17422 27
17457 17462 74
17457 17487 21
17458 17459 146
17459 17458 146
17459 17460 23
17459 17477 23
17460 17459 23
17461 17273 153
17462 17457 74
17462 17393 91
17462 17476 16
17463 17415 58
17463 17442 109
17463 17512 54
17464 17299 142
17464 17451 16
17464 17499 80
17464 17613 148
17465 17118 335
17465 17821 382
17466 17467 59
17466 17442 71
17466 17513 53
17466 17552 88
17467 17466 59
17467 17516 87
17468 17426 39
17468 17512 106
17468 17524 54
17469 17301 144
17469 17454 33
17469 17486 35
17470 17471 109
17471 17470 109
17471 17450 51
17471 17493 54
17471 17621 144
17472 17473 34
17472 17456 12
17472 17565 120
17473 17472 34
17473 17587 163
17474 17371 90
17474 17425 56
17475 15373 1798
17475 17592 95
17476 17462 16
17476 17484 9
17477 17459 23
17478 17479 7
17478 17480 25
17478 17529 53
17479 17478 7
17479 17527 60
17480 17478 25
17480 17432 54
17480 17500 14
17481 16163 1078
17481 17770 100
17482 17483 139
17483 17482 139
17483 17447 77
17483 17509 72
17483 17593 107
17484 17476 9
17484 17410 89
17484 17487 90
17485 17443 36
17485 17511 31
17486 17315 144
17486 17469 35
17486 17503 43
17486 17624 138
17487 17457 21
17487 17484 90
17487 17495 8
17488 17386 92
17488 17445 63
17488 17519 64
17488 17553 68
17489 17452 37
17489 17428 55
17489 17504 32
17489 17574 90
17490 17390 78
17490 17494 70
17490 17497 4
17491 17418 55
17491 17575 139
17491 17586 92
17492 17456 35
17492 17397 82
17492 17548 65
17493 17351 117
17493 17471 54
17493 17508 43
17493 17633 144
17494 17395 79
17494 17490 70
17494 17548 84
17495 17487 8
17495 17496 33
17495 17603 101
17496 17432 48
17496 17495 33
17496 17500 22
17496 17564 64
17497 17490 4
17497 17498 103
17497 17582 85
17498 17497 103
17499 17332 142
17499 17464 80
17499 17518 80
17499 17642 145
17500 17480 14
17500 17496 22
17500 17501 3
17500 17554 51
17501 17500 3
17502 17436 57
17502 17517 67
17502 17527 112
17502 17537 46
17503 17336 144
17503 17486 43
17503 17510 38
17503 17635 140
17504 17489 32
17504 17443 55
17504 17511 24
17505 17506 180
17505 17577 255
17505 17596 86
17506 17505 180
17507 17508 87
17508 17507 87
17508 17493 43
17508 17521 58
17508 17580 73
17509 17483 72
17509 17524 67
17509 17616 104
17510 17347 145
17510 17503 38
17510 17523 51
17510 17650 140
17511 17504 24
17511 17485 31
17512 17463 54
17512 17468 106
17512 17513 179
17512 17561 49
17513 17466 53
17513 17512 179
17513 17583 81
17513 17612 93
17514 17515 17
17515 17514 17
17515 17530 23
17515 17542 23
17516 17467 87
17516 17526 16
17516 17552 54
17517 17502 67
17517 17537 48
17517 17538 28
17518 17356 142
17518 17499 80
17518 17550 80
17518 17662 144
17519 17425 98
17519 17488 64
17519 17594 94
17519 17655 148
17520 17328 221
17520 17525 61
17520 17530 95
17521 17522 47
17521 17508 58
17521 17544 49
17521 17674 144
17522 17521 47
17523 17363 144
17523 17510 51
17523 17551 58
17523 17667 140
17524 17468 54
17524 17509 67
17524 17561 76
17524 17630 103
17525 17520 61
17526 17516 16
17526 17572 129
17527 17479 60
17527 17502 112
17527 17529 26
17528 17446 104
17528 17547 20
17528 17590 53
17529 17527 26
17529 17478 53
17529 17554 24
17530 17520 95
17530 17515 23
17530 17542 8
17530 17634 114
17531 17532 52
17532 17531 52
17532 17536 72
17532 17546 39
17533 17414 159
17533 17539 5
17533 17584 62
17534 17325 192
17534 17535 161
17534 17567 75
17534 17619 78
17535 17534 161
17536 17532 72
17536 17379 137
17537 17517 48
17537 17502 46
17537 17570 26
17537 17573 73
17538 17517 28
17538 17570 58
17538 17571 26
17539 17533 5
17539 16939 479
17539 18268 1202
17540 17541 97
17541 17540 97
17542 17530 8
17542 17515 23
17542 17549 15
17542 17649 107
17543 17544 37
17544 17543 37
17544 17521 49
17544 17563 55
17544 17688 143
17545 17546 58
17546 17545 58
17546 17532 39
17546 17556 37
17547 17528 20
17547 17557 19
17547 17604 56
17548 17492 65
17548 17494 84
17548 17565 18
17549 17542 15
17550 17389 142
17550 17518 80
17550 17576 77
17550 17693 144
17551 17387 145
17551 17523 58
17551 17568 50
17551 17685 141
17552 17516 54
17552 17466 88
17552 17583 48
17552 17607 70
17553 17488 68
17554 17529 24
17554 17500 51
17554 17564 26
17555 17556 62
17556 17555 62
17556 17546 37
17556 17596 209
17556 17641 101
17557 17547 19
17557 17558 10
17557 17611 60
17558 17557 10
17558 17446 96
17558 17559 22
17559 17558 22
17559 17560 12
17559 17622 65
17560 17559 12
17560 17416 118
17560 17562 29
17561 17512 49
17561 17524 76
17561 17579 84
17561 17643 88
17562 17560 29
17562 17569 13
17562 17627 72
17563 17544 55
17563 17578 51
17563 17705 145
17564 17554 26
17564 17496 64
17564 17659 105
17565 17472 120
17565 17548 18
17565 17609 42
17566 17362 230
17567 17447 112
17567 17534 75
17567 17593 74
17567 17640 77
17568 17409 145
17568 17551 50
17568 17581 53
17568 17706 141
17569 17562 13
17569 17417 131
17569 17585 26
17570 17538 58
17570 17537 26
17570 17595 24
17570 17599 75
17571 17538 26
17571 17595 53
17571 17597 29
17572 17526 129
17572 17589 44
17573 17537 73
17573 17599 27
17574 17489 90
17575 17491 139
17575 17115 457
17575 17586 46
17576 17421 142
17576 17550 77
17576 17605 88
17576 17721 144
17577 17505 255
17578 17305 245
17578 17563 51
17578 17598 54
17578 17724 145
17579 17561 84
17579 17608 76
17579 17653 76
17580 17508 73
17580 17654 73
17581 17427 145
17581 17568 53
17581 17600 49
17581 17725 142
17582 17497 85
17582 17589 9
17582 17609 118
17583 17552 48
17583 17513 81
17583 17628 43
17584 17414 184
17584 17533 62
17584 17897 367
17585 17569 26
17585 17645 67
17586 17491 92
17586 17575 46
17587 17588 13
17587 17473 163
17588 17587 13
17589 17582 9
17589 17572 44
17589 17607 158
17589 17631 47
17590 17380 186
17590 17528 53
17590 17604 24
17591 17592 29
17591 17769 197
17591 18009 714
17592 17591 29
17592 17475 95
17593 17483 107
17593 17567 74
17593 17616 78
17593 17657 75
17594 17519 94
17595 17571 53
17595 17570 24
17595 17617 27
17595 17623 74
17596 17505 86
17596 17556 209
17596 17701 107
17597 17571 29
17597 17617 56
17597 17618 23
17598 17578 54
17598 17606 18
17598 17740 145
17599 17570 75
17599 17573 27
17599 17623 24
17600 17450 145
17600 17581 49
17600 17621 59
17600 17742 142
17601 17602 75
17602 17601 75
17602 17652 53
17602 17675 207
17603 17495 101
17604 17590 24
17604 17547 56
17604 17611 20
17605 17454 142
17605 17576 88
17605 17615 33
17605 17747 144
17606 17327 247
17606 17598 18
17606 17614 32
17607 17552 70
17607 17589 158
17607 17647 43
17608 17579 76
17608 17612 25
17608 17648 44
17609 17565 42
17609 17582 118
17609 17651 48
17610 17451 151
17610 17613 16
17610 17692 121
17610 18069 459
17611 17604 20
17611 17557 60
17611 17622 30
17612 17513 93
17612 17608 25
17612 17626 48
17613 17464 148
17613 17610 16
17613 17642 95
17613 17785 161
17614 17343 245
17614 17606 32
17614 17629 49
17614 17761 143
17615 17605 33
17615 17624 38
17615 17697 83
17616 17509 104
17616 17593 78
17616 17630 68
17616 17683 72
17617 17597 56
17617 17595 27
17617 17639 24
17617 17644 74
17618 17597 23
17618 17638 22
17618 17639 55
17619 17534 78
17619 17620 76
17619 17640 69
17619 17694 73
17620 17619 76
17620 17668 73
17621 17471 144
17621 17600 59
17621 17633 51
17621 17773 144
17622 17611 30
17622 17559 65
17622 17627 33
17623 17595 74
17623 17599 24
17623 17644 25
17624 17486 138
17624 17615 38
17624 17635 38
17624 17782 149
17625 17411 241
17625 17636 44
17625 17661 40
17626 17612 48
17626 17628 14
17626 17680 54
17627 17622 33
17627 17562 72
17627 17645 32
17628 17583 43
17628 17626 14
17628 17632 37
17629 17355 248
17629 17614 49
17629 17646 50
17629 17780 141
17630 17524 103
17630 17616 68
17630 17643 75
17630 17704 70
17631 17589 47
17631 17637 21
17631 17651 103
17631 17691 53
17632 17628 37
17632 17647 59
17632 17696 56
17633 17493 144
17633 17621 51
17633 17654 52
17633 17787 144
17634 17530 114
17634 17660 94
17635 17503 140
17635 17624 38
17635 17650 42
17635 17793 147
17636 17625 44
17637 17631 21
17638 17618 22
17638 17658 54
17638 17690 61
17639 17618 55
17639 17617 24
17639 17658 23
17639 17671 76
17640 17567 77
17640 17619 69
17640 17657 76
17640 17717 73
17641 17556 101
17641 17715 73
17642 17499 145
17642 17613 95
17642 17662 81
17642 17812 158
17643 17561 88
17643 17630 75
17643 17653 78
17643 17730 90
17644 17617 74
17644 17623 25
17644 17671 25
17645 17627 32
17645 17585 67
17645 17727 135
17646 17382 247
17646 17629 50
17646 17663 57
17646 17796 140
17647 17607 43
17647 17632 59
17647 17670 95
17647 17711 59
17648 17608 44
17649 17542 107
17650 17510 140
17650 17635 42
17650 17667 50
17650 17811 146
17651 17609 48
17651 17631 103
17651 17714 58
17652 17602 53
17653 17579 76
17653 17643 78
17653 17679 69
17653 17775 109
17654 17580 73
17654 17633 52
17654 17674 55
17654 17813 144
17655 17519 148
17655 17373 363
17655 17718 67
17656 17276 411
17656 17434 240
17656 17675 16
17656 17862 273
17657 17593 75
17657 17640 76
17657 17683 79
17657 17736 76
17658 17638 54
17658 17639 23
17658 17689 27
17658 17695 73
17659 17564 105
17659 17710 46
17659 17795 209
17660 17634 94
17660 17707 40
17661 17625 40
17661 17700 102
17661 17737 77
17662 17518 144
17662 17642 81
17662 17693 76
17662 17835 160
17663 17405 249
17663 17646 57
17663 17684 48
17663 17777 104
17664 17665 32
17665 17664 32
17665 17666 73
17665 17686 39
17666 17665 73
17667 17523 140
17667 17650 50
17667 17685 55
17667 17828 146
17668 17620 73
17668 17669 77
17668 17694 78
17668 17748 79
17669 17668 77
17669 17726 80
17670 17647 95
17670 17691 68
17670 17732 63
17671 17639 76
17671 17644 25
17671 17695 25
17672 17673 120
17672 18003 349
17673 17672 120
17673 17692 56
17674 17521 144
17674 17654 55
17674 17688 47
17674 17829 144
17675 17602 207
17675 17656 16
17675 17734 99
17676 17677 52
17677 17676 52
17677 17678 44
17677 17720 72
17678 17677 44
17678 17774 116
17679 17653 69
17680 17626 54
17680 17681 62
17680 17696 54
17680 17713 34
17681 17680 62
17682 17046 689
17682 17722 42
17682 17808 161
17683 17616 72
17683 17657 79
17683 17704 69
17684 17419 251
17684 17663 48
17684 17699 73
17685 17551 141
17685 17667 55
17685 17706 55
17685 17841 146
17686 17665 39
17686 17687 72
17686 17698 15
17687 17686 72
17688 17544 143
17688 17674 47
17688 17705 53
17688 17843 147
17689 17658 27
17689 17690 1
17689 17709 19
17689 17716 75
17690 17638 61
17690 17689 1
17690 17709 19
17691 17631 53
17691 17670 68
17691 17714 78
17692 17610 121
17692 17673 56
17693 17550 144
17693 17662 76
17693 17721 78
17693 17859 160
17694 17619 73
17694 17668 78
17694 17717 71
17694 17779 81
17695 17658 73
17695 17671 25
17695 17716 22
17696 17632 56
17696 17680 54
17696 17711 62
17696 17810 102
17697 17615 83
17698 17686 15
17698 17712 39
17698 17731 36
17699 17448 244
17699 17684 73
17699 17727 32
17700 17661 102
17701 17596 107
17701 17702 82
17701 17703 75
17701 17788 78
17702 17701 82
17702 17762 53
17703 17701 75
17703 17723 16
17703 17726 137
17704 17630 70
17704 17683 69
17704 17730 70
17704 17778 66
17705 17563 145
17705 17688 53
17705 17724 47
17705 17863 148
17706 17568 141
17706 17685 55
17706 17725 51
17706 17860 144
17707 17660 40
17707 17712 4
17707 17728 109
17708 17418 290
17709 17690 19
17709 17689 19
17709 17749 76
17710 17659 46
17710 17745 40
17710 17764 66
17711 17647 59
17711 17696 62
17711 17732 92
17711 17767 47
17712 17698 39
17712 17707 4
17712 17735 27
17713 17680 34
17714 17651 58
17714 17691 78
17714 17781 60
17715 17641 73
17715 17719 59
17716 17689 75
17716 17695 22
17716 17749 34
17717 17640 73
17717 17694 71
17717 17736 72
17717 17807 88
17718 17655 67
17718 17771 156
17719 17715 59
17719 17729 111
17719 17817 84
17720 17677 72
17720 17821 190
17721 17576 144
17721 17693 78
17721 17747 87
17721 17890 159
17722 17682 42
17722 17784 52
17723 17703 16
17723 17809 93
17723 17837 103
17724 17578 145
17724 17705 47
17724 17740 55
17724 17877 146
17725 17581 142
17725 17706 51
17725 17742 50
17726 17669 80
17726 17703 137
17726 17748 81
17727 17699 32
17727 17645 135
17727 17867 120
17728 17707 109
17728 17783 144
17728 17776 154
17729 17719 111
17729 17733 32
17729 17831 83
17730 17643 90
17730 17704 70
17730 17775 77
17730 17805 65
17731 17698 36
17731 17733 53
17731 17735 39
17731 17878 131
17732 17670 63
17732 17711 92
17732 17781 134
17732 17786 42
17733 17729 32
17733 17731 53
17733 17827 75
17734 17675 99
17735 17731 39
17735 17712 27
17735 17741 52
17735 17776 26
17736 17657 76
17736 17717 72
17736 17768 39
17736 17790 45
17737 17661 77
17738 17739 251
17739 17738 251
17739 17367 366
17739 17797 339
17740 17598 145
17740 17724 55
17740 17750 30
17741 17735 52
17742 17600 142
17742 17725 50
17742 17773 52
17743 17744 4068
17744 17743 4068
17744 20414 2918
17745 17710 40
17745 17746 120
17745 17789 46
17745 17794 67
17746 17745 120
17746 17789 71
17746 17803 84
17747 17605 144
17747 17721 87
17747 17782 67
17747 17925 159
17748 17668 79
17748 17726 81
17748 17779 76
17748 17847 165
17749 17709 76
17749 17716 34
17749 17795 51
17749 17895 169
17750 17740 30
17750 17761 18
17750 17815 54
17751 17752 47
17751 17850 200
17751 17873 156
17752 17751 47
17752 17798 88
17752 17911 771
17753 17754 137
17753 17755 13
17753 17857 97
17754 17753 137
17754 17760 429
17755 17753 13
17755 17765 48
17755 17766 39
17756 17757 30
17757 17756 30
17757 17758 292
17757 17774 21
17758 17757 292
17759 17760 27
17760 17759 27
17760 17754 429
17760 18021 438
17761 17614 143
17761 17750 18
17761 17780 52
17762 17702 53
17762 17763 70
17762 17788 73
17762 17845 81
17763 17762 70
17764 17710 66
17764 17794 39
17764 17830 106
17765 17755 48
17765 17766 10
17765 17771 31
17765 17771 32
17766 17755 39
17766 17765 10
17766 17883 114
17767 17711 47
17768 17736 39
17769 17591 197
17769 17770 223
17769 18249 519
17770 17769 223
17770 17481 100
17771 17765 31
17771 17772 9
17771 17718 156
17771 17765 32
17772 17771 9
17772 17818 65
17772 17903 128
17773 17621 144
17773 17742 52
17773 17787 56
17773 17923 144
17774 17678 116
17774 17757 21
17774 17820 72
17775 17653 109
17775 17730 77
17775 17802 79
17775 17806 33
17776 17735 26
17776 17728 154
17776 17900 121
17777 17663 104
17777 17804 24
17777 17814 87
17778 17704 66
17778 17805 66
17778 17888 113
17779 17694 81
17779 17748 76
17779 17807 60
17779 17874 92
17780 17629 141
17780 17761 52
17780 17796 48
17780 17840 62
17781 17714 60
17781 17732 134
17781 18008 264
17782 17624 149
17782 17747 67
17782 17793 41
17782 17957 158
17783 17728 144
17783 17784 80
17783 17875 231
17784 17722 52
17784 17783 80
17784 17816 32
17785 17613 161
17785 17800 17
17785 17812 79
17786 17732 42
17787 17633 144
17787 17773 56
17787 17813 55
17787 17946 144
17788 17701 78
17788 17762 73
17788 17809 52
17788 17851 60
17789 17745 46
17789 17746 71
17789 17833 68
17789 17849 79
17790 17736 45
17791 17792 46
17792 17791 46
17793 17635 147
17793 17782 41
17793 17811 43
17793 17854 61
17794 17764 39
17794 17745 67
17794 17833 46
17794 17858 99
17795 17749 51
17795 17659 209
17795 17799 8
17796 17646 140
17796 17780 48
17796 17819 62
17796 17871 73
17797 17739 339
17798 17752 88
17799 17795 8
17799 17822 29
17799 17938 157
17800 17785 17
17800 17855 91
17800 17885 86
17801 17802 87
17802 17801 87
17802 17775 79
17802 17832 71
17802 17836 34
17803 17746 84
17803 17849 77
17804 17777 24
17804 17819 13
17804 17839 73
17805 17730 65
17805 17778 66
17805 17834 74
17806 17775 33
17806 17834 31
17806 17836 80
17807 17717 88
17807 17779 60
17808 17682 161
17808 17972 148
17809 17723 93
17809 17788 52
17809 17838 73
17809 17891 87
17810 17696 102
17811 17650 146
17811 17793 43
17811 17828 51
17811 17980 159
17812 17642 158
17812 17785 79
17812 17835 84
17812 17855 50
17813 17654 144
17813 17787 55
17813 17829 56
17813 17967 144
17814 17777 87
17814 17839 37
17814 17848 50
17815 17750 54
17815 17840 76
17815 17852 41
17816 17784 32
17816 17869 52
17816 17916 203
17817 17719 84
17817 17824 34
17817 17831 126
17817 17926 98
17818 17772 65
17818 17856 50
17818 17912 89
17819 17804 13
17819 17796 62
17819 17844 26
17820 17774 72
17821 17465 382
17821 17720 190
17821 17887 146
17821 17944 149
17822 17799 29
17822 17830 9
17822 17961 151
17823 17824 76
17824 17823 76
17824 17817 34
17824 17845 104
17825 17826 97
17825 17842 53
17826 17825 97
17826 17861 125
17827 17733 75
17827 17831 31
17827 18096 233
17828 17667 146
17828 17811 51
17828 17841 57
17828 17995 159
17829 17674 144
17829 17813 56
17829 17843 46
17829 17985 144
17830 17822 9
17830 17764 106
17830 17858 43
17831 17729 83
17831 17827 31
17831 17817 126
17832 17802 71
17833 17794 46
17833 17789 68
17833 17866 37
17833 17886 74
17834 17806 31
17834 17805 74
17834 17884 53
17835 17662 160
17835 17812 84
17835 17859 75
17835 17939 92
17836 17802 34
17836 17806 80
17836 17905 148
17836 17928 85
17837 17723 103
17837 17838 12
17837 17846 10
17837 17853 91
17838 17837 12
17838 17809 73
17838 17920 79
17839 17814 37
17839 17804 73
17839 17868 30
17839 17876 53
17840 17780 62
17840 17815 76
17840 17871 59
17840 17940 94
17841 17685 146
17841 17828 57
17841 17860 54
17841 18015 159
17842 17825 53
17842 17880 57
17842 17941 86
17843 17688 147
17843 17829 46
17843 17863 55
17843 17999 143
17844 17819 26
17844 17868 52
17844 17872 25
17845 17762 81
17845 17824 104
17845 17851 89
17845 17982 131
17846 17837 10
17846 17853 151
17847 17748 165
17847 17853 16
17847 17899 85
17848 17814 50
17848 17867 24
17848 17876 36
17849 17789 79
17849 17803 77
17849 17917 76
17850 17751 200
17850 17864 42
17850 17948 160
17851 17788 60
17851 17845 89
17852 17815 41
17853 17847 16
17853 17837 91
17853 17846 151
17854 17793 61
17855 17812 50
17855 17800 91
17855 17939 98
17856 17818 50
17856 17861 11
17856 17918 52
17857 17753 97
17857 17883 52
17857 18052 167
17858 17830 43
17858 17794 99
17858 17902 55
17858 17979 136
17859 17693 160
17859 17835 75
17859 17890 82
17859 17994 121
17860 17706 144
17860 17841 54
17860 17879 50
17860 18046 162
17861 17856 11
17861 17826 125
17861 17932 62
17862 17656 273
17862 17959 235
17862 18210 543
17863 17705 148
17863 17843 55
17863 17877 53
17863 18022 143
17864 17850 42
17864 17865 36
17864 18031 184
17865 17864 36
17866 17833 37
17866 17917 50
17866 17924 70
17867 17727 120
17867 17848 24
17867 17921 46
17868 17839 30
17868 17844 52
17868 17896 36
17868 17913 54
17869 17816 52
17869 17870 41
17869 17916 117
17869 17978 93
17870 17869 41
17871 17796 73
17871 17840 59
17871 17915 35
17872 17844 25
17872 17896 34
17872 17915 71
17873 17751 156
17874 17779 92
17874 17901 41
17874 17930 162
17875 17783 231
17876 17848 36
17876 17839 53
17876 17913 30
17876 17921 47
17877 17724 146
17877 17863 53
17877 17934 46
17877 17940 133
17878 17731 131
17879 17860 50
17879 17898 50
17879 18065 159
17880 17842 57
17880 17895 19
17880 17976 84
17881 17882 247
17882 17881 247
17882 17887 11
17882 17998 118
17883 17857 52
17883 17766 114
17883 17903 50
17883 18050 143
17884 17834 53
17884 17928 86
17885 17800 86
17885 18049 197
17885 18088 203
17886 17833 74
17886 17902 17
17886 17924 37
17887 17882 11
17887 17821 146
17887 17945 122
17888 17778 113
17888 17910 94
17888 17947 46
17889 16916 1600
17889 17970 150
17889 17973 77
17890 17721 159
17890 17859 82
17890 17925 83
17890 18066 147
17891 17809 87
17891 17892 30
17891 17929 74
17891 17966 65
17892 17891 30
17893 17894 77
17894 17893 77
17894 17933 32
17894 18059 478
17895 17880 19
17895 17749 169
17895 17938 53
17896 17868 36
17896 17872 34
17896 17927 35
17896 17968 86
17897 17584 367
17897 18063 384
17897 18063 131
17898 17879 50
17898 17923 51
17898 18086 159
17899 17847 85
17899 17922 53
17899 17930 25
17900 17776 121
17901 17874 41
17901 17933 81
17901 17942 34
17902 17858 55
17902 17886 17
17902 17958 57
17903 17883 50
17903 17772 128
17903 17912 45
17903 18048 125
17904 17905 50
17904 18008 201
17905 17904 50
17905 17836 148
17905 17977 116
17905 18035 176
17906 17907 104
17906 17914 34
17906 17936 28
17907 17906 104
17908 17909 14
17909 17908 14
17910 17888 94
17911 17752 771
17911 18027 846
17911 18083 453
17912 17903 45
17912 17818 89
17912 17918 45
17912 18037 111
17913 17876 30
17913 17868 54
17913 17935 29
17914 17906 34
17915 17872 71
17915 17871 35
17915 17953 93
17916 17816 203
17916 17869 117
17916 17989 68
17917 17866 50
17917 17849 76
17918 17912 45
17918 17856 52
17918 17919 5
17919 17918 5
17919 17932 39
17919 18026 96
17920 17838 79
17920 17929 8
17920 17997 313
17921 17867 46
17921 17876 47
17921 17956 27
17922 17899 53
17923 17773 144
17923 17898 51
17923 17946 57
17923 18108 159
17924 17886 37
17924 17866 70
17924 17969 52
17925 17747 159
17925 17890 83
17925 17957 69
17925 18104 151
17926 17817 98
17927 17896 35
17927 17943 30
17927 18002 127
17928 17836 85
17928 17884 86
17928 17960 28
17928 17977 100
17929 17920 8
17929 17891 74
17929 17966 117
17930 17899 25
17930 17931 97
17930 17874 162
17931 17930 97
17932 17919 39
17932 17861 62
17932 17941 63
17933 17894 32
17933 17901 81
17933 17971 32
17934 17877 46
17934 17987 46
17934 17991 144
17935 17913 29
17935 17962 23
17935 17968 33
17936 17906 28
17936 17937 65
17936 17998 208
17937 17936 65
17938 17895 53
17938 17799 157
17938 17961 30
17938 17993 65
17939 17835 92
17939 17855 98
17939 17974 53
17939 18049 97
17940 17840 94
17940 17877 133
17940 17953 21
17941 17932 63
17941 17842 86
17941 17976 52
17941 18040 88
17942 17901 34
17942 17971 72
17942 17997 52
17943 17927 30
17943 17975 38
17943 18010 99
17944 17821 149
17944 17945 116
17944 18290 470
17945 17887 122
17945 17944 116
17945 17998 80
17946 17787 144
17946 17923 57
17946 17967 53
17946 18128 159
17947 17888 46
17947 17954 144
17947 17965 16
17948 17850 160
17948 17949 16
17948 18081 126
17949 17950 123
17949 17948 16
17949 17950 84
17950 17949 123
17950 17955 46
17950 17949 84
17951 17952 28
17951 17956 91
17952 17951 28
17952 17963 40
17952 17996 61
17953 17915 93
17953 17940 21
17953 17983 34
17954 17947 144
17955 17950 46
17956 17951 91
17956 17921 27
17956 17962 6
17957 17782 158
17957 17925 69
17957 17980 83
17957 18131 153
17958 17902 57
17958 18012 71
17958 18038 157
17959 17862 235
17960 17928 28
17961 17938 30
17961 17822 151
17961 17964 14
17962 17956 6
17962 17935 23
17962 17992 33
17963 17952 40
17963 18054 91
17964 17961 14
17964 17979 37
17964 18055 94
17965 17947 16
17965 17984 152
17965 18004 37
17966 17929 117
17966 17891 65
17966 17982 160
17967 17813 144
17967 17946 53
17967 17985 55
17967 18143 159
17968 17935 33
17968 17896 86
17968 17992 32
17969 17924 52
17969 18019 219
17969 18038 61
17970 17889 150
17970 17986 19
17970 18175 246
17971 17933 32
17971 17942 72
17971 18030 130
17972 17808 148
17972 17978 33
17972 17981 11
17973 17889 77
17973 17986 162
17973 19522 1914
17974 17939 53
17974 17994 47
17974 18016 42
17975 17943 38
17975 18014 39
17975 18028 84
17976 17941 52
17976 17880 84
17976 17988 26
17976 18039 55
17977 17905 116
17977 17928 100
17978 17869 93
17978 17972 33
17978 18080 238
17979 17964 37
17979 17858 136
17979 18091 143
17980 17811 159
17980 17957 83
17980 17995 51
17980 18156 152
17981 17972 11
17981 18893 1328
17982 17966 160
17982 17845 131
17982 18078 81
17983 17953 34
17983 17991 6
17983 18044 106
17984 17965 152
17985 17829 144
17985 17967 55
17985 17999 46
17985 18164 159
17986 17970 19
17986 17973 162
17986 18085 81
17987 17934 46
17987 18045 49
17987 18057 170
17988 17976 26
17988 17993 19
17989 17990 60
17989 17916 68
17989 18060 74
17990 17989 60
17990 18025 84
17991 17983 6
17991 17934 144
17991 18036 40
17992 17962 33
17992 17968 32
17992 18002 16
17993 17988 19
17993 17938 65
17993 18013 19
17994 17859 121
17994 17974 47
17994 18029 27
17995 17828 159
17995 17980 51
17995 18011 37
17996 17952 61
17996 18054 71
17997 17942 52
17997 17920 313
17997 18030 26
17998 17882 118
17998 17945 80
17998 17936 208
17999 17843 143
17999 17985 46
17999 18022 54
17999 18178 159
18000 18001 50
18001 18000 50
18001 18047 56
18002 17992 16
18002 17927 127
18002 18061 44
18003 17672 349
18003 18072 84
18003 18165 142
18004 17965 37
18004 18020 117
18004 18059 41
18005 18006 214
18005 18007 24
18005 18105 182
18006 18005 214
18007 18005 24
18008 17781 264
18008 17904 201
18008 18035 31
18009 17591 714
18010 17943 99
18010 18028 32
18010 18061 52
18011 17995 37
18011 18015 20
18011 18176 146
18012 17958 71
18013 17993 19
18013 18043 24
18013 18055 39
18014 17975 39
18014 18044 20
18014 18051 49
18015 17841 159
18015 18011 20
18015 18046 58
18016 17974 42
18016 18058 54
18016 18075 43
18017 18018 27
18017 18056 38
18017 18093 75
18018 18017 27
18019 17969 219
18020 18004 117
18020 18135 93
18020 18114 510
18021 17760 438
18022 17863 143
18022 17999 54
18022 18045 56
18022 18196 159
18023 18024 232
18024 18023 232
18025 17990 84
18025 18060 52
18025 18119 92
18026 17919 96
18026 18037 52
18026 18040 102
18027 17911 846
18027 18106 285
18027 18492 632
18028 18010 32
18028 17975 84
18028 18051 46
18028 18068 34
18029 17994 27
18029 18058 22
18029 18066 82
18030 17997 26
18030 17971 130
18030 18098 59
18031 17864 184
18031 18032 38
18031 18033 3
18032 18031 38
18033 18031 3
18033 18034 116
18033 18064 220
18034 18033 116
18035 18008 31
18035 17905 176
18035 18114 98
18036 17991 40
18036 18057 13
18036 18090 99
18037 17912 111
18037 18026 52
18037 18048 55
18038 17958 157
18038 17969 61
18038 18245 221
18039 17976 55
18039 18040 55
18039 18043 41
18040 17941 88
18040 18039 55
18040 18026 102
18041 18042 19
18042 18041 19
18042 18079 40
18042 18335 403
18043 18013 24
18043 18039 41
18043 18130 94
18044 18014 20
18044 17983 106
18044 18074 23
18045 17987 49
18045 18022 56
18045 18107 50
18045 18124 192
18046 17860 162
18046 18015 58
18046 18065 49
18046 18201 146
18047 18001 56
18047 18087 54
18048 17903 125
18048 18037 55
18048 18050 52
18049 17939 97
18049 17885 197
18049 18062 6
18050 17883 143
18050 18048 52
18050 18052 56
18051 18028 46
18051 18014 49
18051 18074 51
18052 17857 167
18052 18050 56
18052 18053 8
18053 18052 8
18053 18372 690
18054 17963 91
18054 17996 71
18055 18013 39
18055 17964 94
18055 18163 139
18056 18017 38
18056 18089 41
18056 18125 77
18057 18036 13
18057 17987 170
18057 18124 55
18058 18029 22
18058 18016 54
18058 18100 37
18059 18004 41
18059 18092 40
18059 17894 478
18060 18025 52
18060 17989 74
18060 18080 39
18061 18002 44
18061 18010 52
18061 18099 41
18061 18102 59
18062 18049 6
18062 18075 27
18062 18180 113
18063 17897 384
18063 17897 131
18063 18205 164
18064 18033 220
18064 18145 182
18064 18159 155
18065 17879 159
18065 18046 49
18065 18086 50
18065 18219 147
18066 17890 147
18066 18029 82
18066 18104 70
18066 18155 90
18067 18068 29
18068 18067 29
18068 18028 34
18068 18115 95
18069 17610 459
18069 18088 18
18069 18160 83
18070 18071 142
18071 18070 142
18071 18082 73
18071 18101 34
18072 18073 43
18072 18003 84
18072 18094 27
18073 18072 43
18074 18051 51
18074 18044 23
18074 18090 15
18075 18016 43
18075 18062 27
18075 18100 43
18076 18077 222
18077 18076 222
18078 17982 81
18078 18116 31
18078 18179 137
18079 18042 40
18079 18162 98
18079 18363 271
18080 18060 39
18080 17978 238
18080 18133 50
18081 17948 126
18081 18220 581
18082 18071 73
18083 17911 453
18084 16114 1751
18084 18147 83
18085 17986 81
18086 17898 159
18086 18065 50
18086 18108 49
18086 18240 147
18087 18047 54
18088 17885 203
18088 18069 18
18088 18138 97
18088 18160 76
18089 18056 41
18089 18123 40
18089 18146 75
18090 18074 15
18090 18036 99
18090 18115 21
18090 18127 33
18091 17979 143
18092 18059 40
18092 18103 48
18092 18129 32
18093 18017 75
18093 18109 14
18094 18095 53
18094 18072 27
18094 18144 59
18095 18094 53
18096 17827 233
18096 18097 117
18096 18116 215
18096 18190 93
18097 18096 117
18098 18030 59
18098 18181 145
18098 18204 120
18099 18061 41
18099 18132 33
18099 18139 112
18100 18058 37
18100 18075 43
18100 18126 27
18101 18071 34
18101 18151 99
18101 18185 101
18102 18061 59
18102 18161 110
18102 18193 99
18103 18092 48
18104 17925 151
18104 18066 70
18104 18131 86
18104 18186 83
18105 18005 182
18105 18110 155
18105 18177 140
18106 18027 285
18106 18562 572
18106 21298 6821
18107 18045 50
18107 18153 49
18107 18166 181
18108 17923 159
18108 18086 49
18108 18128 58
18108 18260 147
18109 18093 14
18109 18125 21
18109 18214 146
18110 18111 170
18110 18105 155
18110 18134 42
18111 18110 170
18112 18113 58
18113 18112 58
18113 18117 22
18113 18165 179
18114 18035 98
18114 18020 510
18114 18922 758
18115 18068 95
18115 18090 21
18115 18139 28
18116 18078 31
18116 18096 215
18116 18449 367
18117 18113 22
18117 18148 33
18117 18206 153
18118 14879 2584
18118 18147 58
18118 18207 119
18119 18025 92
18119 18120 42
18119 18121 2
18119 18121 2
18120 18119 42
18121 18119 2
18121 18119 2
18121 18122 42
18121 18133 25
18122 18121 42
18123 18089 40
18123 18158 46
18123 18161 56
18124 18057 55
18124 18045 192
18124 18127 87
18124 18154 66
18124 18157 38
18125 18109 21
18125 18056 77
18125 18146 42
18126 18100 27
18126 18155 77
18126 18227 110
18127 18090 33
18127 18124 87
18127 18139 41
18127 18154 31
18128 17946 159
18128 18108 58
18128 18143 54
18128 18281 147
18129 18092 32
18129 18135 64
18129 18174 47
18130 18043 94
18131 17957 153
18131 18104 86
18131 18156 81
18131 18253 120
18132 18099 33
18132 18167 37
18132 18168 97
18133 18121 25
18133 18080 50
18133 18228 96
18134 18110 42
18135 18020 93
18135 18129 64
18135 18142 103
18135 18174 94
18136 18137 9
18136 18152 18
18136 18152 19
18137 18136 9
18138 18088 97
18138 18192 115
18138 18198 61
18139 18099 112
18139 18115 28
18139 18127 41
18139 18168 33
18140 18141 268
18141 18140 268
18142 18135 103
18143 17967 159
18143 18128 54
18143 18164 54
18143 18297 146
18144 15991 1728
18144 18094 59
18144 18263 111
18145 18064 182
18145 18195 164
18145 18218 107
18146 18125 42
18146 18089 75
18146 18214 68
18147 18118 58
18147 18084 83
18147 18475 382
18148 18117 33
18148 18149 81
18148 18183 32
18149 18148 81
18150 18151 89
18151 18150 89
18151 18101 99
18151 18181 54
18151 18185 41
18152 18136 18
18152 18136 19
18152 18208 59
18153 18107 49
18153 18202 153
18153 18211 59
18154 18127 31
18154 18124 66
18154 18189 35
18154 18194 81
18155 18066 90
18155 18126 77
18155 18186 102
18155 18274 114
18156 17980 152
18156 18131 81
18156 18176 78
18156 18304 145
18157 18124 38
18157 18166 15
18157 18189 65
18158 18123 46
18158 18170 24
18158 18171 21
18159 18064 155
18159 18169 83
18159 18409 278
18160 18088 76
18160 18069 83
18160 18215 65
18161 18123 56
18161 18102 110
18161 18197 49
18162 18079 98
18162 18299 184
18162 18384 217
18163 18055 139
18164 17985 159
18164 18143 54
18164 18178 47
18164 18319 147
18165 18003 142
18165 18113 179
18165 18206 44
18165 18263 156
18166 18157 15
18166 18107 181
18166 18184 26
18167 18132 37
18167 18203 96
18167 18267 110
18168 18132 97
18168 18139 33
18168 18182 13
18169 18159 83
18170 18158 24
18170 18197 34
18170 18256 82
18171 18158 21
18171 18232 67
18172 18173 99
18173 18172 99
18173 18175 63
18173 18282 183
18174 18129 47
18174 18135 94
18174 18199 26
18175 17970 246
18175 18173 63
18175 18282 118
18176 18011 146
18176 18156 78
18176 18201 80
18177 18105 140
18177 18191 42
18177 18278 303
18178 17999 159
18178 18164 47
18178 18196 53
18178 18339 147
18179 18078 137
18179 18216 52
18179 18229 76
18180 18062 113
18180 18200 23
18181 18098 145
18181 18151 54
18181 18522 443
18182 18168 13
18182 18194 10
18183 18148 32
18183 18259 129
18183 18306 114
18184 18166 26
18184 18202 31
18184 18213 74
18185 18151 41
18185 18101 101
18186 18104 83
18186 18155 102
18186 18253 93
18187 18188 109
18188 18187 109
18189 18154 35
18189 18157 65
18189 18212 74
18189 18213 33
18190 18096 93
18190 18209 95
18190 18266 76
18191 18177 42
18191 18210 211
18191 18217 124
18192 18138 115
18192 18200 35
18192 18246 72
18193 18102 99
18194 18182 10
18194 18154 81
18194 18203 13
18195 18145 164
18196 18022 159
18196 18178 53
18196 18211 54
18196 18355 143
18197 18170 34
18197 18161 49
18197 18255 84
18197 18272 69
18198 18138 61
18198 18239 46
18198 18246 68
18199 18174 26
18199 18223 28
18199 18270 140
18200 18180 23
18200 18192 35
18200 18227 59
18200 18277 72
18201 18046 146
18201 18176 80
18201 18219 55
18202 18184 31
18202 18153 153
18202 18231 33
18202 18243 78
18203 18167 96
18203 18194 13
18203 18212 14
18204 18098 120
18204 18241 59
18204 18309 108
18205 18063 164
18206 18165 44
18206 18117 153
18206 18248 78
18206 18259 54
18207 18118 119
18207 18341 153
18207 18360 147
18208 18152 59
18208 18261 46
18208 18261 46
18209 18190 95
18210 18191 211
18210 17862 543
18210 18257 84
18211 18153 59
18211 18196 54
18211 18233 79
18211 18307 100
18212 18203 14
18212 18189 74
18212 18258 45
18213 18189 33
18213 18184 74
18213 18243 34
18213 18258 85
18214 18109 146
18214 18146 68
18214 18232 37
18215 18160 65
18215 18244 22
18215 18251 68
18216 18179 52
18216 18252 88
18216 18289 84
18217 18191 124
18217 18221 7
18217 18294 92
18218 18145 107
18218 18225 17
18218 18296 114
18219 18065 147
18219 18201 55
18219 18240 51
18220 18081 581
18220 18315 210
18220 18379 144
18221 18217 7
18221 18222 19
18221 18236 15
18222 18221 19
18222 18236 22
18222 18250 32
18222 18254 107
18223 18199 28
18223 18224 109
18223 18283 105
18223 18387 167
18224 18223 109
18225 18218 17
18225 18226 63
18225 18257 248
18226 18225 63
18227 18126 110
18227 18200 59
18227 18274 95
18227 18287 56
18228 18133 96
18229 18230 100
18229 18179 76
18229 18252 12
18230 18229 100
18231 18202 33
18231 18264 26
18231 18273 67
18232 18214 37
18232 18171 67
18232 18247 13
18233 18211 79
18233 18264 71
18233 18286 41
18234 18235 92
18235 18234 92
18236 18221 15
18236 18222 22
18236 18250 16
18237 18238 71
18238 18237 71
18239 18198 46
18239 18271 72
18239 18301 60
18240 18086 147
18240 18219 51
18240 18260 48
18241 18242 112
18241 18204 59
18241 18275 61
18241 18344 107
18242 18241 112
18243 18213 34
18243 18202 78
18243 18273 35
18243 18285 82
18244 18215 22
18244 18301 70
18244 18303 57
18245 18038 221
18246 18192 72
18246 18198 68
18246 18271 26
18247 18232 13
18247 18256 18
18247 18291 63
18248 18206 78
18248 18265 47
18248 18293 65
18249 17769 519
18249 18353 113
18249 18353 112
18250 18236 16
18250 18222 32
18250 18254 24
18251 18215 68
18251 15961 1843
18251 18433 176
18252 18229 12
18252 18216 88
18252 18280 27
18253 18131 120
18253 18186 93
18253 18318 78
18254 18250 24
18254 18222 107
18254 18316 88
18255 18197 84
18256 18247 18
18256 18170 82
18256 18262 18
18257 18210 84
18257 18225 248
18257 18832 1656
18258 18212 45
18258 18213 85
18258 18302 41
18259 18206 54
18259 18183 129
18259 18337 72
18260 18108 147
18260 18240 48
18260 18281 54
18260 18292 38
18261 18208 46
18261 18208 46
18261 18617 398
18262 18256 18
18262 18272 18
18262 18295 49
18263 18144 111
18263 18165 156
18263 18265 29
18263 18365 91
18264 18231 26
18264 18233 71
18264 18279 12
18265 18263 29
18265 18248 47
18265 18330 73
18266 18190 76
18266 18453 189
18267 18167 110
18267 18298 62
18267 18324 61
18268 18269 266
18268 17539 1202
18268 18729 1133
18269 18268 266
18269 18394 168
18269 19455 1093
18270 18199 140
18271 18246 26
18271 18239 72
18271 18354 79
18272 18262 18
18272 18197 69
18272 18317 67
18273 18243 35
18273 18231 67
18273 18305 32
18273 18310 75
18274 18155 114
18274 18227 95
18274 18323 42
18275 18276 90
18275 18241 61
18275 18313 61
18275 18385 114
18276 18275 90
18277 18200 72
18277 18354 72
18278 18177 303
18278 18284 98
18278 18739 696
18279 18264 12
18279 18300 20
18279 18305 60
18280 18252 27
18280 18288 43
18280 18289 117
18281 18128 147
18281 18260 54
18281 18297 54
18282 18175 118
18282 18173 183
18282 18936 1005
18283 18223 105
18284 18278 98
18285 18243 82
18285 18302 40
18285 18310 37
18286 18233 41
18286 18300 72
18286 18308 20
18287 18227 56
18287 18332 101
18287 18408 124
18288 18280 43
18289 18216 84
18289 18280 117
18289 18489 193
18290 17944 470
18291 18247 63
18292 18260 38
18292 18311 51
18292 18325 30
18293 18248 65
18293 18330 58
18293 18361 66
18294 18217 92
18295 18262 49
18295 18312 21
18295 18328 36
18296 18218 114
18297 18143 146
18297 18281 54
18297 18319 54
18298 18267 62
18299 18162 184
18300 18279 20
18300 18286 72
18300 18349 45
18301 18239 60
18301 18244 70
18301 18345 48
18302 18258 41
18302 18285 40
18302 18324 20
18303 18244 57
18303 18338 32
18303 18345 61
18304 18156 145
18304 18318 13
18304 18464 292
18305 18273 32
18305 18279 60
18305 18340 58
18305 18346 40
18306 18183 114
18306 18337 78
18307 18211 100
18307 18322 10
18307 18331 94
18308 18286 20
18308 18349 98
18309 18204 108
18310 18285 37
18310 18273 75
18310 18340 41
18311 18292 51
18311 18352 35
18312 18295 21
18312 18314 3
18313 18275 61
18313 18387 124
18313 18439 139
18314 18312 3
18314 18342 49
18314 18370 58
18315 18220 210
18315 18327 32
18315 18329 14
18316 18254 88
18317 18272 67
18317 18351 56
18317 18396 115
18318 18304 13
18318 18253 78
18318 18405 93
18319 18164 147
18319 18297 54
18319 18339 49
18320 18321 146
18321 18320 146
18321 18329 218
18321 18503 216
18322 18307 10
18322 18366 72
18322 18368 42
18323 18274 42
18323 18326 31
18323 18332 12
18324 18267 61
18324 18302 20
18324 18343 19
18325 18292 30
18325 18352 57
18325 18415 94
18326 18323 31
18327 18315 32
18328 18295 36
18328 18356 25
18328 18351 49
18329 18315 14
18329 18321 218
18329 18437 105
18330 18265 73
18330 18293 58
18330 18403 88
18331 18307 94
18331 18366 31
18332 18323 12
18332 18287 101
18332 18350 14
18333 18334 101
18334 18333 101
18335 18336 170
18335 18042 403
18335 18506 162
18336 18335 170
18337 18259 72
18337 18306 78
18337 18361 33
18338 18303 32
18338 18358 17
18338 18433 124
18339 18178 147
18339 18319 49
18339 18355 49
18340 18310 41
18340 18305 58
18340 18357 22
18340 18367 36
18341 18207 153
18341 18360 51
18341 18461 140
18342 18314 49
18343 18324 19
18343 18359 13
18343 18389 84
18344 18241 107
18345 18301 48
18345 18303 61
18345 18391 49
18345 18406 147
18346 18305 40
18346 18364 23
18346 18367 42
18347 18348 36
18347 18357 13
18347 18398 78
18348 18347 36
18348 18359 49
18349 18300 45
18349 18308 98
18349 18364 10
18350 18332 14
18351 18317 56
18351 18328 49
18351 18445 95
18352 18311 35
18352 18325 57
18352 18463 119
18353 18249 113
18353 18249 112
18353 18371 17
18354 18277 72
18354 18271 79
18354 18406 56
18355 18196 143
18355 18339 49
18355 18362 24
18356 18328 25
18357 18347 13
18357 18340 22
18357 18378 22
18358 18338 17
18358 18391 59
18358 18417 64
18359 18343 13
18359 18348 49
18359 18383 22
18360 18207 147
18360 18341 51
18360 18511 149
18361 18293 66
18361 18337 33
18361 18403 47
18362 18355 24
18362 18368 31
18362 18414 143
18363 18079 271
18363 18375 12
18364 18346 23
18364 18349 10
18364 18373 11
18365 18263 91
18365 18440 122
18365 18545 191
18366 18331 31
18366 18322 72
18366 18386 28
18366 18388 46
18367 18340 36
18367 18346 42
18367 18378 33
18367 18447 97
18368 18322 42
18368 18362 31
18368 18386 40
18368 18410 47
18369 18370 21
18370 18369 21
18370 18314 58
18370 18381 24
18371 18353 17
18371 21208 4636
18372 18053 690
18372 18618 950
18372 18840 423
18373 18364 11
18373 18374 87
18373 18402 32
18373 18477 130
18374 18373 87
18374 18388 30
18375 18363 12
18375 18384 95
18375 18446 75
18376 18377 9
18377 18376 9
18377 18390 18
18377 18462 121
18378 18357 22
18378 18367 33
18378 18404 67
18378 18425 68
18379 18220 144
18379 18382 53
18379 18430 75
18380 18381 26
18381 18380 26
18381 18370 24
18381 18399 18
18382 18379 53
18383 18359 22
18383 18398 16
18383 18413 71
18384 18375 95
18384 18162 217
18384 18401 19
18385 18275 114
18386 18366 28
18386 18368 40
18386 18407 45
18387 18223 167
18387 18313 124
18387 18482 113
18388 18374 30
18388 18366 46
18388 18407 27
18388 18426 79
18389 18343 84
18389 18412 53
18389 18413 34
18390 18377 18
18391 18345 49
18391 18358 59
18391 18450 134
18391 18458 68
18392 18393 19
18393 18392 19
18394 18269 168
18394 18395 647
18394 18582 168
18395 18394 647
18396 18317 115
18396 18397 63
18396 18411 29
18397 18396 63
18398 18383 16
18398 18347 78
18398 18420 24
18399 18381 18
18399 18400 24
18399 18443 53
18400 18399 24
18401 18384 19
18401 18473 82
18401 18714 269
18402 18373 32
18402 18426 37
18402 18485 103
18403 18330 88
18403 18361 47
18403 18440 43
18404 18378 67
18404 18425 30
18405 18318 93
18406 18354 56
18406 18345 147
18406 18408 49
18406 18434 40
18406 18450 50
18407 18388 27
18407 18386 45
18407 18436 33
18407 18451 78
18408 18287 124
18408 18406 49
18408 18434 31
18409 18159 278
18410 18368 47
18410 18418 8
18410 18436 61
18411 18396 29
18411 18412 50
18411 18432 20
18412 18411 50
18412 18389 53
18412 18441 34
18413 18389 34
18413 18383 71
18413 18441 52
18413 18442 34
18414 18362 143
18414 18419 70
18414 18448 31
18415 18325 94
18415 18416 233
18415 18429 14
18416 18415 233
18417 18358 64
18417 18458 53
18417 18486 69
18418 18410 8
18418 18419 80
18418 18457 35
18419 18418 80
18419 18414 70
18419 18431 24
18420 18398 24
18420 18442 47
18420 18456 33
18421 18422 5
18421 18430 12
18421 18435 19
18422 18421 5
18423 18424 92
18424 18423 92
18424 18497 149
18424 18550 174
18425 18404 30
18425 18378 68
18425 18447 28
18425 18481 68
18426 18402 37
18426 18388 79
18426 18451 27
18426 18500 85
18427 18428 54
18428 18427 54
18429 18415 14
18429 18463 52
18429 18464 35
18430 18379 75
18430 18421 12
18430 18603 217
18431 18419 24
18431 18438 28
18431 18448 81
18432 18411 20
18432 18466 31
18432 18469 78
18433 18338 124
18433 18251 176
18433 18498 69
18434 18408 31
18434 18406 40
18434 18479 70
18435 18421 19
18436 18407 33
18436 18410 61
18436 18460 24
18437 18329 105
18438 18431 28
18438 18457 44
18438 18471 36
18439 18313 139
18440 18365 122
18440 18403 43
18440 18472 34
18441 18412 34
18441 18413 52
18441 18465 37
18441 18474 61
18442 18413 34
18442 18420 47
18442 18465 39
18443 18399 53
18443 18444 21
18443 18617 507
18444 18443 21
18444 18445 81
18444 18452 52
18445 18444 81
18445 18351 95
18445 18452 11
18446 18375 75
18446 18473 80
18446 18541 88
18447 18425 28
18447 18367 97
18447 18477 44
18447 18523 79
18448 18414 31
18448 18431 81
18448 18459 9
18449 18116 367
18449 18489 68
18449 18636 161
18450 18406 50
18450 18391 134
18450 18513 71
18450 18542 119
18451 18426 27
18451 18407 78
18451 18470 30
18451 18516 77
18452 18444 52
18452 18445 11
18452 18533 92
18452 18535 76
18453 18266 189
18454 18455 82
18455 18454 82
18455 18462 5
18456 18420 33
18456 18481 33
18456 18488 60
18457 18418 35
18457 18438 44
18457 18478 29
18458 18391 68
18458 18417 53
18458 18513 133
18459 18448 9
18459 18467 117
18459 18480 32
18460 18436 24
18460 18468 13
18460 18470 73
18461 18341 140
18461 18504 49
18461 18783 251
18462 18455 5
18462 18377 121
18462 18501 41
18463 18352 119
18463 18429 52
18463 18487 49
18464 18429 35
18464 18304 292
18464 18508 50
18464 18517 100
18465 18441 37
18465 18442 39
18465 18488 35
18465 18499 81
18466 18432 31
18466 18474 12
18466 18502 69
18467 18459 117
18468 18460 13
18468 18491 36
18468 18514 47
18469 18432 78
18469 18494 36
18469 18502 33
18470 18451 30
18470 18460 73
18470 18527 51
18471 18438 36
18471 18478 49
18471 18493 54
18471 18510 34
18472 18440 34
18473 18446 80
18473 18401 82
18473 18559 77
18474 18466 12
18474 18441 61
18474 18499 28
18475 18147 382
18475 18476 27
18475 18519 41
18476 18475 27
18477 18447 44
18477 18373 130
18477 18490 16
18477 18515 43
18478 18457 29
18478 18471 49
18478 18507 21
18479 18434 70
18479 18542 50
18479 18570 122
18480 18459 32
18480 18493 54
18480 18555 63
18481 18456 33
18481 18425 68
18481 18518 60
18481 18523 34
18482 18387 113
18483 18484 17
18484 18483 17
18484 18587 179
18485 18402 103
18485 18490 20
18485 18500 39
18486 18417 69
18486 18540 42
18486 18584 166
18487 18463 49
18487 18517 32
18487 18555 101
18488 18465 35
18488 18456 60
18488 18518 28
18488 18538 89
18489 18289 193
18489 18449 68
18489 18550 51
18490 18477 16
18490 18485 20
18490 18515 45
18490 18521 44
18490 18561 55
18491 18468 36
18491 18507 50
18491 18530 35
18492 18027 632
18493 18471 54
18493 18480 54
18493 18532 30
18494 18469 36
18495 18496 33
18495 18522 59
18495 18529 27
18496 18495 33
18496 18566 69
18497 18424 149
18497 18566 77
18497 18569 52
18498 18433 69
18498 18540 65
18498 18912 377
18499 18474 28
18499 18465 81
18499 18538 31
18499 18544 66
18500 18485 39
18500 18426 85
18500 18516 26
18501 18462 41
18501 18552 48
18501 18600 110
18502 18469 33
18502 18466 69
18502 18533 47
18502 18544 36
18503 18321 216
18503 18531 217
18503 18972 394
18504 18505 74
18504 18461 49
18504 18543 30
18505 18504 74
18505 18512 38
18506 18335 162
18507 18491 50
18507 18478 21
18507 18528 13
18508 18464 50
18508 18509 251
18508 18564 46
18508 18580 100
18509 18508 251
18510 18471 34
18510 18524 9
18510 18528 56
18511 18360 149
18511 18545 739
18511 18727 149
18512 18505 38
18512 18567 44
18512 18703 146
18513 18450 71
18513 18458 133
18513 18584 55
18513 18608 117
18514 18468 47
18514 18527 16
18514 18530 40
18515 18477 43
18515 18490 45
18515 18556 50
18516 18500 26
18516 18451 77
18516 18534 31
18516 18546 27
18517 18487 32
18517 18464 100
18517 18580 49
18517 18593 103
18518 18488 28
18518 18481 60
18518 18551 49
18518 18572 41
18519 18475 41
18519 18520 31
18519 19762 897
18520 18519 31
18521 18490 44
18521 18546 34
18521 18592 69
18522 18181 443
18522 18495 59
18522 18560 76
18522 18623 82
18523 18481 34
18523 18447 79
18523 18556 26
18523 18572 64
18524 18510 9
18524 18532 39
18524 18579 41
18525 18526 165
18526 18525 165
18526 18541 39
18526 18643 88
18526 18645 149
18527 18470 51
18527 18514 16
18527 18534 66
18527 18589 52
18528 18507 13
18528 18510 56
18528 18568 31
18529 18495 27
18530 18514 40
18530 18491 35
18530 18631 80
18531 18503 217
18531 18539 22
18531 18573 53
18532 18524 39
18532 18493 30
18532 18555 88
18533 18452 92
18533 18502 47
18533 18576 47
18533 18577 31
18534 18516 31
18534 18527 66
18534 18574 33
18535 18452 76
18535 18575 37
18535 18576 35
18536 18537 58
18537 18536 58
18537 18547 30
18537 18583 74
18538 18499 31
18538 18488 89
18538 18578 29
18538 18581 66
18539 18531 22
18540 18486 42
18540 18498 65
18540 18626 63
18540 18649 154
18541 18526 39
18541 18446 88
18541 18559 73
18541 18667 90
18542 18479 50
18542 18450 119
18542 18608 55
18542 18624 122
18543 18504 30
18543 18567 29
18544 18502 36
18544 18499 66
18544 18577 51
18544 18581 28
18545 18365 191
18545 18511 739
18545 18958 375
18546 18521 34
18546 18516 27
18546 18574 30
18546 18650 81
18547 18537 30
18547 18548 68
18547 18549 7
18548 18547 68
18549 18547 7
18549 18557 48
18549 18602 38
18550 18424 174
18550 18489 51
18550 18599 38
18551 18518 49
18551 18578 39
18551 18601 41
18552 18501 48
18552 18594 41
18552 18710 164
18553 18554 74
18554 18553 74
18554 18625 54
18554 18636 92
18555 18532 88
18555 18480 63
18555 18487 101
18555 18593 33
18556 18523 26
18556 18515 50
18556 18595 55
18556 18620 44
18557 18549 48
18557 18558 70
18557 18585 46
18557 18622 58
18558 18557 70
18559 18473 77
18559 18541 73
18559 18711 106
18560 18522 76
18560 18605 137
18560 18659 72
18561 18490 55
18561 18592 25
18561 18620 82
18562 18106 572
18562 18563 50
18562 18705 110
18563 18562 50
18564 18508 46
18564 18565 185
18564 18621 47
18564 18640 100
18565 18564 185
18566 18496 69
18566 18497 77
18566 18571 11
18567 18512 44
18567 18543 29
18567 18703 95
18568 18528 31
18568 18579 60
18568 18632 56
18569 18497 52
18570 18479 122
18570 18624 43
18571 18566 11
18571 18609 57
18571 18658 59
18572 18518 41
18572 18523 64
18572 18595 23
18572 18601 47
18573 18531 53
18574 18546 30
18574 18534 33
18574 18635 62
18574 18646 57
18575 18535 37
18575 18612 29
18575 18674 85
18576 18535 35
18576 18533 47
18576 18604 26
18576 18612 42
18577 18533 31
18577 18544 51
18577 18604 40
18577 18614 32
18578 18538 29
18578 18551 39
18578 18665 60
18578 18662 122
18579 18568 60
18579 18524 41
18579 18586 49
18579 18613 28
18580 18517 49
18580 18508 100
18580 18640 49
18580 18661 102
18581 18544 28
18581 18538 66
18581 18614 53
18582 18394 168
18583 18537 74
18583 18591 9
18583 18622 113
18584 18513 55
18584 18486 166
18584 18649 43
18585 18557 46
18586 18579 49
18586 18611 107
18586 18654 39
18587 18588 20
18587 18484 179
18588 18587 20
18589 18527 52
18589 18631 41
18589 18647 36
18590 18591 47
18590 18638 36
18591 18590 47
18591 18583 9
18591 18660 48
18592 18561 25
18592 18521 69
18592 18610 11
18593 18555 33
18593 18517 103
18593 18611 13
18594 18552 41
18594 18597 129
18594 18713 167
18595 18572 23
18595 18556 55
18595 18620 56
18595 18637 51
18596 18597 27
18596 18624 51
18596 18639 27
18597 18596 27
18597 18594 129
18597 18751 249
18598 18599 90
18599 18598 90
18599 18550 38
18599 18824 168
18600 18501 110
18600 18648 55
18600 18710 71
18601 18551 41
18601 18572 47
18601 18637 26
18602 18549 38
18603 18430 217
18603 18819 152
18603 18980 443
18604 18576 26
18604 18577 40
18604 18651 45
18604 18687 56
18605 18560 137
18606 18607 126
18607 18606 126
18607 18621 32
18607 18648 63
18608 18542 55
18608 18513 117
18608 18669 43
18608 18696 121
18609 18571 57
18609 18623 19
18609 18731 104
18610 18592 11
18610 18652 24
18610 18663 73
18611 18586 107
18611 18593 13
18611 18633 18
18612 18575 29
18612 18576 42
18612 18651 25
18613 18579 28
18613 18632 50
18613 18678 41
18614 18577 32
18614 18581 53
18614 18662 29
18615 18616 98
18615 18718 69
18615 18755 173
18616 18615 98
18617 18261 398
18617 18443 507
18617 18666 34
18618 18619 14
18618 18372 950
18618 18739 95
18619 18618 14
18620 18556 44
18620 18561 82
18620 18595 56
18620 18663 27
18620 18688 86
18621 18564 47
18621 18607 32
18621 18702 100
18622 18583 113
18622 18557 58
18622 18634 10
18622 18656 50
18623 18522 82
18623 18609 19
18623 18659 79
18623 18831 153
18624 18596 51
18624 18570 43
18624 18542 122
18624 18696 51
18625 18554 54
18625 18641 33
18625 18864 177
18626 18540 63
18626 18627 75
18626 18675 33
18626 18726 139
18627 18626 75
18627 18630 53
18628 18629 42
18629 18628 42
18630 18627 53
18630 18675 98
18630 18697 60
18631 18589 41
18631 18530 80
18631 18657 20
18632 18568 56
18632 18613 50
18632 18644 7
18633 18611 18
18633 18661 17
18633 18668 66
18634 18622 10
18635 18574 62
18635 18642 69
18635 18689 40
18636 18449 161
18636 18554 92
18636 18807 123
18637 18601 26
18637 18595 51
18637 18688 34
18638 18590 36
18638 18660 26
18639 18596 27
18639 18709 46
18639 18797 228
18640 18580 49
18640 18564 100
18640 18702 44
18640 18720 103
18641 18625 33
18642 18635 69
18642 18646 12
18642 18691 31
18643 18526 88
18643 18667 41
18644 18632 7
18644 18657 82
18644 18680 36
18645 18526 149
18645 18653 53
18645 18725 57
18646 18574 57
18646 18642 12
18646 18650 36
18647 18589 36
18647 18685 43
18647 18689 32
18647 18704 40
18648 18607 63
18648 18600 55
18648 18710 57
18648 18810 204
18649 18584 43
18649 18540 154
18649 18726 65
18650 18546 81
18650 18646 36
18650 18652 17
18651 18612 25
18651 18604 45
18651 18712 82
18651 18717 50
18652 18610 24
18652 18650 17
18652 18693 28
18653 18645 53
18654 18586 39
18654 18655 51
18654 18676 33
18655 18654 51
18655 18668 48
18656 18622 50
18657 18631 20
18657 18644 82
18657 18685 31
18658 18571 59
18659 18560 72
18659 18623 79
18659 18681 129
18660 18638 26
18660 18591 48
18660 18671 32
18660 18714 53
18661 18633 17
18661 18580 102
18661 18677 16
18662 18614 29
18662 18578 122
18662 18687 40
18662 18716 39
18663 18620 27
18663 18610 73
18663 18693 92
18663 18744 59
18664 18665 25
18664 18716 100
18665 18664 25
18665 18578 60
18665 18754 63
18666 18617 34
18666 18683 56
18666 18743 62
18667 18643 41
18667 18541 90
18667 18711 68
18667 18984 257
18668 18655 48
18668 18633 66
18668 18733 48
18669 18608 43
18669 18670 75
18669 18721 33
18670 18669 75
18671 18660 32
18671 18672 31
18671 18679 32
18671 18707 21
18672 18671 31
18673 18674 79
18674 18673 79
18674 18575 85
18674 18712 28
18675 18626 33
18675 18630 98
18675 18735 45
18676 18654 33
18676 18678 5
18676 18708 47
18677 18661 16
18677 18720 32
18677 18733 79
18678 18613 41
18678 18676 5
18678 18680 25
18679 18671 32
18680 18644 36
18680 18678 25
18680 18700 75
18680 18738 43
18681 18682 18
18681 18659 129
18681 18686 51
18681 18868 145
18682 18681 18
18683 18684 26
18683 18666 56
18683 18719 31
18684 18683 26
18685 18647 43
18685 18657 31
18685 18704 24
18686 18681 51
18686 18694 22
18687 18604 56
18687 18662 40
18687 18717 47
18687 18785 72
18688 18637 34
18688 18620 86
18689 18635 40
18689 18647 32
18689 18690 51
18689 18732 37
18690 18689 51
18690 18691 43
18690 18734 38
18691 18642 31
18691 18690 43
18691 18692 14
18692 18691 14
18692 18693 46
18692 18736 36
18693 18652 28
18693 18692 46
18693 18663 92
18694 18695 18
18694 18686 22
18694 18723 58
18694 18901 167
18695 18694 18
18696 18624 51
18696 18608 121
18696 18730 32
18697 18630 60
18697 18715 47
18698 18699 32
18699 18698 32
18699 18731 115
18700 18701 32
18700 18680 75
18700 18728 81
18700 18746 36
18701 18700 32
18702 18640 44
18702 18621 100
18702 18766 89
18703 18512 146
18703 18567 95
18703 18767 48
18704 18647 40
18704 18685 24
18704 18728 22
18705 18562 110
18705 18706 211
18705 19027 378
18706 18705 211
18707 18671 21
18708 18676 47
18708 18750 32
18709 18639 46
18709 18771 47
18709 18854 216
18710 18648 57
18710 18600 71
18710 18552 164
18710 18713 5
18710 18756 65
18710 18811 66
18711 18667 68
18711 18559 106
18711 18822 79
18712 18674 28
18712 18651 82
18712 18747 32
18713 18710 5
18713 18594 167
18713 18751 59
18714 18401 269
18714 18660 53
18715 18697 47
18715 18735 84
18715 18779 47
18716 18662 39
18716 18664 100
18716 18760 32
18717 18651 50
18717 18687 47
18717 18747 72
18717 18763 32
18718 18615 69
18718 18755 122
18718 18846 90
18718 18893 262
18719 18683 31
18720 18677 32
18720 18640 103
18720 18749 27
18720 18772 78
18721 18669 33
18721 18730 120
18721 18861 233
18722 18723 99
18723 18722 99
18723 18694 58
18723 18770 58
18723 18907 148
18724 18725 44
18725 18724 44
18725 18645 57
18725 18745 19
18726 18649 65
18726 18626 139
18726 18786 48
18727 18511 149
18727 18947 157
18727 18951 170
18728 18704 22
18728 18700 81
18728 18791 35
18729 18268 1133
18729 18927 359
18729 18927 190
18730 18696 32
18730 18721 120
18730 18759 19
18730 18771 60
18731 18609 104
18731 18699 115
18732 18689 37
18732 18734 49
18732 18800 40
18733 18668 48
18733 18677 79
18733 18772 29
18733 18795 68
18734 18690 38
18734 18732 49
18734 18736 42
18734 18801 40
18735 18675 45
18735 18715 84
18735 18786 115
18735 18823 51
18736 18692 36
18736 18734 42
18736 18737 16
18737 18736 16
18737 18744 101
18737 18794 43
18738 18680 43
18738 18746 77
18738 18762 8
18739 18278 696
18739 18618 95
18739 19089 978
18739 19154 434
18740 18741 35
18740 18742 49
18741 18740 35
18741 18754 7
18741 18803 66
18742 18740 49
18742 18760 14
18742 18803 35
18743 18666 62
18743 18748 39
18743 18781 81
18743 18830 60
18744 18663 59
18744 18737 101
18744 18782 24
18745 18725 19
18746 18700 36
18746 18738 77
18746 18791 85
18746 18816 39
18747 18712 32
18747 18717 72
18747 18761 19
18747 18813 40
18748 18743 39
18749 18720 27
18749 18766 22
18750 18708 32
18750 18762 61
18750 18795 26
18751 18713 59
18751 18597 249
18751 18797 59
18751 18811 77
18752 18753 48
18752 18764 20
18752 18784 179
18753 18752 48
18753 18765 10
18754 18741 7
18754 18665 63
18754 18776 28
18755 18718 122
18755 18615 173
18755 18777 36
18756 18710 65
18756 18853 142
18757 18758 60
18758 18757 60
18758 18775 280
18758 18867 163
18759 18730 19
18759 18798 27
18759 18871 341
18759 18872 191
18760 18716 32
18760 18742 14
18760 18785 42
18761 18747 19
18761 18778 53
18761 18877 93
18762 18738 8
18762 18750 61
18762 18799 25
18763 18717 32
18763 18813 70
18763 18821 42
18764 18752 20
18765 18753 10
18765 18777 19
18765 18844 131
18766 18749 22
18766 18702 89
18766 18810 72
18767 18703 48
18767 18768 7
18767 18792 33
18767 18820 34
18768 18767 7
18769 18770 101
18770 18769 101
18770 18723 58
18770 18827 66
18770 18943 141
18771 18709 47
18771 18730 60
18771 18909 205
18772 18733 29
18772 18720 78
18772 18817 47
18773 18774 21
18774 18773 21
18774 18878 185
18775 18758 280
18776 18754 28
18776 18796 10
18776 18842 86
18777 18755 36
18777 18765 19
18777 18846 135
18778 18761 53
18778 19011 189
18779 18715 47
18779 18780 65
18779 18823 80
18779 18845 45
18780 18779 65
18781 18743 81
18782 18744 24
18782 18809 11
18782 18829 54
18783 18461 251
18783 18820 46
18783 18857 56
18784 18752 179
18785 18687 72
18785 18760 42
18785 18821 46
18786 18726 48
18786 18735 115
18786 18861 60
18787 18788 97
18788 18787 97
18789 18790 29
18789 18829 31
18789 18835 74
18790 18789 29
18790 18796 69
18791 18728 35
18791 18746 85
18791 18825 24
18792 18793 67
18792 18767 33
18792 18812 25
18793 18792 67
18793 18812 76
18794 18737 43
18794 18802 5
18795 18750 26
18795 18733 68
18795 18799 57
18795 18838 33
18796 18776 10
18796 18790 69
18796 18828 23
18797 18751 59
18797 18639 228
18797 18854 50
18797 18866 111
18798 18759 27
18798 18863 53
18798 18923 189
18799 18762 25
18799 18795 57
18799 18836 30
18800 18732 40
18800 18801 54
18800 18839 33
18801 18734 40
18801 18800 54
18801 18802 62
18801 18841 34
18802 18794 5
18802 18801 62
18802 18809 69
18802 18843 33
18803 18742 35
18803 18741 66
18803 18834 27
18804 18805 17
18804 18806 56
18805 18804 17
18806 18804 56
18807 18636 123
18807 18808 74
18807 18824 60
18807 18910 80
18808 18807 74
18809 18782 11
18809 18802 69
18809 18848 35
18810 18766 72
18810 18648 204
18810 18818 18
18810 18852 69
18811 18710 66
18811 18751 77
18811 18847 64
18811 18884 62
18812 18792 25
18812 18793 76
18812 18900 74
18813 18747 40
18813 18763 70
18813 18862 40
18814 18815 30
18814 18852 36
18814 18883 110
18815 18814 30
18815 18856 103
18816 18746 39
18816 18855 63
18816 18930 103
18817 18772 47
18817 18838 41
18817 18856 37
18818 18810 18
18818 18853 32
18819 18603 152
18820 18767 34
18820 18783 46
18820 18876 56
18821 18763 42
18821 18785 46
18821 18860 36
18821 18862 76
18822 18711 79
18823 18735 51
18823 18779 80
18823 18861 100
18823 18870 42
18824 18599 168
18824 18807 60
18824 18918 78
18824 18956 161
18825 18791 24
18825 18833 27
18825 18855 33
18826 18827 95
18827 18826 95
18827 18770 66
18827 18867 56
18827 18921 87
18828 18796 23
18828 18835 11
18828 18881 92
18829 18789 31
18829 18782 54
18829 18875 76
18830 18743 60
18830 18890 93
18830 19400 494
18831 18623 153
18831 18880 87
18831 19107 217
18832 18257 1656
18833 18825 27
18833 18839 27
18833 18888 51
18834 18803 27
18834 18842 8
18834 18905 100
18835 18828 11
18835 18789 74
18835 18865 20
18836 18799 30
18836 18837 43
18836 18989 118
18837 18836 43
18837 18838 10
18837 18896 47
18838 18837 10
18838 18795 33
18838 18817 41
18839 18800 33
18839 18833 27
18839 18841 70
18839 18919 60
18840 18372 423
18841 18801 34
18841 18839 70
18841 18843 53
18841 18885 35
18842 18834 8
18842 18776 86
18842 18881 31
18843 18802 33
18843 18841 53
18843 18848 61
18843 18886 34
18844 18765 131
18844 18897 116
18845 18779 45
18845 18870 78
18845 18971 96
18846 18718 90
18846 18777 135
18846 19047 199
18847 18811 64
18847 18904 95
18847 18963 89
18848 18809 35
18848 18843 61
18848 18887 32
18849 18850 16
18849 18851 46
18849 18874 39
18850 18849 16
18851 18849 46
18852 18814 36
18852 18810 69
18852 18882 56
18852 18906 46
18853 18818 32
18853 18756 142
18853 18904 46
18853 18906 85
18854 18797 50
18854 18709 216
18854 18909 47
18854 18926 117
18855 18825 33
18855 18816 63
18855 18869 32
18856 18817 37
18856 18815 103
18856 18883 28
18856 18896 61
18857 18783 56
18857 18959 81
18857 19038 143
18858 18859 228
18859 18858 228
18860 18821 36
18860 18905 37
18860 18915 90
18861 18721 233
18861 18786 60
18861 18823 100
18861 18917 112
18862 18813 40
18862 18821 76
18862 18877 20
18863 18798 53
18863 18903 34
18863 18976 188
18864 18625 177
18864 18908 63
18864 18955 167
18865 18835 20
18865 18875 15
18865 18942 110
18866 18797 111
18866 18884 43
18866 18926 51
18867 18758 163
18867 18827 56
18868 18681 145
18869 18855 32
18869 18888 58
18869 18902 36
18870 18823 42
18870 18845 78
18870 18917 33
18871 18759 341
18871 18931 115
18871 18946 55
18872 18759 191
18872 18923 38
18872 18954 125
18873 18874 10
18874 18873 10
18874 18849 39
18874 18894 16
18875 18865 15
18875 18829 76
18875 18899 16
18876 18820 56
18876 18900 48
18876 19038 124
18877 18761 93
18877 18862 20
18877 18915 29
18878 18879 12
18878 18774 185
18879 18878 12
18880 18831 87
18881 18842 31
18881 18828 92
18881 18941 78
18881 18942 42
18882 18852 56
18882 18924 57
18882 18933 40
18883 18856 28
18883 18814 110
18883 18924 33
18883 18934 71
18884 18811 62
18884 18866 43
18884 18977 67
18885 18841 35
18885 18886 55
18885 18928 30
18886 18843 34
18886 18885 55
18886 18887 61
18886 18929 32
18887 18848 32
18887 18886 61
18887 18932 33
18887 18957 98
18888 18833 51
18888 18869 58
18888 18913 16
18889 18890 26
18890 18889 26
18890 18895 5
18890 18830 93
18891 18892 69
18892 18891 69
18893 17981 1328
18893 18718 262
18893 19283 336
18894 18874 16
18894 18895 32
18894 18916 23
18895 18890 5
18895 18894 32
18895 18916 19
18896 18837 47
18896 18856 61
18896 18914 20
18897 18898 243
18897 18844 116
18897 19055 157
18898 18897 243
18899 18875 16
18899 18938 51
18899 18957 51
18900 18812 74
18900 18876 48
18901 18694 167
18902 18869 36
18902 18930 27
18902 18940 73
18903 18863 34
18903 18969 55
18903 18973 91
18904 18853 46
18904 18847 95
18904 18939 33
18904 18961 86
18905 18860 37
18905 18834 100
18905 18941 41
18905 18975 91
18906 18852 46
18906 18853 85
18906 18961 48
18907 18723 148
18908 18864 63
18908 18910 43
18908 18920 87
18909 18854 47
18909 18771 205
18909 18978 114
18910 18807 80
18910 18911 36
18910 18908 43
18911 18910 36
18911 18918 17
18912 18498 377
18912 18925 13
18912 18971 149
18913 18888 16
18913 18919 43
18913 18935 21
18914 18896 20
18914 18934 30
18914 19002 80
18915 18877 29
18915 18860 90
18915 18975 52
18916 18895 19
18916 18894 23
18916 18944 27
18917 18861 112
18917 18870 33
18917 18931 14
18917 18971 112
18918 18824 78
18918 18911 17
18918 18956 102
18918 19000 114
18919 18839 60
18919 18913 43
18919 18928 82
18919 18960 32
18920 18908 87
18920 19014 95
18921 18827 87
18921 18991 100
18921 19078 127
18922 18114 758
18922 19248 239
18923 18872 38
18923 18798 189
18923 18976 46
18924 18883 33
18924 18882 57
18924 18966 37
18924 18967 63
18925 18912 13
18925 18988 158
18925 19066 115
18926 18866 51
18926 18854 117
18926 18977 84
18926 18978 46
18927 18729 359
18927 18729 190
18927 18964 118
18927 19056 107
18928 18885 30
18928 18919 82
18928 18929 58
18928 18983 44
18929 18886 32
18929 18928 58
18929 18932 63
18929 18985 37
18930 18902 27
18930 18816 103
18930 18952 16
18931 18871 115
18931 18917 14
18931 18988 107
18931 18997 49
18932 18887 33
18932 18929 63
18932 18986 38
18933 18882 40
18933 18966 50
18934 18914 30
18934 18883 71
18934 18967 33
18934 19003 53
18935 18913 21
18935 18940 2
18935 18965 20
18936 18937 90
18936 19032 97
18936 18282 1005
18937 18936 90
18938 18899 51
18938 18962 35
18938 18992 44
18939 18904 33
18939 18950 20
18940 18935 2
18940 18902 73
18940 18996 45
18941 18905 41
18941 18881 78
18941 19029 106
18942 18881 42
18942 18865 110
18942 18953 10
18943 18770 141
18944 18916 27
18944 18945 50
18944 18970 26
18945 18944 50
18946 18871 55
18946 18997 106
18946 19042 68
18947 18727 157
18947 18951 84
18947 19091 107
18948 18949 470
18949 18948 470
18950 18939 20
18950 18963 28
18950 19019 97
18951 18947 84
18951 18727 170
18951 19017 52
18952 18930 16
18952 18989 33
18952 18996 81
18953 18942 10
18953 18987 24
18953 19034 124
18954 18872 125
18954 18994 66
18954 19010 46
18955 18864 167
18956 18824 161
18956 18918 102
18956 19040 82
18957 18899 51
18957 18887 98
18957 18990 27
18958 18545 375
18958 19053 76
18958 19153 343
18959 18857 81
18959 19049 65
18960 18919 32
18960 18965 47
18960 18974 10
18961 18906 48
18961 18904 86
18961 19019 50
18962 18938 35
18962 18987 39
18962 18995 28
18963 18950 28
18963 18847 89
18963 18977 51
18964 18927 118
18964 18968 255
18964 19114 168
18965 18960 47
18965 18935 20
18965 19016 43
18966 18924 37
18966 18933 50
18966 18998 54
18967 18934 33
18967 18924 63
18967 18979 13
18968 18964 255
18969 18903 55
18969 19028 50
18969 19036 83
18970 18944 26
18971 18917 112
18971 18845 96
18971 18912 149
18972 18503 394
18972 19012 36
18972 19063 111
18973 18903 91
18973 19036 54
18973 19092 105
18974 18960 10
18974 18983 100
18974 19009 25
18975 18915 52
18975 18905 91
18976 18923 46
18976 18863 188
18976 19018 34
18977 18963 51
18977 18884 67
18977 18926 84
18977 19046 49
18978 18926 46
18978 18909 114
18978 19062 123
18979 18967 13
18979 18998 24
18979 18999 18
18980 18603 443
18981 18982 65
18981 19015 198
18981 19051 74
18982 18981 65
18983 18928 44
18983 18974 100
18983 18985 37
18983 19021 34
18984 18667 257
18984 19031 115
18984 19035 138
18985 18929 37
18985 18983 37
18985 18986 61
18986 18932 38
18986 18985 61
18986 18990 68
18986 19020 24
18987 18953 24
18987 18962 39
18987 19008 15
18988 18931 107
18988 18925 158
18988 19064 53
18989 18952 33
18989 18836 118
18989 19002 35
18989 19004 12
18990 18957 27
18990 18986 68
18990 18992 72
18990 19024 24
18991 18921 100
18992 18993 19
18992 18938 44
18992 18990 72
18993 18992 19
18993 18995 14
18993 19025 21
18994 18954 66
18994 19060 46
18994 19086 138
18995 18962 28
18995 18993 14
18995 19008 38
18996 18940 45
18996 18952 81
18996 19041 33
18997 18946 106
18997 18931 49
18997 19030 50
18997 19082 62
18998 18979 24
18998 18966 54
18998 19240 250
18999 18979 18
18999 19003 45
18999 19065 42
19000 18918 114
19000 19001 39
19000 19094 112
19001 19000 39
19001 19014 134
19002 18989 35
19002 18914 80
19002 19039 27
19003 18934 53
19003 18999 45
19003 19039 48
19004 18989 12
19004 19041 86
19004 19058 37
19005 19006 5
19005 19007 109
19005 19033 47
19006 19005 5
19007 19005 109
19007 19013 59
19007 19121 158
19008 18987 15
19008 18995 38
19008 19037 23
19008 19061 79
19009 18974 25
19009 19016 37
19009 19023 9
19010 18954 46
19010 19060 69
19010 19073 50
19011 18778 189
19012 18972 36
19012 19022 131
19012 19218 229
19013 19007 59
19013 19055 66
19014 19001 134
19014 18920 95
19014 19035 32
19015 18981 198
19016 19009 37
19016 18965 43
19016 19070 36
19017 18951 52
19017 19038 118
19018 18976 34
19018 19052 26
19019 18961 50
19019 18950 97
19019 19077 49
19020 18986 24
19020 19021 80
19020 19024 66
19020 19072 34
19021 19020 80
19021 18983 34
19021 19023 115
19022 19012 131
19023 19021 115
19023 19009 9
19023 19050 20
19024 18990 24
19024 19020 66
19024 19054 21
19025 18993 21
19025 19037 41
19026 19027 87
19027 19026 87
19027 18705 378
19027 20119 1379
19028 18969 50
19028 19088 77
19028 19122 84
19029 18941 106
19030 18997 50
19030 19064 50
19030 19117 78
19031 18984 115
19031 19076 165
19032 18936 97
19033 19005 47
19033 19048 23
19033 19105 74
19034 18953 124
19035 19014 32
19035 18984 138
19035 19131 384
19036 18973 54
19036 18969 83
19036 19088 47
19036 19219 163
19037 19008 23
19037 19025 41
19037 19068 20
19037 19084 77
19038 18876 124
19038 18857 143
19038 19017 118
19039 19002 27
19039 19003 48
19039 19079 31
19040 18956 82
19040 19067 36
19041 18996 33
19041 19004 86
19041 19083 31
19042 18946 68
19042 19082 75
19042 19287 175
19043 19044 85
19044 19043 85
19045 19046 67
19045 19077 71
19046 19045 67
19046 18977 49
19046 19062 9
19047 18846 199
19048 19033 23
19048 19071 20
19048 19113 123
19049 18959 65
19049 19075 66
19049 19093 33
19050 19023 20
19050 19069 13
19050 19070 29
19051 18981 74
19052 19018 26
19052 19092 55
19052 19130 72
19053 18958 76
19053 19194 212
19054 19024 21
19054 19059 78
19054 19074 14
19055 19013 66
19055 18897 157
19055 19087 39
19056 19057 104
19056 18927 107
19056 19140 67
19057 19056 104
19057 19081 57
19057 19101 421
19057 19173 203
19058 19004 37
19058 19083 65
19058 19203 104
19059 19054 78
19059 19068 57
19059 19104 35
19060 18994 46
19060 19010 69
19060 19111 49
19060 19168 177
19061 19008 79
19061 19084 23
19062 19046 9
19062 18978 123
19062 19086 22
19063 18972 111
19063 19098 33
19063 19164 224
19064 19030 50
19064 18988 53
19064 19080 19
19065 18999 42
19065 19079 78
19065 19097 31
19066 18925 115
19066 19197 194
19066 19258 153
19067 19040 36
19067 19094 168
19067 19198 99
19068 19037 20
19068 19059 57
19068 19096 25
19069 19050 13
19069 19102 27
19069 19126 126
19070 19050 29
19070 19016 36
19070 19103 28
19071 19048 20
19071 19090 29
19071 19115 61
19072 19020 34
19072 19074 63
19072 19109 33
19073 19010 50
19073 19099 33
19073 19226 144
19074 19054 14
19074 19072 63
19074 19085 11
19075 19049 66
19075 19095 71
19075 19112 35
19076 19031 165
19077 19019 49
19077 19045 71
19077 19151 57
19078 18921 127
19078 19118 37
19078 19138 123
19079 19039 31
19079 19065 78
19079 19120 37
19080 19064 19
19080 19116 42
19080 19129 94
19081 19057 57
19081 19140 152
19082 19042 75
19082 18997 62
19082 19174 73
19083 19041 31
19083 19058 65
19083 19103 67
19083 19124 38
19084 19061 23
19084 19037 77
19085 19074 11
19085 19104 79
19085 19110 21
19086 19062 22
19086 18994 138
19086 19108 18
19087 19055 39
19087 19101 14
19087 19146 113
19088 19036 47
19088 19028 77
19088 19119 37
19088 19181 81
19089 18739 978
19089 19342 766
19090 19071 29
19090 19100 17
19090 19132 51
19091 18947 107
19091 19127 48
19091 19217 88
19092 19052 55
19092 18973 105
19092 19172 75
19093 19049 33
19093 19112 66
19093 19128 33
19094 19067 168
19094 19000 112
19094 19131 55
19095 19075 71
19095 19142 45
19096 19068 25
19096 19104 60
19096 19156 43
19097 19065 31
19097 19120 83
19097 19145 43
19098 19063 33
19099 19073 33
19099 19130 46
19099 19305 166
19100 19090 17
19100 19162 73
19100 19166 69
19101 19087 14
19101 19057 421
19101 19173 128
19101 19256 114
19102 19069 27
19102 19139 69
19102 19185 59
19103 19070 28
19103 19083 67
19103 19161 45
19104 19096 60
19104 19059 35
19104 19085 79
19104 19141 28
19105 19033 74
19105 19106 29
19105 19115 18
19106 19105 29
19107 18831 217
19107 19167 104
19107 19186 73
19107 19198 195
19108 19086 18
19108 19151 97
19108 19168 44
19109 19072 33
19109 19110 57
19109 19171 51
19110 19085 21
19110 19109 57
19110 19135 18
19110 19143 46
19111 19060 49
19111 19274 225
19112 19075 35
19112 19093 66
19112 19142 66
19112 19158 30
19113 19048 123
19113 19123 15
19113 19162 43
19114 18964 168
19114 19147 32
19114 19227 313
19115 19071 61
19115 19105 18
19115 19121 4
19116 19080 42
19116 19179 44
19116 19193 105
19117 19030 78
19117 19129 7
19118 19078 37
19118 19182 40
19118 19192 122
19119 19088 37
19119 19122 81
19120 19079 37
19120 19097 83
19120 19145 114
19121 19115 4
19121 19007 158
19121 19150 16
19122 19119 81
19122 19028 84
19122 19176 36
19123 19113 15
19123 19148 35
19123 19210 69
19124 19083 38
19124 19161 62
19124 19175 34
19125 19126 24
19125 19163 93
19126 19125 24
19126 19069 126
19126 19144 9
19127 19091 48
19127 19136 8
19127 19155 29
19128 19093 33
19128 19158 68
19128 19180 33
19129 19117 7
19129 19080 94
19129 19174 66
19129 19193 43
19130 19099 46
19130 19052 72
19130 19172 49
19130 19352 167
19131 19094 55
19131 19035 384
19132 19090 51
19133 19134 72
19134 19133 72
19135 19110 18
19135 19159 41
19135 19191 40
19136 19127 8
19136 19152 13
19136 19157 15
19137 19138 23
19137 19149 198
19138 19137 23
19138 19078 123
19138 19192 37
19138 19199 172
19139 19102 69
19139 19165 43
19139 19190 35
19140 19056 67
19140 19147 21
19140 19081 152
19141 19104 28
19141 19143 34
19141 19156 65
19141 19183 29
19142 19112 66
19142 19095 45
19142 19188 33
19143 19141 34
19143 19110 46
19143 19159 16
19144 19126 9
19144 19165 17
19144 19195 69
19145 19097 43
19145 19120 114
19145 19315 176
19146 19087 113
19146 19216 56
19146 19233 96
19147 19114 32
19147 19140 21
19147 19262 84
19148 19123 35
19149 19137 198
19149 19199 42
19149 19248 128
19150 19121 16
19150 19166 26
19150 19177 24
19151 19077 57
19151 19108 97
19151 19201 44
19152 19136 13
19152 19153 19
19152 19370 182
19153 19152 19
19153 18958 343
19154 18739 434
19154 19160 8
19154 19170 247
19155 19127 29
19155 19157 41
19155 19217 46
19156 19096 43
19156 19141 65
19156 19260 77
19157 19136 15
19157 19155 41
19157 19387 192
19158 19112 30
19158 19128 68
19158 19188 59
19158 19208 35
19159 19143 16
19159 19135 41
19159 19169 9
19160 19154 8
19160 19221 107
19160 19331 116
19161 19103 45
19161 19124 62
19161 19185 58
19161 19207 34
19162 19113 43
19162 19100 73
19162 19166 139
19162 19241 73
19163 19125 93
19163 19171 14
19163 19206 39
19164 19063 224
19164 19189 21
19164 19328 144
19165 19144 17
19165 19139 43
19165 19184 13
19166 19100 69
19166 19150 26
19166 19162 139
19167 19107 104
19167 19196 94
19167 19230 47
19168 19108 44
19168 19060 177
19168 19274 76
19169 19159 9
19169 19183 50
19169 19200 50
19170 19154 247
19171 19109 51
19171 19163 14
19171 19191 16
19172 19130 49
19172 19092 75
19172 19219 47
19172 19395 167
19173 19101 128
19173 19057 203
19173 19268 88
19174 19082 73
19174 19129 66
19174 19250 48
19175 19124 34
19175 19207 64
19175 19220 28
19176 19122 36
19176 19181 155
19176 19257 52
19177 19150 24
19177 19178 87
19177 19265 60
19178 19177 87
19178 19215 181
19179 19116 44
19179 19228 34
19179 19232 83
19180 19128 33
19180 19208 63
19180 19229 35
19181 19088 81
19181 19176 155
19181 19255 59
19182 19118 40
19182 19223 32
19182 19243 122
19183 19141 29
19183 19169 50
19183 19238 37
19184 19165 13
19184 19211 22
19184 19225 56
19185 19102 59
19185 19161 58
19185 19190 47
19185 19205 15
19186 19187 44
19186 19107 73
19186 19222 28
19187 19186 44
19188 19142 33
19188 19158 59
19189 19164 21
19189 19202 10
19189 19212 27
19190 19139 35
19190 19185 47
19190 19211 41
19191 19135 40
19191 19171 16
19191 19200 6
19192 19138 37
19192 19118 122
19192 19243 36
19192 19245 153
19193 19129 43
19193 19116 105
19193 19249 41
19193 19250 89
19194 19053 212
19194 19246 43
19195 19144 69
19195 19206 23
19195 19234 31
19196 19167 94
19196 19235 103
19197 19066 194
19197 19204 32
19197 19370 185
19198 19067 99
19198 19107 195
19199 19149 42
19199 19138 172
19199 19245 42
19200 19169 50
19200 19191 6
19200 19244 30
19201 19151 44
19201 19240 99
19201 19274 65
19202 19189 10
19203 19058 104
19203 19220 30
19203 19266 45
19204 19197 32
19204 20048 41
19205 19185 15
19205 19237 22
19205 19272 86
19206 19163 39
19206 19195 23
19206 19244 54
19207 19161 34
19207 19175 64
19207 19236 23
19207 19237 60
19208 19158 35
19208 19180 63
19208 19259 35
19208 19271 82
19209 19210 9
19210 19209 9
19210 19123 69
19210 19241 22
19211 19184 22
19211 19190 41
19211 19242 20
19212 19189 27
19212 19213 46
19212 19214 10
19212 19323 109
19213 19212 46
19214 19212 10
19215 19178 181
19215 19265 67
19216 19146 56
19216 19264 84
19216 19267 35
19217 19155 46
19217 19091 88
19217 19247 37
19217 19277 45
19218 19012 229
19218 19252 165
19218 19363 106
19219 19172 47
19219 19036 163
19219 19254 34
19219 19324 81
19220 19175 28
19220 19203 30
19220 19224 8
19221 19160 107
19222 19186 28
19223 19182 32
19223 19298 134
19223 19337 78
19224 19220 8
19224 19251 46
19224 19273 41
19225 19184 56
19225 19234 12
19225 19275 41
19226 19073 144
19227 19114 313
19228 19179 34
19228 19270 36
19228 19276 84
19229 19180 35
19229 19259 60
19229 19623 265
19230 19167 47
19230 19231 85
19230 19282 35
19230 19292 191
19231 19230 85
19232 19179 83
19232 19249 26
19232 19276 35
19233 19146 96
19233 19264 35
19233 19322 88
19234 19195 31
19234 19225 12
19234 19284 80
19235 19196 103
19236 19207 23
19236 19251 12
19236 19291 72
19237 19205 22
19237 19207 60
19237 19281 31
19238 19183 37
19238 19239 39
19238 19296 39
19239 19238 39
19239 19269 24
19240 18998 250
19240 19201 99
19240 19297 42
19241 19210 22
19241 19162 73
19241 19283 36
19242 19211 20
19242 19272 28
19242 19275 58
19243 19192 36
19243 19182 122
19243 19293 147
19243 19298 40
19244 19200 30
19244 19206 54
19244 19261 12
19244 19269 43
19245 19199 42
19245 19192 153
19245 19293 40
19246 19247 31
19246 19194 43
19247 19246 31
19247 19217 37
19247 19277 39
19248 18922 239
19248 19149 128
19248 19520 180
19249 19193 41
19249 19232 26
19250 19174 48
19250 19193 89
19250 19287 30
19251 19236 12
19251 19224 46
19251 19302 37
19252 19253 13
19252 19263 41
19252 19218 165
19253 19252 13
19254 19219 34
19254 19255 21
19254 19332 46
19255 19254 21
19255 19181 59
19255 19257 181
19256 19101 114
19256 19278 23
19257 19255 181
19257 19176 52
19257 19327 44
19258 19066 153
19258 19387 114
19258 19660 321
19259 19208 35
19259 19229 60
19259 19271 48
19260 19156 77
19260 19347 60
19260 19368 70
19261 19244 12
19261 19284 22
19261 19329 96
19262 19147 84
19263 19252 41
19264 19233 35
19264 19216 84
19264 19316 37
19264 19389 113
19265 19177 60
19265 19215 67
19265 19322 37
19266 19203 45
19266 19273 30
19266 19401 93
19267 19216 35
19267 19299 50
19267 19314 29
19268 19173 88
19269 19239 24
19269 19244 43
19269 19296 50
19270 19228 36
19270 19336 84
19270 19339 42
19271 19208 82
19271 19259 48
19272 19242 28
19272 19205 86
19272 19320 53
19272 19335 36
19273 19224 41
19273 19266 30
19273 19302 44
19274 19201 65
19274 19168 76
19274 19111 225
19274 19308 16
19274 19441 112
19275 19225 41
19275 19242 58
19275 19321 25
19275 19349 83
19276 19232 35
19276 19228 84
19276 19336 34
19277 19247 39
19277 19217 45
19277 19384 72
19278 19256 23
19278 19314 46
19278 19632 466
19279 19280 92
19279 19334 60
19280 19279 92
19281 19237 31
19281 19291 6
19281 19335 69
19282 19230 35
19282 19394 185
19282 19483 131
19283 18893 336
19283 19241 36
19283 19343 42
19284 19261 22
19284 19234 80
19284 19311 13
19285 19286 76
19285 19309 202
19285 19379 101
19286 19285 76
19286 19313 75
19286 19333 34
19287 19042 175
19287 19250 30
19287 19300 7
19288 19289 44
19289 19288 44
19289 19290 205
19289 19294 57
19289 19456 94
19290 19289 205
19291 19281 6
19291 19236 72
19291 19341 26
19292 19230 191
19292 19337 60
19292 19394 59
19293 19245 40
19293 19243 147
19293 19361 41
19294 19295 59
19294 19289 57
19294 19313 94
19295 19294 59
19296 19238 39
19296 19269 50
19296 19329 15
19297 19240 42
19297 19308 146
19298 19243 40
19298 19223 134
19298 19361 135
19298 19432 77
19299 19267 50
19299 19316 13
19299 19458 97
19300 19287 7
19300 19301 66
19300 19330 121
19300 19362 33
19301 19300 66
19301 19312 28
19302 19251 37
19302 19273 44
19302 19317 26
19303 19304 44
19303 19343 117
19304 19303 44
19304 19344 77
19304 19375 49
19305 19099 166
19305 19348 27
19305 19352 40
19306 19307 113
19306 19393 212
19306 19420 67
19307 19306 113
19308 19274 16
19308 19297 146
19308 19346 23
19309 19310 38
19309 19285 202
19309 19363 107
19310 19309 38
19311 19284 13
19311 19349 27
19311 19376 105
19312 19301 28
19312 19362 80
19312 19366 35
19313 19286 75
19313 19294 94
19313 19338 23
19314 19267 29
19314 19278 46
19315 19145 176
19315 19369 43
19315 19372 59
19316 19264 37
19316 19299 13
19316 19436 102
19317 19302 26
19317 19355 58
19317 19397 49
19318 19319 42
19318 19441 91
19319 19318 42
19319 19348 53
19319 19482 102
19320 19272 53
19320 19321 7
19320 19371 36
19321 19275 25
19321 19320 7
19321 19382 85
19322 19265 37
19322 19233 88
19322 19351 22
19323 19212 109
19323 19373 45
19323 19377 74
19324 19219 81
19324 19332 74
19324 19396 50
19325 19326 145
19325 19359 20
19326 19325 145
19326 19378 47
19327 19257 44
19327 19330 110
19327 19332 187
19327 19416 50
19328 19164 144
19329 19296 15
19329 19261 96
19329 19340 7
19330 19300 121
19330 19327 110
19330 19411 47
19331 19160 116
19331 19345 150
19331 19465 77
19332 19324 74
19332 19254 46
19332 19327 187
19332 19413 47
19333 19286 34
19334 19279 60
19334 19380 32
19335 19272 36
19335 19281 69
19335 19371 52
19335 19385 33
19336 19276 34
19336 19270 84
19336 19353 19
19337 19223 78
19337 19292 60
19337 19422 131
19338 19313 23
19339 19270 42
19339 19367 18
19339 19424 106
19340 19329 7
19340 19347 23
19340 19354 8
19341 19291 26
19341 19355 9
19341 19385 61
19342 19089 766
19343 19283 42
19343 19303 117
19343 19364 15
19344 19304 77
19344 19364 38
19344 19423 48
19345 19331 150
19345 19408 320
19345 19595 214
19346 19308 23
19346 19350 32
19346 19383 24
19347 19260 60
19347 19340 23
19347 19368 45
19348 19319 53
19348 19305 27
19348 19391 29
19349 19311 27
19349 19275 83
19349 19382 22
19349 19428 104
19350 19346 32
19350 19369 95
19350 19415 79
19351 19322 22
19351 19375 32
19351 19389 38
19352 19305 40
19352 19130 167
19352 19395 45
19353 19336 19
19353 19424 43
19354 19340 8
19354 19376 19
19355 19341 9
19355 19317 58
19355 19406 29
19356 19357 1218
19357 19356 1218
19357 19358 362
19357 19584 204
19358 19357 362
19359 19325 20
19359 19360 85
19359 19390 22
19360 19359 85
19360 19365 34
19361 19293 41
19361 19298 135
19361 19407 98
19362 19300 33
19362 19312 80
19362 19386 16
19363 19218 106
19363 19309 107
19363 19463 61
19364 19343 15
19364 19344 38
19364 19421 33
19365 19360 34
19365 19426 74
19365 19443 44
19366 19312 35
19366 19412 28
19366 19445 97
19367 19339 18
19368 19260 70
19368 19347 45
19368 19440 44
19369 19315 43
19369 19350 95
19369 19388 14
19370 19197 185
19370 19152 182
19371 19320 36
19371 19335 52
19371 19427 34
19371 19446 98
19372 19315 59
19372 19404 47
19372 19451 75
19373 19374 25
19373 19323 45
19373 19468 71
19374 19373 25
19375 19304 49
19375 19351 32
19375 19528 126
19376 19354 19
19376 19311 105
19376 19428 32
19376 19440 94
19377 19323 74
19377 19433 39
19377 19434 79
19378 19326 47
19378 19390 164
19378 19405 12
19379 19285 101
19380 19381 106
19380 19334 32
19380 19393 43
19381 19380 106
19381 19399 148
19381 19419 96
19382 19349 22
19382 19321 85
19382 19392 6
19383 19346 24
19383 19410 74
19384 19277 72
19384 19405 20
19384 19703 232
19385 19335 33
19385 19341 61
19385 19427 51
19385 19444 35
19386 19362 16
19386 19411 123
19386 19445 31
19387 19258 114
19387 19157 192
19388 19369 14
19388 19415 20
19388 19506 78
19389 19351 38
19389 19264 113
19389 19436 44
19390 19378 164
19390 19359 22
19390 19426 19
19391 19348 29
19391 19418 44
19391 19498 70
19392 19382 6
19392 19409 9
19392 19446 30
19393 19380 43
19393 19306 212
19394 19292 59
19394 19282 185
19394 19431 116
19394 19471 89
19394 19534 99
19395 19352 45
19395 19172 167
19395 19442 26
19395 19447 50
19396 19324 50
19396 19414 9
19396 19447 34
19397 19317 49
19397 19398 10
19397 19417 54
19397 19450 29
19398 19397 10
19398 19449 74
19399 19381 148
19400 18830 494
19400 19408 30
19400 19554 206
19401 19266 93
19401 19429 46
19401 19475 57
19402 19403 28
19403 19402 28
19404 19372 47
19404 19448 33
19404 19476 84
19405 19384 20
19405 19378 12
19405 19459 44
19406 19355 29
19406 19417 6
19406 19444 52
19407 19361 98
19408 19400 30
19408 19345 320
19408 19624 173
19409 19392 9
19409 19479 90
19409 19505 116
19410 19383 74
19410 19415 24
19410 19523 88
19411 19330 47
19411 19386 123
19411 19416 116
19411 19491 52
19412 19366 28
19412 19474 104
19413 19332 47
19413 19414 102
19413 19416 181
19413 19487 49
19414 19396 9
19414 19413 102
19414 19473 34
19415 19388 20
19415 19350 79
19415 19410 24
19416 19413 181
19416 19327 50
19416 19411 116
19416 19493 52
19417 19406 6
19417 19397 54
19417 19462 27
19418 19391 44
19418 19442 50
19418 19515 71
19419 19381 96
19419 19457 45
19419 19472 39
19420 19306 67
19421 19364 33
19421 19425 34
19421 19504 58
19422 19337 131
19422 19432 13
19422 19488 99
19423 19344 48
19423 19425 16
19423 19507 59
19424 19353 43
19424 19339 106
19424 19540 170
19425 19423 16
19425 19421 34
19425 19503 57
19426 19390 19
19426 19365 74
19426 19467 25
19427 19371 34
19427 19385 51
19427 19478 34
19427 19495 103
19428 19376 32
19428 19349 104
19428 19479 35
19428 19538 207
19429 19401 46
19429 19449 39
19429 19502 52
19430 19431 56
19431 19430 56
19431 19394 116
19431 19483 31
19432 19298 77
19432 19422 13
19432 19469 25
19433 19377 39
19434 19377 79
19434 19435 12
19434 19437 98
19435 19434 12
19436 19389 44
19436 19316 102
19436 19527 111
19437 19438 14
19437 19439 14
19437 19434 98
19438 19437 14
19439 19437 14
19440 19368 44
19440 19376 94
19440 19486 86
19441 19274 112
19441 19318 91
19441 19482 46
19442 19418 50
19442 19395 26
19442 19541 73
19443 19365 44
19443 19470 54
19443 19602 124
19444 19385 35
19444 19406 52
19444 19454 14
19445 19386 31
19445 19366 97
19445 19474 18
19446 19392 30
19446 19371 98
19446 19499 39
19447 19395 50
19447 19396 34
19447 19473 25
19448 19404 33
19448 19496 65
19448 19500 38
19449 19398 74
19449 19429 39
19449 19549 76
19450 19397 29
19450 19462 59
19450 19513 47
19451 19372 75
19451 19476 37
19451 19475 104
19452 19453 30
19452 19477 37
19452 19466 404
19453 19452 30
19454 19444 14
19454 19478 37
19454 19494 30
19455 18269 1093
19455 19607 135
19455 20467 2368
19456 19289 94
19457 19419 45
19458 19299 97
19459 19405 44
19459 19464 89
19459 19514 42
19460 19461 160
19461 19460 160
19461 19518 48
19461 19520 136
19462 19417 27
19462 19450 59
19462 19492 24
19462 19494 56
19463 19363 61
19463 19521 187
19463 19715 424
19464 19459 89
19464 19467 58
19464 19516 41
19465 19466 21
19465 19331 77
19465 19669 167
19466 19465 21
19466 19484 93
19466 19452 404
19467 19464 58
19467 19426 25
19467 19470 12
19467 19517 48
19468 19373 71
19468 19480 24
19468 19481 15
19469 19432 25
19469 19518 162
19469 19530 50
19470 19467 12
19470 19443 54
19471 19394 89
19472 19419 39
19472 19497 60
19473 19447 25
19473 19414 34
19473 19485 12
19474 19445 18
19474 19412 104
19474 19491 127
19474 19524 43
19475 19401 57
19475 19451 104
19475 19490 23
19476 19451 37
19476 19404 84
19476 19496 37
19476 19531 74
19477 19452 37
19478 19427 34
19478 19454 37
19478 19501 48
19479 19428 35
19479 19409 90
19479 19505 27
19479 19592 186
19480 19468 24
19480 19532 135
19480 19581 87
19481 19468 15
19482 19441 46
19482 19319 102
19482 19498 51
19483 19431 31
19483 19282 131
19483 19534 80
19484 19466 93
19485 19473 12
19485 19487 105
19485 19557 51
19486 19440 86
19486 19538 40
19487 19485 105
19487 19413 49
19487 19489 70
19487 19556 49
19488 19422 99
19488 19530 106
19488 19542 48
19489 19487 70
19489 19493 93
19489 19567 54
19490 19475 23
19490 19508 28
19490 19588 77
19491 19411 52
19491 19474 127
19491 19493 132
19491 19543 39
19492 19462 24
19492 19547 42
19492 19552 94
19493 19489 93
19493 19416 52
19493 19491 132
19493 19564 51
19494 19454 30
19494 19462 56
19494 19544 95
19495 19427 103
19495 19499 9
19495 19533 32
19496 19476 37
19496 19448 65
19496 19560 46
19496 19565 89
19497 19472 60
19498 19482 51
19498 19391 70
19498 19515 47
19499 19446 39
19499 19495 9
19499 19539 29
19500 19448 38
19500 19529 30
19500 19560 74
19501 19478 48
19501 19533 54
19501 19544 32
19502 19429 52
19502 19563 42
19502 19578 81
19503 19425 57
19503 19504 31
19503 19507 23
19504 19421 58
19504 19503 31
19504 19610 83
19505 19479 27
19505 19409 116
19505 19537 56
19506 19388 78
19506 19512 15
19507 19503 23
19507 19423 59
19507 19528 16
19508 19490 28
19508 19531 34
19508 19605 72
19509 19510 90
19510 19509 90
19510 19511 143
19510 19569 242
19510 19627 156
19511 19510 143
19512 19506 15
19512 19523 38
19512 19634 193
19513 19450 47
19513 19519 9
19513 19577 51
19514 19459 42
19514 19516 94
19514 19571 40
19515 19498 47
19515 19418 71
19515 19541 52
19516 19514 94
19516 19464 41
19516 19517 83
19516 19575 40
19517 19516 83
19517 19467 48
19517 19573 40
19518 19461 48
19518 19469 162
19518 19589 49
19519 19513 9
19519 19535 23
19520 19248 180
19520 19461 136
19520 19746 173
19521 19463 187
19522 17973 1914
19522 19548 57
19522 19611 440
19523 19512 38
19523 19410 88
19523 19536 6
19524 19474 43
19524 19540 8
19524 19543 126
19525 19526 75
19525 19568 37
19526 19525 75
19526 19583 210
19527 19436 111
19528 19507 16
19528 19375 126
19528 19610 89
19529 19500 30
19530 19469 50
19530 19488 106
19530 19589 146
19530 19600 52
19531 19508 34
19531 19476 74
19531 19565 29
19532 19480 135
19533 19495 32
19533 19501 54
19534 19394 99
19534 19483 80
19534 19572 93
19535 19519 23
19535 19549 37
19535 19587 38
19536 19523 6
19536 19672 218
19537 19505 56
19537 19596 44
19537 19637 183
19538 19486 40
19538 19428 207
19538 19590 39
19539 19499 29
19539 19558 14
19540 19524 8
19540 19424 170
19540 19583 33
19540 19606 129
19541 19515 52
19541 19442 73
19541 19612 65
19542 19488 48
19542 19572 52
19542 19600 122
19543 19491 39
19543 19524 126
19543 19559 10
19544 19501 32
19544 19494 95
19544 19585 30
19545 19546 32
19545 19551 33
19546 19545 32
19547 19492 42
19547 19566 10
19547 19601 81
19548 19522 57
19548 19688 154
19548 19848 338
19549 19535 37
19549 19449 76
19549 19555 28
19549 19633 76
19550 19551 35
19551 19550 35
19551 19545 33
19552 19492 94
19552 19585 52
19552 19601 39
19553 19554 125
19554 19553 125
19554 19400 206
19554 19642 225
19555 19549 28
19555 19563 18
19555 19646 79
19556 19487 49
19556 19557 107
19556 19615 48
19557 19485 51
19557 19556 107
19557 19613 47
19558 19539 14
19558 19667 96
19558 19900 266
19559 19543 10
19559 19564 142
19559 19606 41
19560 19496 46
19560 19500 74
19560 19609 71
19561 19562 74
19561 19586 19
19562 19561 74
19562 19568 57
19563 19555 18
19563 19502 42
19563 19578 38
19563 19664 91
19564 19493 51
19564 19559 142
19564 19567 94
19564 19619 50
19565 19531 29
19565 19496 89
19565 19609 41
19566 19547 10
19566 19577 30
19566 19597 26
19567 19489 54
19567 19564 94
19567 19617 46
19568 19562 57
19568 19525 37
19568 19586 95
19568 19603 46
19569 19510 242
19569 19570 179
19570 19569 179
19571 19514 40
19571 19575 89
19571 19616 40
19572 19542 52
19572 19534 93
19572 19657 165
19573 19517 40
19573 19574 4
19573 19576 85
19573 19602 26
19574 19573 4
19575 19571 89
19575 19516 40
19575 19576 13
19576 19575 13
19576 19573 85
19576 19620 43
19577 19566 30
19577 19513 51
19577 19587 43
19577 19625 48
19578 19563 38
19578 19502 81
19578 19588 14
19578 19678 87
19579 19580 24
19579 19591 19
19579 19648 61
19580 19579 24
19580 19590 75
19580 19636 74
19581 19582 20
19581 19480 87
19581 19626 57
19582 19581 20
19583 19540 33
19583 19526 210
19583 19598 12
19584 19357 204
19585 19544 30
19585 19552 52
19585 19618 39
19586 19561 19
19586 19568 95
19586 19608 22
19587 19577 43
19587 19535 38
19587 19630 44
19588 19578 14
19588 19490 77
19588 19599 19
19589 19518 49
19589 19530 146
19589 19635 49
19590 19580 75
19590 19538 39
19590 19592 41
19590 19614 23
19591 19579 19
19591 19649 52
19592 19590 41
19592 19479 186
19593 19594 121
19594 19593 121
19595 19345 214
19596 19537 44
19596 19629 34
19596 19670 154
19597 19566 26
19597 19628 67
19597 19631 34
19598 19583 12
19598 19645 50
19598 19659 137
19599 19588 19
19599 19605 21
19599 19701 94
19600 19530 52
19600 19542 122
19600 19635 147
19600 19657 57
19601 19552 39
19601 19547 81
19601 19618 50
19601 19628 34
19602 19573 26
19602 19443 124
19602 19622 22
19603 19568 46
19603 19604 29
19603 19608 123
19603 19640 53
19604 19603 29
19604 19660 110
19605 19599 21
19605 19508 72
19606 19559 41
19606 19540 129
19606 19621 45
19606 19659 47
19607 19455 135
19608 19586 22
19608 19603 123
19608 19647 35
19608 19651 101
19609 19565 41
19609 19560 71
19609 19634 30
19610 19504 83
19610 19528 89
19610 19662 78
19611 19522 440
19612 19541 65
19612 19613 53
19612 19641 66
19612 19655 38
19613 19612 53
19613 19557 47
19613 19615 108
19613 19680 54
19614 19590 23
19614 19636 46
19614 19637 36
19615 19613 108
19615 19556 48
19615 19676 50
19616 19571 40
19616 19620 104
19616 19665 46
19617 19567 46
19617 19619 96
19618 19585 39
19618 19601 50
19618 19638 45
19618 19656 36
19619 19617 96
19619 19564 50
19619 19621 107
19619 19675 46
19620 19616 104
19620 19576 43
19620 19622 87
19620 19671 40
19621 19619 107
19621 19606 45
19621 19675 101
19622 19620 87
19622 19602 22
19622 19623 17
19623 19622 17
19623 19229 265
19623 19677 40
19624 19408 173
19624 19903 250
19624 19923 234
19625 19577 48
19625 19630 38
19625 19631 26
19626 19581 57
19627 19510 156
19628 19601 34
19628 19597 67
19628 19656 48
19628 19661 27
19629 19596 34
19629 19658 36
19629 19710 140
19630 19625 38
19630 19587 44
19630 19633 33
19631 19597 34
19631 19625 26
19631 19661 49
19631 19689 41
19632 19278 466
19632 19650 331
19632 19869 496
19633 19630 33
19633 19549 76
19633 19639 20
19634 19609 30
19634 19512 193
19634 19654 14
19635 19589 49
19635 19600 147
19635 19709 55
19636 19580 74
19636 19614 46
19636 19648 48
19636 19668 32
19637 19614 36
19637 19537 183
19637 19670 29
19638 19618 45
19638 19667 53
19638 19686 36
19639 19633 20
19639 19646 15
19639 19653 38
19639 19666 20
19640 19603 53
19640 19647 156
19640 19693 53
19641 19612 66
19641 19674 23
19641 19687 68
19642 19554 225
19642 19750 264
19642 19786 150
19643 19644 30
19644 19643 30
19644 19711 140
19644 19721 62
19645 19598 50
19645 19651 5
19645 19716 138
19646 19639 15
19646 19555 79
19646 19664 59
19647 19608 35
19647 19640 156
19647 19695 34
19647 19700 91
19648 19579 61
19648 19636 48
19648 19649 21
19648 19682 26
19649 19591 52
19649 19648 21
19649 19697 35
19650 19632 331
19650 19652 164
19650 19790 301
19651 19645 5
19651 19608 101
19651 19700 38
19652 19650 164
19653 19639 38
19653 19663 29
19653 19749 73
19654 19634 14
19654 19672 14
19654 19731 76
19655 19612 38
19655 19674 63
19655 19681 19
19656 19618 36
19656 19628 48
19656 19686 45
19656 19694 29
19657 19600 57
19657 19572 165
19657 19706 147
19658 19629 36
19658 19702 36
19658 19718 108
19659 19606 47
19659 19598 137
19659 19716 48
19659 19735 137
19660 19604 110
19660 19258 321
19660 19693 31
19661 19628 27
19661 19631 49
19661 19694 45
19662 19610 78
19662 19685 15
19662 19818 194
19663 19653 29
19663 19673 27
19663 19753 67
19664 19646 59
19664 19563 91
19664 19691 16
19665 19616 46
19665 19671 122
19665 19703 31
19666 19639 20
19666 19691 73
19666 19725 46
19667 19558 96
19667 19638 53
19667 19773 80
19668 19636 32
19668 19682 64
19668 19690 22
19669 19465 167
19669 19692 14
19669 19958 271
19670 19637 29
19670 19596 154
19670 19690 46
19670 19710 31
19671 19665 122
19671 19620 40
19671 19677 99
19671 19723 39
19672 19654 14
19672 19536 218
19672 19683 35
19672 19684 8
19673 19663 27
19673 19689 33
19673 19760 64
19674 19641 23
19674 19655 63
19674 19816 105
19675 19619 46
19675 19621 101
19675 19735 50
19675 19777 177
19676 19615 50
19676 19679 75
19676 19708 25
19677 19671 99
19677 19623 40
19677 19726 40
19678 19578 87
19678 19691 16
19678 19701 30
19679 19676 75
19679 19680 35
19679 19743 47
19680 19613 54
19680 19679 35
19680 19681 44
19681 19655 19
19681 19680 44
19681 19744 47
19682 19648 26
19682 19668 64
19682 19697 28
19682 19745 48
19683 19672 35
19683 19707 37
19683 19729 44
19684 19672 8
19684 19707 19
19685 19662 15
19685 19705 19
19685 19798 116
19686 19638 36
19686 19656 45
19686 19720 32
19687 19641 68
19687 19704 37
19687 19912 157
19688 19548 154
19689 19631 41
19689 19673 33
19689 19727 71
19689 19741 40
19690 19668 22
19690 19670 46
19690 19736 38
19691 19666 73
19691 19664 16
19691 19678 16
19691 19734 43
19692 19669 14
19692 19805 135
19692 19806 110
19693 19640 53
19693 19660 31
19693 19696 91
19693 19719 28
19694 19656 29
19694 19661 45
19694 19720 46
19694 19727 30
19695 19647 34
19695 19696 101
19695 19737 68
19695 19742 35
19696 19695 101
19696 19693 91
19696 19738 33
19697 19649 35
19697 19682 28
19697 19748 38
19698 19699 114
19698 19705 149
19698 19946 184
19699 19698 114
19699 19790 118
19699 20403 676
19700 19651 38
19700 19647 91
19700 19713 14
19701 19678 30
19701 19599 94
19701 19712 6
19702 19658 36
19702 19764 101
19702 19768 52
19703 19384 232
19703 19665 31
19703 20341 460
19704 19687 37
19704 19740 50
19704 19844 99
19705 19685 19
19705 19698 149
19705 19895 152
19706 19657 147
19706 19709 3
19707 19684 19
19707 19683 37
19707 19730 18
19708 19676 25
19708 19717 9
19708 19743 86
19709 19635 55
19709 19706 3
19709 19767 154
19710 19670 31
19710 19629 140
19710 19772 50
19711 19644 140
19712 19701 6
19712 19731 69
19712 19755 33
19713 19700 14
19713 19737 23
19713 19788 144
19714 19715 40
19714 19774 82
19715 19714 40
19715 19463 424
19715 19808 69
19716 19659 48
19716 19645 138
19716 19788 54
19716 19796 136
19717 19708 9
19717 19777 42
19718 19658 108
19718 19764 33
19718 19772 83
19719 19693 28
19719 19728 84
19719 19941 146
19720 19686 32
19720 19694 46
19720 19756 27
19721 19644 62
19721 19722 177
19721 19771 214
19721 19813 69
19722 19721 177
19723 19671 39
19723 19724 60
19723 19726 95
19724 19723 60
19725 19666 46
19725 19734 45
19725 19751 20
19726 19723 95
19726 19677 40
19726 20219 334
19727 19694 30
19727 19689 71
19727 19756 43
19728 19719 84
19728 19775 33
19729 19683 44
19729 19730 53
19729 19811 62
19730 19707 18
19730 19729 53
19730 19761 20
19731 19712 69
19731 19654 76
19731 19763 28
19732 19733 52
19732 19826 326
19733 19732 52
19733 19747 142
19734 19725 45
19734 19691 43
19734 19781 35
19735 19675 50
19735 19659 137
19735 19796 47
19735 19831 181
19736 19690 38
19736 19739 8
19736 19797 46
19737 19713 23
19737 19695 68
19737 19759 22
19738 19696 33
19738 19742 100
19738 19785 36
19739 19736 8
19739 19745 66
19739 19799 47
19740 19704 50
19740 19776 57
19740 19836 75
19741 19689 40
19741 19754 21
19741 19817 78
19742 19695 35
19742 19738 100
19742 19794 37
19743 19679 47
19743 19708 86
19743 19744 68
19743 19821 58
19744 19681 47
19744 19743 68
19744 19815 49
19745 19682 48
19745 19739 66
19745 19748 37
19746 19520 173
19746 19752 6
19746 19795 127
19747 19733 142
19748 19697 38
19748 19745 37
19748 19809 49
19749 19653 73
19749 19751 22
19749 19753 37
19750 19642 264
19750 19809 171
19751 19749 22
19751 19725 20
19751 19833 63
19752 19746 6
19752 19767 13
19752 19787 25
19753 19663 67
19753 19749 37
19753 19760 52
19754 19741 21
19754 19760 13
19754 19838 81
19755 19712 33
19755 19763 96
19755 19779 18
19756 19720 27
19756 19727 43
19756 19778 18
19757 19758 4
19757 19782 31
19758 19757 4
19758 19765 19
19759 19737 22
19759 19807 56
19759 19849 157
19760 19754 13
19760 19673 64
19760 19753 52
19761 19730 20
19761 19763 32
19761 19792 21
19762 18519 897
19762 19789 43
19762 20190 301
19762 23864 301
19763 19731 28
19763 19761 32
19763 19755 96
19764 19718 33
19764 19702 101
19764 19804 34
19764 19820 93
19765 19766 8
19765 19758 19
19766 19765 8
19767 19752 13
19767 19709 154
19767 19787 17
19768 19702 52
19768 19804 64
19768 19841 52
19769 19770 93
19769 19802 65
19769 19910 115
19770 19769 93
19771 19721 214
19771 19853 78
19772 19710 50
19772 19718 83
19772 19820 36
19773 19667 80
19773 19810 41
19773 19900 115
19774 19714 82
19775 19728 33
19775 19780 87
19775 19823 36
19776 19740 57
19776 19800 26
19776 19830 85
19777 19717 42
19777 19675 177
19777 19821 98
19777 19831 44
19778 19756 18
19778 19817 42
19778 19839 62
19779 19755 18
19779 19781 61
19779 19827 45
19780 19775 87
19781 19734 35
19781 19779 61
19781 19819 30
19782 19757 31
19782 19784 45
19783 19784 25
19784 19783 25
19784 19782 45
19785 19738 36
19785 19793 78
19785 19842 39
19786 19642 150
19787 19752 25
19787 19767 17
19787 20102 201
19788 19716 54
19788 19713 144
19788 19849 48
19788 19870 135
19789 19762 43
19790 19699 118
19790 19791 145
19790 19650 301
19791 19790 145
19792 19761 21
19792 19801 10
19792 19811 80
19793 19785 78
19793 19794 17
19793 19847 39
19794 19742 37
19794 19793 17
19794 19807 18
19795 19746 127
19795 20097 192
19796 19735 47
19796 19716 136
19796 19870 54
19796 19917 185
19797 19736 46
19797 19799 28
19797 19843 31
19798 19685 116
19798 19859 50
19799 19739 47
19799 19797 28
19799 19809 76
19800 19776 26
19800 19837 28
19800 19860 92
19801 19792 10
19801 19827 97
19801 19829 19
19802 19803 271
19802 19769 65
19802 19850 80
19802 19910 71
19803 19802 271
19804 19764 34
19804 19768 64
19804 19840 24
19804 19858 82
19805 19692 135
19805 19806 22
19805 19888 53
19806 19692 110
19806 19805 22
19806 19824 27
19807 19759 56
19807 19794 18
19807 19847 39
19807 19928 184
19808 19715 69
19808 19812 99
19808 19987 198
19809 19748 49
19809 19799 76
19809 19750 171
19809 19856 42
19810 19773 41
19810 19839 28
19810 19935 117
19811 19792 80
19811 19729 62
19811 19851 30
19812 19808 99
19813 19721 69
19813 19814 62
19813 19873 40
19814 19813 62
19815 19744 49
19815 19816 55
19815 19821 65
19815 19861 33
19816 19674 105
19816 19815 55
19816 19940 88
19817 19778 42
19817 19741 78
19817 19838 23
19817 19894 67
19818 19662 194
19818 19834 29
19818 19895 310
19819 19781 30
19819 19822 68
19819 19875 39
19820 19772 36
19820 19764 93
19820 19857 28
19821 19815 65
19821 19743 58
19821 19777 98
19821 19897 45
19822 19819 68
19822 19872 37
19823 19775 36
19823 19828 94
19823 19879 35
19824 19825 189
19824 19806 27
19824 19942 93
19825 19824 189
19826 19732 326
19827 19779 45
19827 19801 97
19827 19881 35
19828 19823 94
19829 19801 19
19829 19846 10
19829 19884 105
19830 19776 85
19830 19860 21
19830 19867 72
19831 19777 44
19831 19735 181
19831 19897 110
19831 19917 53
19832 19833 45
19832 19845 38
19833 19832 45
19833 19751 63
19833 19876 29
19834 19818 29
19834 19835 51
19834 19859 30
19834 19929 67
19835 19834 51
19836 19740 75
19836 19837 40
19836 19844 47
19837 19800 28
19837 19836 40
19837 19868 40
19837 19937 85
19838 19817 23
19838 19754 81
19838 19913 57
19839 19810 28
19839 19778 62
19839 19894 42
19840 19804 24
19840 19874 33
19840 19901 58
19841 19768 52
19841 19874 35
19841 19886 31
19842 19785 39
19842 19847 84
19842 19919 47
19843 19797 31
19843 19856 88
19843 19896 35
19844 19836 47
19844 19704 99
19844 19852 12
19845 19832 38
19845 19876 63
19845 19883 41
19846 19829 10
19846 19881 87
19846 19918 43
19847 19807 39
19847 19793 39
19847 19842 84
19847 19871 22
19848 19548 338
19849 19788 48
19849 19759 157
19849 19928 49
19849 19948 138
19850 19802 80
19850 19902 76
19850 19957 71
19851 19811 30
19851 19867 37
19851 19884 21
19852 19844 12
19852 19882 30
19852 19970 75
19853 19771 78
19854 19855 23
19855 19854 23
19856 19809 42
19856 19843 88
19856 19924 41
19857 19820 28
19857 19858 8
19857 19896 29
19858 19857 8
19858 19804 82
19858 19901 40
19859 19834 30
19859 19798 50
19859 19895 31
19859 19971 80
19860 19830 21
19860 19800 92
19860 19911 34
19860 19933 60
19861 19815 33
19861 19864 37
19861 19887 15
19862 19863 19
19862 19873 55
19862 20021 107
19863 19862 19
19864 19861 37
19864 19949 56
19865 19866 44
19866 19865 44
19867 19851 37
19867 19830 72
19867 19933 49
19868 19837 40
19868 19922 34
19868 19975 93
19869 19632 496
19869 19950 3536
19870 19796 54
19870 19788 135
19870 19948 51
19870 19997 190
19871 19847 22
19871 19932 49
19871 20002 207
19872 19822 37
19872 19875 103
19872 19925 32
19873 19813 40
19873 19862 55
19873 19885 59
19873 20013 89
19874 19840 33
19874 19841 35
19874 19931 58
19875 19819 39
19875 19872 103
19875 19930 35
19876 19845 63
19876 19833 29
19876 19930 38
19877 19878 195
19878 19877 195
19879 19823 35
19879 19880 17
19879 19890 99
19879 19943 40
19880 19879 17
19881 19827 35
19881 19846 87
19881 19914 18
19882 19852 30
19882 19912 21
19882 20058 113
19883 19845 41
19883 19915 33
19883 19936 118
19884 19829 105
19884 19851 21
19884 19926 25
19885 19873 59
19885 19898 58
19885 19961 49
19886 19841 31
19886 19906 35
19886 19963 81
19887 19861 15
19887 19897 66
19887 19981 60
19888 19889 44
19888 19805 53
19888 19916 17
19889 19888 44
19890 19879 99
19891 19892 459
19891 19893 13
19891 19942 73
19892 19891 459
19893 19891 13
19894 19839 42
19894 19817 67
19894 19913 29
19895 19859 31
19895 19705 152
19895 19818 310
19896 19843 35
19896 19857 29
19896 19907 44
19896 19969 46
19897 19887 66
19897 19821 45
19897 19831 110
19897 19978 51
19898 19885 58
19898 19899 53
19898 19961 91
19899 19898 53
19899 19921 62
19899 19984 53
19900 19558 266
19900 19773 115
19900 19906 6
19901 19858 40
19901 19840 58
19901 19931 31
19902 19850 76
19902 19945 69
19902 20005 70
19903 19624 250
19903 19923 73
19903 20206 263
19904 19905 252
19905 19904 252
19905 19987 97
19905 19996 157
19906 19886 35
19906 19900 6
19906 19935 25
19906 20006 97
19907 19896 44
19907 19924 55
19907 20003 62
19908 19909 25
19908 19938 159
19909 19908 25
19910 19802 71
19910 19769 115
19910 19957 79
19910 20020 77
19911 19860 34
19911 19922 38
19911 20023 74
19912 19882 21
19912 19687 157
19912 19940 22
19913 19894 29
19913 19838 57
19913 19915 75
19914 19881 18
19914 19927 9
19915 19913 75
19915 19883 33
19915 19934 13
19916 19888 17
19917 19831 53
19917 19796 185
19917 19962 32
19917 19967 91
19918 19846 43
19918 19927 88
19918 19968 33
19919 19842 47
19919 19952 31
19920 19921 19
19921 19920 19
19921 19899 62
19921 19947 41
19921 20000 52
19922 19911 38
19922 19868 34
19922 20007 52
19922 20015 81
19923 19903 73
19923 19624 234
19923 19965 149
19924 19856 41
19924 19907 55
19924 19938 9
19925 19872 32
19925 19930 122
19925 19956 20
19926 19884 25
19926 19939 17
19926 19972 41
19927 19914 9
19927 19918 88
19927 19990 42
19928 19849 49
19928 19807 184
19928 20002 53
19928 20017 141
19929 19834 67
19930 19876 38
19930 19875 35
19930 19925 122
19930 19936 6
19931 19901 31
19931 19874 58
19931 19963 35
19932 19871 49
19932 19952 23
19932 20073 224
19933 19867 49
19933 19860 60
19933 19972 37
19933 20023 81
19934 19915 13
19934 19977 30
19934 19988 128
19935 19906 25
19935 19810 117
19935 19953 13
19936 19883 118
19936 19930 6
19936 19986 31
19937 19837 85
19937 19970 22
19937 19975 34
19938 19908 159
19938 19924 9
19938 19960 16
19939 19926 17
19939 19959 28
19939 19989 45
19940 19912 22
19940 19816 88
19940 20004 46
19940 20070 88
19941 19719 146
19941 19943 116
19941 20038 64
19942 19891 73
19942 19824 93
19942 20061 87
19943 19941 116
19943 19879 40
19943 20035 64
19944 19945 127
19945 19944 127
19945 19902 69
19945 20022 121
19945 20050 75
19946 19698 184
19947 19921 41
19947 19976 41
19947 20026 55
19948 19870 51
19948 19849 138
19948 20017 46
19949 19864 56
19949 19981 46
19949 20004 40
19950 19951 674
19950 19869 3536
19951 19950 674
19952 19932 23
19952 19919 31
19952 19979 29
19953 19935 13
19953 20012 55
19953 20014 47
19954 19955 222
19955 19954 222
19956 19925 20
19956 19983 21
19956 20009 36
19957 19850 71
19957 19910 79
19957 20005 76
19957 20072 79
19958 19669 271
19959 19939 28
19959 20043 57
19960 19938 16
19960 20003 74
19960 20086 101
19961 19898 91
19961 19885 49
19961 19992 30
19962 19917 32
19962 19997 22
19962 20010 98
19963 19931 35
19963 19886 81
19963 20006 34
19964 19965 289
19965 19964 289
19965 19966 70
19965 19923 149
19966 19965 70
19967 19917 91
19967 19978 33
19968 19918 33
19968 19985 46
19968 19990 88
19968 20069 67
19969 19896 46
19969 19980 38
19969 20019 33
19970 19937 22
19970 19852 75
19970 20046 51
19971 19859 80
19972 19926 41
19972 19933 37
19972 19989 18
19972 20065 86
19973 19974 27
19973 19996 50
19973 20098 92
19974 19973 27
19975 19868 93
19975 19937 34
19975 19991 17
19976 19947 41
19976 19982 32
19976 20041 46
19977 19934 30
19977 19998 17
19977 20040 102
19978 19897 51
19978 19967 33
19978 19981 89
19979 19952 29
19979 20038 62
19979 20066 129
19980 19969 38
19980 20006 101
19980 20028 33
19981 19949 46
19981 19887 60
19981 19978 89
19981 20036 39
19982 19976 32
19982 20001 36
19982 20060 55
19983 19956 21
19983 19986 119
19983 20032 47
19984 19899 53
19984 19992 131
19984 19995 47
19985 19968 46
19985 20051 48
19986 19936 31
19986 19983 119
19986 19988 4
19987 19808 198
19987 19905 97
19987 20230 212
19988 19934 128
19988 19986 4
19988 20034 29
19989 19939 45
19989 19972 18
19989 20018 24
19990 19927 42
19990 19968 88
19990 20062 47
19991 19975 17
19991 20015 31
19991 20042 33
19992 19984 131
19992 19961 30
19992 20013 43
19993 19994 255
19993 19999 35
19993 20202 192
19994 19993 255
19995 19984 47
19995 20000 12
19995 20063 49
19996 19905 157
19996 19973 50
19996 20039 91
19997 19962 22
19997 19870 190
19997 20033 24
19998 19977 17
19998 20011 9
19998 20034 112
19999 19993 35
20000 19921 52
20000 19995 12
20000 20026 41
20001 19982 36
20001 20008 12
20001 20079 54
20002 19928 53
20002 19871 207
20002 20073 49
20002 20093 139
20003 19960 74
20003 19907 62
20003 20019 24
20004 19940 46
20004 19949 40
20004 20059 38
20005 19902 70
20005 19957 76
20005 20050 67
20005 20117 78
20006 19980 101
20006 19963 34
20006 19906 97
20006 20056 35
20007 19922 52
20007 20016 28
20007 20049 30
20008 20001 12
20008 20030 35
20008 20092 55
20009 19956 36
20009 20062 38
20009 20176 158
20010 19962 98
20010 20037 69
20010 20084 50
20011 19998 9
20011 20078 86
20011 20112 84
20012 19953 55
20012 20014 24
20012 20056 66
20013 19992 43
20013 19873 89
20013 20021 80
20013 20129 92
20014 20012 24
20014 19953 47
20014 20040 176
20014 20142 92
20015 19922 81
20015 19991 31
20015 20027 9
20016 20007 28
20016 20027 30
20016 20262 176
20017 19948 46
20017 19928 141
20017 20055 28
20018 19989 24
20018 20043 52
20018 20113 79
20019 20003 24
20019 19969 33
20019 20086 62
20020 19910 77
20020 20072 79
20020 20149 152
20021 19862 107
20021 20013 80
20021 20031 188
20022 19945 121
20022 20031 16
20022 20087 95
20023 19933 81
20023 19911 74
20023 20065 33
20024 20025 47
20024 20047 115
20024 20081 40
20025 20024 47
20025 20035 119
20025 20083 37
20026 19947 55
20026 20000 41
20026 20041 42
20026 20089 42
20027 20016 30
20027 20015 9
20027 20042 35
20027 20212 130
20028 19980 33
20028 20056 103
20028 20077 32
20029 20030 46
20030 20029 46
20030 20008 35
20030 20054 40
20030 20116 58
20031 20022 16
20031 20021 188
20031 20087 111
20032 19983 47
20032 20034 84
20032 20088 46
20033 19997 24
20033 20084 99
20033 20104 46
20034 19988 29
20034 20032 84
20034 19998 112
20034 20095 38
20035 19943 64
20035 20025 119
20035 20099 36
20036 19981 39
20036 20059 54
20036 20170 97
20037 20010 69
20037 20120 52
20038 19979 62
20038 19941 64
20038 20091 31
20039 19996 91
20040 20014 176
20040 19977 102
20040 20078 41
20041 19976 46
20041 20026 42
20041 20052 19
20042 20027 35
20042 19991 33
20042 20046 14
20042 20205 115
20043 19959 57
20043 20018 52
20043 20051 23
20044 20045 82
20044 20061 44
20044 20124 89
20045 20044 82
20046 20042 14
20046 19970 51
20046 20057 10
20047 20024 115
20047 20048 594
20047 20298 188
20048 20047 594
20048 19204 41
20049 20007 30
20049 20064 14
20050 19945 75
20050 20005 67
20050 20087 60
20050 20147 73
20051 19985 48
20051 20043 23
20051 20069 45
20051 20166 87
20052 20041 19
20052 20060 14
20052 20143 66
20053 20054 47
20054 20053 47
20054 20030 40
20054 20075 34
20054 20134 56
20055 20017 28
20055 20068 10
20055 20080 25
20056 20028 103
20056 20006 35
20056 20012 66
20056 20107 30
20057 20046 10
20057 20058 23
20057 20191 100
20058 20057 23
20058 19882 113
20058 20067 14
20059 20004 38
20059 20036 54
20059 20071 6
20060 19982 55
20060 20052 14
20060 20079 32
20061 19942 87
20061 20044 44
20061 20094 18
20062 20009 38
20062 19990 47
20062 20133 49
20062 20233 156
20063 19995 49
20064 20049 14
20064 20096 30
20064 20336 196
20065 19972 86
20065 20023 33
20065 20096 24
20066 19979 129
20066 20100 46
20066 20108 59
20067 20058 14
20067 20070 8
20067 20189 95
20068 20055 10
20068 20076 14
20068 20093 14
20069 19968 67
20069 20051 45
20069 20127 86
20069 20150 64
20070 20067 8
20070 19940 88
20070 20085 19
20071 20059 6
20071 20085 46
20071 20178 80
20072 19957 79
20072 20020 79
20072 20117 76
20072 20149 63
20073 20002 49
20073 19932 224
20073 20109 23
20074 20075 36
20075 20074 36
20075 20054 34
20075 20102 40
20075 20145 55
20076 20068 14
20076 20082 5
20076 20103 15
20077 20028 32
20077 20107 102
20077 20126 32
20078 20040 41
20078 20011 86
20078 20128 47
20079 20001 54
20079 20060 32
20079 20092 14
20079 20153 66
20080 20055 25
20080 20082 5
20080 20090 6
20081 20024 40
20081 20083 59
20081 20132 37
20082 20080 5
20082 20076 5
20082 20090 6
20083 20025 37
20083 20081 59
20083 20099 121
20083 20135 34
20084 20010 50
20084 20033 99
20084 20120 73
20084 20146 49
20085 20070 19
20085 20071 46
20085 20199 83
20086 19960 101
20086 20019 62
20086 20185 112
20087 20022 95
20087 20050 60
20087 20031 111
20088 20032 46
20088 20095 44
20088 20137 47
20089 20026 42
20090 20080 6
20090 20082 6
20090 20103 9
20091 20038 31
20091 20100 130
20091 20138 35
20092 20008 55
20092 20079 14
20092 20116 37
20093 20068 14
20093 20002 139
20093 20131 28
20094 20061 18
20094 20101 58
20094 20404 240
20095 20034 38
20095 20088 44
20095 20112 61
20095 20130 27
20096 20065 24
20096 20064 30
20096 20106 18
20097 19795 192
20097 20157 57
20097 20172 70
20098 19973 92
20099 20035 36
20099 20083 121
20099 20139 32
20100 20066 46
20100 20091 130
20100 20141 31
20101 20094 58
20102 19787 201
20102 20075 40
20102 20159 53
20103 20090 9
20103 20076 15
20103 20105 2
20104 20033 46
20104 20146 101
20104 20156 51
20105 20103 2
20105 20118 10
20105 20121 11
20106 20096 18
20106 20113 7
20106 20350 181
20107 20077 102
20107 20056 30
20107 20136 23
20108 20066 59
20108 20109 67
20109 20073 23
20109 20108 67
20109 20131 154
20109 20173 57
20110 20111 32
20111 20110 32
20112 20011 84
20112 20095 61
20112 20128 98
20112 20148 39
20113 20018 79
20113 20106 7
20113 20122 18
20114 20115 443
20115 20114 443
20116 20030 58
20116 20092 37
20116 20123 14
20117 20005 78
20117 20072 76
20117 20147 70
20117 20149 131
20118 20105 10
20119 19027 1379
20120 20037 52
20120 20084 73
20120 20174 48
20121 20105 11
20122 20113 18
20122 20152 33
20122 20158 83
20123 20116 14
20123 20134 27
20123 20203 67
20124 20044 89
20124 20125 147
20124 20165 67
20124 20259 112
20125 20124 147
20126 20077 32
20126 20140 119
20127 20069 86
20127 20133 6
20127 20150 98
20128 20078 47
20128 20112 98
20128 20151 26
20129 20013 92
20129 20182 133
20129 20393 282
20130 20095 27
20130 20137 6
20130 20148 56
20131 20093 28
20131 20109 154
20131 20144 128
20131 20188 49
20132 20081 37
20132 20135 70
20132 20167 34
20133 20062 49
20133 20127 6
20133 20177 40
20133 20277 143
20134 20054 56
20134 20123 27
20134 20145 34
20135 20083 34
20135 20132 70
20135 20139 122
20136 20107 23
20136 20140 6
20137 20130 6
20137 20088 47
20137 20176 39
20137 20207 113
20138 20091 35
20138 20141 132
20138 20179 33
20139 20099 32
20139 20135 122
20139 20183 36
20140 20136 6
20140 20142 47
20140 20126 119
20141 20100 31
20141 20138 132
20141 20200 44
20142 20014 92
20142 20140 47
20143 20052 66
20143 20153 46
20143 20198 58
20143 20357 198
20144 20131 128
20144 20156 68
20144 20211 48
20145 20075 55
20145 20134 34
20145 20159 41
20145 20240 68
20146 20084 49
20146 20104 101
20146 20174 76
20146 20221 52
20147 20050 73
20147 20117 70
20147 20182 292
20148 20112 39
20148 20130 56
20148 20151 114
20148 20207 38
20149 20072 63
20149 20020 152
20149 20117 131
20149 20201 37
20150 20127 98
20150 20069 64
20150 20186 30
20151 20128 26
20151 20148 114
20151 20204 31
20152 20122 33
20152 20214 49
20152 20216 37
20153 20079 66
20153 20143 46
20153 20198 29
20153 20203 63
20154 20155 9
20154 20169 32
20155 20154 9
20156 20104 51
20156 20144 68
20156 20221 103
20156 20238 53
20157 20097 57
20157 20172 41
20157 20274 78
20158 20122 83
20158 20166 9
20158 20253 63
20159 20102 53
20159 20145 41
20159 20234 51
20160 20161 18
20161 20160 18
20161 20162 14
20161 20197 22
20162 20161 14
20163 20164 17
20163 20165 47
20163 20197 39
20164 20163 17
20165 20124 67
20165 20163 47
20165 20220 35
20166 20051 87
20166 20158 9
20166 20180 19
20167 20132 34
20167 20171 12
20167 20169 88
20167 20215 31
20168 20169 8
20169 20168 8
20169 20167 88
20169 20154 32
20170 20036 97
20170 20178 62
20170 20281 77
20171 20167 12
20171 20175 94
20172 20157 41
20172 20097 70
20172 20239 98
20173 20109 57
20173 20181 4
20173 20184 54
20174 20120 48
20174 20146 76
20174 20256 55
20175 20171 94
20175 20183 94
20175 20225 31
20176 20137 39
20176 20009 158
20176 20233 39
20177 20133 40
20177 20187 8
20177 20210 108
20178 20071 80
20178 20170 62
20178 20199 75
20178 20224 29
20179 20138 33
20179 20183 136
20179 20200 139
20179 20242 42
20180 20166 19
20180 20186 15
20180 20264 60
20181 20173 4
20181 20188 153
20181 20208 16
20182 20129 133
20182 20147 292
20182 20201 737
20183 20179 136
20183 20139 36
20183 20175 94
20183 20232 31
20184 20173 54
20184 20196 77
20184 20226 26
20185 20086 112
20185 20213 179
20186 20150 30
20186 20180 15
20186 20210 14
20187 20177 8
20187 20235 30
20187 20322 130
20188 20131 49
20188 20181 153
20188 20211 128
20188 20258 46
20189 20067 95
20189 20191 24
20189 20199 37
20190 19762 301
20190 23864 301
20190 20219 100
20190 20291 78
20191 20057 100
20191 20189 24
20191 20205 33
20191 20217 13
20192 20193 247
20192 20194 240
20192 20195 331
20192 20223 68
20193 20192 247
20193 20209 97
20193 20620 1296
20194 20192 240
20195 20192 331
20195 20307 403
20196 20184 77
20196 20200 9
20197 20163 39
20197 20161 22
20197 20206 28
20197 20222 17
20198 20153 29
20198 20143 58
20198 20275 76
20199 20189 37
20199 20085 83
20199 20178 75
20200 20196 9
20200 20141 44
20200 20179 139
20200 20245 32
20201 20149 37
20201 20182 737
20202 19993 192
20202 20279 70
20202 20461 901
20203 20123 67
20203 20153 63
20203 20240 70
20204 20151 31
20204 20207 129
20205 20042 115
20205 20191 33
20205 20212 40
20206 19903 263
20206 20197 28
20206 20437 357
20207 20204 129
20207 20148 38
20207 20137 113
20208 20181 16
20208 20226 61
20208 20236 27
20209 20193 97
20210 20177 108
20210 20186 14
20210 20272 46
20211 20144 48
20211 20188 128
20211 20238 60
20211 20280 50
20212 20027 130
20212 20205 40
20212 20262 56
20213 20185 179
20214 20152 49
20214 20216 29
20214 20248 23
20215 20167 31
20215 20218 61
20215 20263 37
20216 20214 29
20216 20152 37
20216 20252 23
20217 20191 13
20217 20231 75
20217 20241 18
20218 20215 61
20219 19726 334
20219 20190 100
20219 20299 65
20220 20165 35
20220 20237 28
20220 20259 46
20221 20146 52
20221 20156 103
20221 20256 79
20221 20284 49
20222 20197 17
20223 20192 68
20224 20178 29
20224 20231 66
20224 20302 58
20225 20175 31
20225 20232 90
20225 20270 33
20226 20208 61
20226 20184 26
20226 20245 103
20226 20257 24
20227 20228 45
20228 20227 45
20228 20229 62
20228 20261 95
20228 20351 95
20229 20228 62
20230 19987 212
20230 20376 702
20230 20471 405
20231 20224 66
20231 20217 75
20231 20286 42
20232 20183 31
20232 20225 90
20232 20242 141
20232 20276 32
20233 20176 39
20233 20062 156
20233 20277 40
20234 20159 51
20234 20239 81
20234 20254 58
20235 20187 30
20235 20255 63
20235 20267 24
20236 20208 27
20236 20251 10
20236 20257 73
20237 20220 28
20238 20156 53
20238 20211 60
20238 20284 102
20238 20301 46
20239 20172 98
20239 20234 81
20239 20289 87
20240 20145 68
20240 20203 70
20240 20254 14
20241 20217 18
20241 20278 30
20241 20295 88
20242 20179 42
20242 20232 141
20242 20245 129
20242 20282 28
20243 20244 26
20244 20243 26
20245 20226 103
20245 20200 32
20245 20242 129
20245 20297 36
20246 20247 22
20246 20290 98
20246 20528 330
20247 20246 22
20247 20288 133
20247 20392 160
20248 20214 23
20248 20252 27
20248 20253 14
20248 20269 21
20249 20250 555
20250 20249 555
20250 20265 39
20250 20330 107
20251 20236 10
20251 20258 120
20251 20273 18
20252 20248 27
20252 20216 23
20252 20285 26
20253 20158 63
20253 20248 14
20253 20264 27
20254 20234 58
20254 20240 14
20254 20283 61
20255 20235 63
20255 20272 52
20255 20396 121
20256 20174 55
20256 20221 79
20256 20281 51
20257 20236 73
20257 20226 24
20257 20271 9
20258 20188 46
20258 20251 120
20258 20268 77
20258 20328 49
20259 20124 112
20259 20220 46
20259 20337 61
20260 20261 46
20261 20260 46
20261 20228 95
20261 20312 97
20261 20375 91
20262 20016 176
20262 20212 56
20262 20305 38
20262 20314 86
20263 20215 37
20263 20270 126
20263 20313 37
20264 20180 60
20264 20253 27
20264 20272 16
20265 20266 45
20265 20250 39
20265 20292 62
20266 20265 45
20267 20235 24
20267 20303 37
20267 20358 97
20268 20258 77
20268 20280 49
20268 20335 48
20269 20248 21
20269 20285 18
20269 20296 60
20270 20225 33
20270 20263 126
20270 20276 90
20270 20319 33
20271 20257 9
20271 20287 13
20271 20297 111
20272 20255 52
20272 20210 46
20272 20264 16
20272 20296 17
20273 20251 18
20273 20287 77
20273 20318 37
20274 20157 78
20274 20289 156
20274 20348 59
20275 20198 76
20276 20232 32
20276 20270 90
20276 20282 140
20276 20321 33
20277 20233 40
20277 20133 143
20277 20304 26
20277 20322 41
20278 20241 30
20278 20314 29
20278 20333 93
20279 20202 70
20279 20294 18
20279 20308 18
20280 20211 50
20280 20268 49
20280 20301 49
20281 20170 77
20281 20256 51
20281 20302 62
20281 20342 46
20282 20242 28
20282 20276 140
20282 20297 130
20282 20329 33
20283 20254 61
20283 20357 172
20284 20221 49
20284 20238 102
20284 20327 98
20284 20345 48
20285 20269 18
20285 20252 26
20285 20306 15
20285 20338 40
20286 20231 42
20286 20295 4
20286 20302 82
20287 20273 77
20287 20271 13
20287 20324 27
20288 20247 133
20288 20309 25
20288 20348 178
20289 20274 156
20289 20239 87
20289 20300 10
20290 20246 98
20290 20514 506
20291 20190 78
20291 20320 67
20291 20361 58
20292 20293 88
20292 20265 62
20292 20421 276
20293 20292 88
20294 20279 18
20295 20241 88
20295 20286 4
20295 20323 24
20296 20272 17
20296 20269 60
20296 20332 29
20297 20271 111
20297 20245 36
20297 20282 130
20297 20347 38
20298 20047 188
20298 20459 164
20298 20504 241
20299 20219 65
20299 20320 17
20299 20418 213
20300 20289 10
20300 20407 140
20301 20238 46
20301 20280 49
20301 20345 100
20301 20458 140
20302 20286 82
20302 20224 58
20302 20281 62
20302 20334 24
20303 20267 37
20303 20343 38
20303 20396 112
20304 20277 26
20305 20262 38
20305 20336 31
20305 20344 95
20306 20285 15
20306 20332 60
20306 20349 36
20307 20195 403
20307 20426 146
20308 20279 18
20308 20346 120
20308 20399 84
20309 20288 25
20309 20416 139
20310 20311 1063
20311 20310 1063
20311 20757 551
20311 20907 1729
20312 20261 97
20312 20331 50
20312 20410 87
20313 20263 37
20313 20319 143
20313 20353 34
20314 20262 86
20314 20278 29
20314 20344 28
20314 20362 98
20315 20316 78
20316 20315 78
20316 20317 76
20316 20351 93
20316 20420 93
20317 20316 76
20317 20385 100
20318 20273 37
20318 20328 129
20318 20352 51
20319 20270 33
20319 20313 143
20319 20321 86
20319 20359 34
20320 20299 17
20320 20291 67
20320 20433 126
20321 20276 33
20321 20319 86
20321 20329 138
20321 20365 34
20322 20277 41
20322 20187 130
20322 20358 36
20323 20295 24
20323 20333 6
20323 20334 97
20324 20287 27
20324 20347 118
20325 20326 50
20325 20339 34
20325 20354 27
20326 20325 50
20327 20284 98
20327 20342 34
20327 20379 48
20328 20258 49
20328 20318 129
20328 20335 80
20328 20382 48
20329 20282 33
20329 20321 138
20329 20347 133
20329 20370 35
20330 20250 107
20330 20339 75
20330 20388 73
20331 20312 50
20331 20364 95
20331 20429 89
20332 20296 29
20332 20306 60
20332 20363 26
20333 20278 93
20333 20323 6
20333 20362 25
20334 20323 97
20334 20302 24
20334 20372 33
20335 20268 48
20335 20328 80
20335 20387 48
20336 20064 196
20336 20305 31
20336 20350 26
20336 20371 101
20337 20259 61
20337 20425 188
20337 20442 103
20338 20285 40
20338 20349 18
20338 20369 23
20339 20340 21
20339 20325 34
20339 20330 75
20340 20339 21
20341 19703 460
20341 20373 35
20342 20281 46
20342 20327 34
20342 20366 20
20343 20303 38
20343 20384 54
20343 20424 100
20344 20305 95
20344 20314 28
20344 20371 27
20344 20378 73
20345 20284 48
20345 20301 100
20345 20379 99
20345 20439 90
20346 20308 120
20347 20324 118
20347 20297 38
20347 20329 133
20347 20381 32
20348 20274 59
20348 20288 178
20348 20408 72
20349 20306 36
20349 20338 18
20349 20356 18
20350 20106 181
20350 20336 26
20350 20369 28
20350 20405 52
20351 20228 95
20351 20316 93
20351 20375 93
20351 20447 92
20352 20318 51
20352 20360 7
20352 20374 22
20353 20313 34
20353 20359 152
20353 20389 38
20354 20325 27
20354 20355 29
20354 20400 61
20355 20354 29
20356 20349 18
20356 20363 17
20356 20383 26
20357 20283 172
20357 20143 198
20357 20393 124
20358 20322 36
20358 20267 97
20358 20384 41
20359 20319 34
20359 20353 152
20359 20365 89
20359 20394 36
20360 20352 7
20360 20498 131
20361 20291 58
20361 20415 60
20362 20314 98
20362 20333 25
20362 20372 103
20362 20377 16
20363 20332 26
20363 20356 17
20363 20390 29
20364 20331 95
20364 20464 93
20365 20321 34
20365 20359 89
20365 20370 138
20365 20397 35
20366 20342 20
20367 20368 83
20368 20367 83
20369 20338 23
20369 20350 28
20369 20383 34
20370 20329 35
20370 20365 138
20370 20381 131
20370 20402 33
20371 20336 101
20371 20344 27
20372 20362 103
20372 20334 33
20372 20445 70
20373 20341 35
20373 20418 85
20373 20448 84
20374 20352 22
20374 20382 154
20374 20432 63
20375 20261 91
20375 20351 93
20375 20410 97
20375 20470 94
20376 20230 702
20377 20362 16
20378 20344 73
20379 20327 48
20379 20345 99
20380 20381 117
20381 20380 117
20381 20347 32
20381 20370 131
20381 20413 26
20382 20328 48
20382 20374 154
20382 20387 81
20382 20441 53
20383 20356 26
20383 20369 34
20383 20390 19
20384 20358 41
20384 20343 54
20385 20317 100
20385 20386 100
20385 20420 91
20385 20482 93
20386 20385 100
20386 20456 94
20387 20335 48
20387 20382 81
20387 20449 53
20388 20330 73
20388 20490 114
20388 20503 113
20389 20353 38
20389 20391 95
20389 20431 37
20390 20363 29
20390 20383 19
20390 20398 17
20391 20389 95
20391 20394 64
20391 20436 36
20392 20247 160
20392 20408 37
20392 20463 59
20393 20357 124
20393 20129 282
20393 20502 225
20394 20359 36
20394 20391 64
20394 20395 31
20395 20394 31
20395 20397 62
20395 20440 39
20396 20303 112
20396 20255 121
20396 20424 34
20397 20365 35
20397 20395 62
20397 20402 136
20397 20443 37
20398 20390 17
20399 20308 84
20399 20473 110
20399 20672 429
20400 20401 63
20400 20354 61
20400 20409 18
20401 20400 63
20402 20370 33
20402 20397 136
20402 20413 132
20402 20444 37
20403 19699 676
20404 20094 240
20404 20476 68
20404 20476 88
20405 20350 52
20406 20407 23
20406 20419 52
20406 20495 137
20407 20406 23
20407 20411 97
20407 20300 140
20408 20348 72
20408 20392 37
20408 20463 58
20409 20400 18
20409 20430 21
20409 20487 231
20410 20312 87
20410 20375 97
20410 20429 55
20410 20501 95
20411 20407 97
20411 23864 255
20412 20413 119
20413 20412 119
20413 20381 26
20413 20402 132
20413 20454 38
20414 17744 2918
20414 21298 3286
20415 20361 60
20415 20518 138
20416 20417 19
20416 20309 139
20417 20416 19
20417 20433 143
20417 20504 149
20417 20526 136
20418 20373 85
20418 20299 213
20418 20419 9
20418 20419 9
20419 20418 9
20419 20418 9
20419 20406 52
20420 20316 93
20420 20385 91
20420 20447 94
20420 20507 92
20421 20292 276
20422 20423 68
20423 20422 68
20423 20428 25
20423 20451 28
20424 20343 100
20424 20396 34
20425 20337 188
20426 20307 146
20426 20427 103
20426 20473 225
20427 20426 103
20428 20423 25
20429 20331 89
20429 20410 55
20429 20464 97
20430 20409 21
20431 20389 37
20431 20436 103
20431 20468 39
20432 20374 63
20432 20441 123
20432 20446 19
20433 20320 126
20433 20452 19
20433 20417 143
20434 20435 46
20434 20451 61
20434 20494 141
20435 20434 46
20436 20391 36
20436 20431 103
20436 20440 95
20436 20469 36
20437 20206 357
20438 20439 91
20438 20488 50
20439 20438 91
20439 20345 90
20439 20489 50
20440 20395 39
20440 20436 95
20440 20475 34
20441 20382 53
20441 20432 123
20441 20449 77
20442 20337 103
20442 20477 115
20442 20581 200
20443 20397 37
20443 20444 136
20443 20478 35
20444 20402 37
20444 20443 136
20444 20454 127
20444 20511 69
20445 20372 70
20445 20450 48
20445 20460 9
20446 20432 19
20446 20455 14
20446 20524 97
20447 20351 92
20447 20420 94
20447 20470 96
20447 20530 93
20448 20373 84
20448 20525 52
20449 20387 53
20449 20441 77
20449 20458 54
20450 20445 48
20450 20474 50
20450 20493 43
20451 20434 61
20451 20423 28
20451 20540 156
20452 20433 19
20452 20523 109
20452 20643 219
20453 20454 126
20454 20453 126
20454 20413 38
20454 20444 127
20454 20486 38
20455 20446 14
20455 20483 99
20455 20542 106
20456 20386 94
20456 20457 92
20456 20482 102
20456 20527 87
20457 20456 92
20457 20505 88
20458 20301 140
20458 20449 54
20458 20513 69
20459 20298 164
20459 20499 55
20459 20532 55
20460 20445 9
20460 20465 24
20460 20492 33
20461 20202 901
20461 20462 98
20461 20538 89
20462 20461 98
20463 20408 58
20463 20392 59
20463 20583 266
20464 20364 93
20464 20429 97
20465 20466 86
20465 20460 24
20465 20506 114
20466 20465 86
20466 20481 136
20466 20505 546
20467 19455 2368
20468 20431 39
20468 20469 112
20468 20496 29
20469 20436 36
20469 20468 112
20469 20475 98
20469 20508 37
20470 20375 94
20470 20447 96
20470 20501 91
20470 20549 97
20471 20230 405
20471 20472 33
20471 20645 267
20472 20471 33
20473 20399 110
20473 20426 225
20473 20559 107
20474 20450 50
20474 20557 93
20475 20440 34
20475 20469 98
20475 20509 34
20476 20404 68
20476 20404 88
20476 20487 9
20477 20442 115
20478 20443 35
20478 20484 104
20479 20480 26
20479 20500 69
20479 20561 99
20480 20479 26
20481 20466 136
20481 20512 36
20481 20517 188
20482 20385 93
20482 20456 102
20482 20507 90
20482 20551 89
20483 20455 99
20483 20497 45
20483 20571 104
20484 20478 104
20485 20486 109
20486 20485 109
20486 20454 38
20486 20510 32
20487 20409 231
20487 20476 9
20487 20543 85
20488 20438 50
20488 20489 89
20488 20522 44
20489 20488 89
20489 20439 50
20489 20491 34
20489 20520 41
20490 20388 114
20491 20489 34
20492 20460 33
20492 20493 48
20492 20516 35
20493 20492 48
20493 20450 43
20493 20515 27
20494 20434 141
20494 20519 74
20494 20547 119
20495 20406 137
20495 20499 176
20496 20468 29
20496 20508 135
20497 20483 45
20497 20513 68
20497 20537 50
20498 20360 131
20498 20510 121
20498 20524 38
20499 20495 176
20499 20459 55
20499 20532 55
20500 20479 69
20501 20410 95
20501 20470 91
20501 20586 94
20501 20622 736
20502 20393 225
20502 20514 78
20502 20541 51
20503 20388 113
20504 20417 149
20504 20298 241
20505 20457 88
20505 20466 546
20505 20527 95
20506 20465 114
20506 20512 79
20506 20529 33
20507 20420 92
20507 20482 90
20507 20530 94
20507 20587 89
20508 20469 37
20508 20509 101
20508 20496 135
20509 20475 34
20509 20508 101
20509 20511 191
20510 20498 121
20510 20486 32
20510 20534 36
20511 20444 69
20511 20509 191
20511 20607 105
20512 20481 36
20512 20506 79
20512 20552 82
20512 20585 78
20513 20458 69
20513 20497 68
20514 20290 506
20514 20502 78
20514 20582 72
20515 20493 27
20515 20516 63
20515 20558 50
20516 20492 35
20516 20515 63
20516 20539 34
20517 20481 188
20517 20546 103
20517 20560 48
20518 20415 138
20518 20955 691
20518 23865 691
20519 20494 74
20520 20489 41
20520 20521 67
20520 20522 91
20520 20544 25
20521 20520 67
20522 20488 44
20522 20520 91
20523 20452 109
20523 20619 128
20524 20446 97
20524 20498 38
20524 20548 25
20525 20526 52
20525 20448 52
20526 20525 52
20526 20417 136
20526 20574 31
20527 20456 87
20527 20505 95
20527 20551 95
20527 20614 98
20528 20246 330
20528 20579 67
20528 20593 70
20529 20506 33
20529 20539 72
20529 20556 34
20530 20447 93
20530 20507 94
20530 20549 90
20530 20609 94
20531 20532 45
20531 20578 33
20532 20531 45
20532 20459 55
20532 20499 55
20533 20534 85
20534 20533 85
20534 20510 36
20534 20564 37
20535 20536 43
20536 20535 43
20537 20497 50
20538 20461 89
20538 20628 173
20538 20669 207
20539 20529 72
20539 20516 34
20539 20550 18
20540 20451 156
20541 20502 51
20541 20582 120
20541 21162 1488
20542 20455 106
20543 20487 85
20543 20602 77
20543 20634 126
20544 20520 25
20544 20562 26
20544 20565 24
20545 20546 26
20546 20545 26
20546 20517 103
20546 20573 68
20546 20590 44
20547 20494 119
20548 20524 25
20548 20564 93
20549 20470 97
20549 20530 90
20549 20586 94
20549 20632 94
20550 20539 18
20550 20558 84
20550 20580 25
20551 20482 89
20551 20527 95
20551 20587 95
20551 20637 99
20552 20512 82
20552 20553 14
20552 20554 47
20553 20552 14
20553 20576 18
20554 20555 70
20554 20552 47
20554 20560 55
20554 20598 47
20555 20554 70
20556 20529 34
20556 20580 42
20557 20474 93
20557 20558 49
20557 20565 139
20557 20592 35
20558 20550 84
20558 20515 50
20558 20557 49
20559 20473 107
20560 20517 48
20560 20554 55
20560 20568 29
20560 20623 78
20561 20479 99
20562 20544 26
20562 20563 80
20562 20600 54
20563 20562 80
20564 20548 93
20564 20534 37
20565 20557 139
20565 20544 24
20565 20624 67
20566 20567 87
20567 20566 87
20568 20560 29
20568 20590 77
20568 20601 35
20569 20570 97
20570 20569 97
20571 20483 104
20572 20573 87
20573 20572 87
20573 20546 68
20573 20597 77
20573 20606 40
20574 20575 23
20574 20526 31
20575 20574 23
20575 20650 113
20575 20673 133
20576 20553 18
20576 20585 35
20576 20608 42
20577 20578 16
20577 20670 125
20577 20783 284
20578 20577 16
20578 20531 33
20579 20528 67
20579 20583 14
20579 20593 50
20580 20556 42
20580 20550 25
20580 20588 11
20581 20442 200
20581 20584 29
20581 20589 14
20582 20514 72
20582 20541 120
20582 20977 780
20583 20579 14
20583 20463 266
20584 20581 29
20584 20589 37
20584 20602 54
20585 20576 35
20585 20512 78
20585 20591 38
20585 20615 45
20586 20501 94
20586 20549 94
20586 20605 80
20586 20663 94
20587 20507 89
20587 20551 95
20587 20609 93
20587 20629 57
20588 20580 11
20588 20592 146
20588 20613 37
20589 20581 14
20589 20584 37
20589 20809 588
20590 20546 44
20590 20568 77
20590 20606 70
20590 20618 37
20591 20585 38
20591 20613 83
20591 20625 46
20592 20588 146
20592 20557 35
20592 20616 31
20593 20579 50
20593 20528 70
20593 20789 287
20594 20595 94
20594 20596 89
20594 20631 45
20595 20594 94
20595 20617 33
20596 20594 89
20596 20599 176
20596 20633 52
20597 20573 77
20597 20614 72
20597 20664 78
20598 20554 47
20598 20608 36
20598 20623 84
20598 20684 120
20599 20596 176
20599 20612 161
20599 20640 48
20600 20562 54
20600 20626 285
20600 20627 40
20601 20568 35
20601 20618 75
20601 20630 38
20602 20543 77
20602 20584 54
20602 20712 166
20603 20604 10
20604 20603 10
20604 20617 116
20604 20636 46
20605 20586 80
20606 20573 40
20606 20590 70
20606 20639 41
20607 20511 105
20607 20612 12
20608 20598 36
20608 20576 42
20608 20615 32
20608 20695 110
20609 20530 94
20609 20587 93
20609 20632 90
20609 20693 96
20610 20611 58
20610 20612 101
20610 20638 129
20610 20653 47
20611 20610 58
20612 20610 101
20612 20607 12
20612 20599 161
20612 20646 38
20613 20591 83
20613 20588 37
20613 20616 162
20613 20657 49
20614 20527 98
20614 20597 72
20614 20637 87
20614 20678 76
20615 20608 32
20615 20585 45
20615 20625 34
20615 20732 188
20616 20613 162
20616 20592 31
20616 20642 28
20617 20595 33
20617 20604 116
20617 20661 44
20618 20590 37
20618 20601 75
20618 20639 72
20618 20656 38
20619 20523 128
20619 20666 180
20619 20717 121
20620 20621 250
20620 20193 1296
20620 20721 226
20621 20620 250
20622 20501 736
20623 20560 78
20623 20598 84
20623 20630 20
20623 20677 61
20624 20565 67
20624 20627 100
20624 20644 23
20625 20615 34
20625 20591 46
20625 20657 85
20625 20698 92
20626 20600 285
20626 20638 154
20626 20649 26
20627 20624 100
20627 20600 40
20627 20641 23
20628 20538 173
20629 20587 57
20630 20601 38
20630 20623 20
20630 20656 75
20631 20594 45
20631 20633 107
20631 20668 42
20632 20549 94
20632 20609 90
20632 20663 96
20632 20718 108
20633 20596 52
20633 20631 107
20633 20640 160
20633 20690 61
20634 20635 128
20634 20543 126
20634 20778 214
20635 20634 128
20636 20604 46
20636 20661 136
20636 20665 34
20637 20551 99
20637 20614 87
20637 20660 69
20637 20704 76
20638 20626 154
20638 20610 129
20638 20651 14
20639 20606 41
20639 20618 72
20639 20664 78
20639 20707 76
20640 20599 48
20640 20633 160
20640 20646 152
20640 20680 48
20641 20627 23
20641 20649 229
20641 20659 25
20642 20616 28
20642 20644 129
20642 20648 7
20643 20452 219
20644 20642 129
20644 20624 23
20644 20658 12
20645 20471 267
20646 20612 38
20646 20640 152
20646 20653 111
20646 20688 45
20647 20648 140
20648 20647 140
20648 20642 7
20648 20679 35
20649 20641 229
20649 20626 26
20649 20662 13
20650 20575 113
20650 20652 8
20650 20666 37
20651 20638 14
20651 20653 105
20651 20667 21
20652 20650 8
20652 20671 24
20653 20651 105
20653 20610 47
20653 20646 111
20653 20687 42
20654 20655 3
20654 20669 119
20654 20676 50
20655 20654 3
20656 20618 38
20656 20630 75
20656 20692 43
20657 20625 85
20657 20613 49
20657 20679 190
20657 20689 45
20658 20644 12
20658 20659 138
20658 20685 35
20659 20658 138
20659 20641 25
20659 20675 32
20660 20637 69
20660 20674 71
20660 20715 78
20661 20617 44
20661 20636 136
20661 20706 54
20662 20649 13
20662 20667 158
20662 20686 31
20663 20586 94
20663 20632 96
20663 20691 133
20664 20597 78
20664 20639 78
20664 20678 70
20664 20720 78
20665 20636 34
20666 20650 37
20666 20681 19
20666 20619 180
20667 20662 158
20667 20651 21
20667 20682 20
20668 20631 42
20668 20690 131
20668 20714 57
20669 20538 207
20669 20654 119
20669 20877 610
20670 20577 125
20670 20671 16
20670 20683 13
20671 20670 16
20671 20652 24
20672 20399 429
20673 20575 133
20673 20703 158
20673 20784 152
20674 20660 71
20674 20693 57
20674 20738 80
20675 20659 32
20675 20686 172
20675 20694 28
20675 20729 163
20676 20654 50
20677 20623 61
20677 20684 36
20677 20692 75
20677 20749 109
20678 20614 76
20678 20664 70
20678 20704 77
20678 20740 82
20679 20657 190
20679 20648 35
20679 20685 125
20679 20708 30
20680 20640 48
20680 20688 154
20680 20690 143
20680 20726 60
20681 20666 19
20681 20699 9
20682 20667 20
20682 20686 163
20682 20687 104
20682 20727 60
20683 20670 13
20683 20696 13
20683 20706 148
20684 20677 36
20684 20598 120
20684 20695 44
20685 20679 125
20685 20658 35
20685 20694 138
20686 20675 172
20686 20662 31
20686 20682 163
20686 20729 63
20687 20682 104
20687 20653 42
20687 20688 123
20687 20724 58
20688 20687 123
20688 20646 45
20688 20680 154
20688 20725 55
20689 20657 45
20690 20680 143
20690 20633 61
20690 20668 131
20690 20723 55
20691 20663 133
20691 20745 86
20692 20656 43
20692 20677 75
20692 20707 76
20692 20719 44
20693 20609 96
20693 20674 57
20693 20702 24
20694 20685 138
20694 20675 28
20694 20705 18
20695 20684 44
20695 20608 110
20695 20732 55
20696 20697 31
20696 20683 13
20696 20710 19
20697 20696 31
20697 20701 42
20697 20713 28
20698 20625 92
20699 20700 9
20699 20681 9
20700 20699 9
20700 20709 12
20700 20717 155
20701 20697 42
20701 20713 41
20701 20716 166
20702 20693 24
20702 20718 72
20702 20748 77
20703 20673 158
20703 23865 124
20704 20637 76
20704 20678 77
20704 20715 81
20704 20742 65
20705 20694 18
20705 20722 36
20705 20752 185
20706 20661 54
20706 20683 148
20706 20714 88
20707 20639 76
20707 20692 76
20707 20720 74
20707 20739 46
20708 20679 30
20709 20700 12
20709 20784 113
20709 20711 38
20710 20696 19
20710 20711 7
20710 20783 116
20711 20710 7
20711 20709 38
20712 20602 166
20712 20787 136
20712 20881 507
20713 20701 41
20713 20697 28
20713 20762 79
20714 20668 57
20714 20706 88
20714 20716 7
20714 20723 124
20715 20660 78
20715 20704 81
20715 20738 68
20715 20755 63
20716 20714 7
20716 20701 166
20716 20735 123
20716 20756 62
20717 20700 155
20717 20619 121
20717 20973 475
20718 20632 108
20718 20702 72
20718 20743 78
20718 20772 77
20719 20692 44
20719 20739 75
20719 20741 33
20720 20664 78
20720 20707 74
20720 20740 73
20720 20744 36
20721 20620 226
20722 20705 36
20722 20747 36
20722 20773 183
20723 20690 55
20723 20714 124
20723 20726 167
20723 20735 8
20724 20687 58
20724 20725 142
20724 20727 104
20724 20733 8
20725 20724 142
20725 20688 55
20725 20726 143
20725 20731 5
20726 20725 143
20726 20680 60
20726 20723 167
20726 20730 4
20727 20682 60
20727 20724 104
20727 20728 56
20728 20727 56
20728 20729 112
20728 20734 8
20729 20675 163
20729 20686 63
20729 20728 112
20729 20752 42
20730 20726 4
20730 20731 142
20730 20735 170
20730 20760 53
20731 20725 5
20731 20730 142
20731 20733 147
20731 20764 50
20732 20695 55
20732 20615 188
20732 20749 96
20733 20724 8
20733 20731 147
20733 20734 150
20733 20765 60
20734 20728 8
20734 20733 150
20734 20746 27
20735 20730 170
20735 20723 8
20735 20716 123
20735 20759 48
20736 20737 73
20736 20745 73
20736 20767 51
20737 20736 73
20737 20743 41
20738 20674 80
20738 20715 68
20738 20748 74
20738 20774 61
20739 20707 46
20739 20719 75
20739 20744 73
20739 20753 32
20740 20678 82
20740 20720 73
20740 20742 75
20740 20758 34
20741 20719 33
20741 20749 37
20741 20753 78
20742 20704 65
20742 20740 75
20742 20755 78
20742 20782 52
20743 20737 41
20743 20718 78
20743 20767 70
20743 20799 73
20744 20720 36
20744 20739 73
20744 20758 73
20744 20776 44
20745 20691 86
20745 20736 73
20745 20750 65
20745 20785 59
20746 20734 27
20746 20754 17
20747 20722 36
20747 20775 42
20747 20804 181
20748 20702 77
20748 20738 74
20748 20772 76
20748 20791 59
20749 20741 37
20749 20677 109
20749 20732 96
20750 20745 65
20750 20751 64
20750 20793 57
20751 20750 64
20751 20761 77
20751 20794 53
20752 20705 185
20752 20729 42
20752 20754 114
20752 20773 28
20753 20739 32
20753 20741 78
20753 20776 78
20754 20752 114
20754 20746 17
20754 20766 10
20755 20715 63
20755 20742 78
20755 20774 69
20755 20802 52
20756 20716 62
20756 20759 135
20756 20762 191
20756 20844 114
20757 20311 551
20758 20740 34
20758 20744 73
20758 20782 74
20758 20790 40
20759 20735 48
20759 20756 135
20759 20760 179
20759 20803 64
20760 20730 53
20760 20759 179
20760 20764 125
20760 20823 87
20761 20751 77
20761 20771 73
20761 20792 40
20762 20756 191
20762 20713 79
20762 20768 65
20762 20839 113
20763 20764 42
20763 20765 139
20763 20797 55
20764 20763 42
20764 20731 50
20764 20760 125
20764 20796 40
20765 20733 60
20765 20763 139
20765 20766 137
20765 20798 50
20766 20754 10
20766 20765 137
20766 20777 21
20767 20736 51
20767 20743 70
20767 20785 78
20767 20817 71
20768 20762 65
20768 20783 32
20769 20770 194
20769 20770 119
20769 20800 246
20770 20769 194
20770 20769 119
20770 20771 166
20771 20761 73
20771 20770 166
20771 20795 32
20772 20718 77
20772 20748 76
20772 20799 74
20772 20813 58
20773 20722 183
20773 20752 28
20773 20777 113
20773 20804 43
20774 20738 61
20774 20755 69
20774 20791 74
20775 20747 42
20775 20786 16
20775 20827 179
20776 20744 44
20776 20753 78
20776 20790 62
20777 20773 113
20777 20766 21
20777 20801 27
20778 20634 214
20778 20787 125
20778 20820 75
20779 20780 28
20779 20781 56
20779 20820 151
20780 20779 28
20781 20779 56
20782 20742 52
20782 20758 74
20782 20802 77
20782 20810 37
20783 20768 32
20783 20710 116
20783 20577 284
20783 20851 95
20784 20673 152
20784 20709 113
20784 20833 68
20785 20745 59
20785 20767 78
20785 20793 79
20785 20835 67
20786 20775 16
20787 20788 16
20787 20712 136
20787 20778 125
20788 20787 16
20789 20593 287
20789 20841 81
20789 20841 68
20790 20758 40
20790 20776 62
20790 20810 73
20790 20814 31
20791 20748 59
20791 20774 74
20791 20813 68
20791 20831 55
20792 20761 40
20792 20794 73
20792 20795 71
20792 20846 74
20793 20750 57
20793 20785 79
20793 20794 66
20793 20847 74
20794 20751 53
20794 20793 66
20794 20792 73
20794 20849 75
20795 20771 32
20795 20792 71
20795 20800 87
20795 20845 71
20796 20764 40
20796 20797 78
20796 20824 40
20797 20763 55
20797 20796 78
20797 20798 131
20797 20826 56
20798 20765 50
20798 20797 131
20798 20801 129
20798 20829 53
20799 20743 73
20799 20772 74
20799 20817 63
20799 20843 64
20800 20795 87
20800 20769 246
20800 20845 146
20801 20777 27
20801 20798 129
20801 20808 13
20802 20755 52
20802 20782 77
20802 20831 144
20802 21060 1997
20803 20759 64
20803 20805 89
20803 20830 49
20804 20747 181
20804 20773 43
20804 20808 111
20804 20827 36
20805 20803 89
20806 20807 16
20807 20806 16
20807 20811 179
20808 20804 111
20808 20801 13
20808 20828 34
20809 20589 588
20809 20815 97
20809 20842 99
20810 20782 37
20810 20790 73
20811 20812 17
20811 20807 179
20812 20811 17
20813 20772 58
20813 20791 68
20813 20843 81
20813 20854 57
20814 20790 31
20815 20809 97
20815 20816 441
20815 20825 197
20815 20895 216
20816 20815 441
20817 20767 71
20817 20799 63
20817 20835 100
20817 20848 47
20818 20819 53
20819 20818 53
20820 20779 151
20820 20778 75
20820 20838 43
20821 20822 397
20821 20943 983
20822 20821 397
20822 21121 1518
20822 21177 7438
20823 20760 87
20823 20824 143
20823 20857 59
20824 20796 40
20824 20823 143
20824 20826 117
20824 20863 51
20825 20815 197
20826 20797 56
20826 20824 117
20826 20829 123
20826 20864 63
20827 20775 179
20827 20804 36
20827 20828 112
20827 20834 12
20828 20827 112
20828 20808 34
20828 20829 119
20828 20858 42
20829 20828 119
20829 20798 53
20829 20826 123
20829 20865 50
20830 20803 49
20830 20832 122
20830 20850 40
20831 20791 55
20831 20802 144
20831 20854 65
20832 20830 122
20833 20784 68
20833 20937 219
20833 20937 227
20834 20827 12
20834 20859 32
20834 20866 90
20835 20785 67
20835 20817 100
20835 20847 82
20835 20855 26
20836 20837 280
20837 20836 280
20838 20820 43
20838 20861 114
20838 20877 175
20839 20762 113
20839 20840 100
20839 20860 128
20839 20874 54
20840 20839 100
20841 20789 81
20841 20789 68
20841 21017 413
20842 20809 99
20843 20799 64
20843 20813 81
20843 20848 61
20843 20876 51
20844 20756 114
20844 20850 102
20844 20860 17
20845 20800 146
20845 20795 71
20845 20846 67
20846 20845 67
20846 20792 74
20846 20849 76
20846 20887 67
20847 20793 74
20847 20835 82
20847 20849 68
20847 20852 6
20848 20817 47
20848 20843 61
20848 20855 107
20849 20846 76
20849 20794 75
20849 20847 68
20849 20871 37
20850 20830 40
20850 20844 102
20850 20853 7
20850 20856 160
20851 20783 95
20851 20868 31
20851 20894 85
20852 20847 6
20852 20870 38
20852 20888 61
20853 20850 7
20853 20875 33
20854 20813 57
20854 20831 65
20854 20876 80
20855 20835 26
20855 20848 107
20856 20850 160
20856 20857 10
20856 20879 38
20857 20823 59
20857 20856 10
20857 20863 188
20858 20828 42
20858 20862 20
20858 20867 14
20859 20834 32
20859 20885 123
20859 20897 150
20860 20844 17
20860 20839 128
20860 20869 20
20861 20838 114
20862 20858 20
20862 20866 5
20863 20824 51
20863 20857 188
20863 20864 151
20863 20884 38
20864 20826 63
20864 20863 151
20864 20865 103
20864 20883 40
20865 20829 50
20865 20864 103
20865 20867 105
20866 20834 90
20866 20862 5
20866 20873 30
20867 20858 14
20867 20865 105
20867 20873 22
20868 20851 31
20868 20872 10
20868 20874 130
20869 20860 20
20869 20875 103
20869 20889 36
20870 20852 38
20870 20871 59
20870 20911 125
20871 20849 37
20871 20870 59
20871 20878 16
20871 20887 90
20872 20868 10
20872 20880 132
20872 20890 31
20873 20867 22
20873 20866 30
20873 20885 20
20874 20839 54
20874 20868 130
20874 20880 10
20875 20853 33
20875 20869 103
20875 20879 165
20875 20892 50
20876 20843 51
20876 20854 80
20876 20891 134
20877 20838 175
20877 20669 610
20877 21140 1211
20878 20871 16
20879 20856 38
20879 20875 165
20879 20884 198
20879 20899 54
20880 20874 10
20880 20872 132
20880 20889 108
20880 20893 40
20881 20712 507
20881 20882 92
20881 20886 19
20881 20900 98
20882 20881 92
20883 20864 40
20883 20884 163
20883 20885 201
20883 20896 52
20884 20883 163
20884 20863 38
20884 20879 198
20884 20898 45
20885 20859 123
20885 20873 20
20885 20883 201
20885 20897 40
20886 20881 19
20887 20846 67
20887 20871 90
20887 20908 76
20888 20852 61
20888 20891 117
20889 20869 36
20889 20880 108
20889 20892 117
20889 20903 54
20890 20872 31
20890 20893 132
20890 20894 29
20891 20888 117
20891 20876 134
20891 20911 233
20892 20875 50
20892 20889 117
20892 20899 166
20892 20912 56
20893 20880 40
20893 20890 132
20893 20903 111
20894 20890 29
20894 20851 85
20894 20935 107
20895 20815 216
20895 20901 29
20895 20902 100
20896 20883 52
20896 20897 169
20896 20898 195
20896 20914 62
20897 20859 150
20897 20885 40
20897 20896 169
20897 20913 49
20898 20896 195
20898 20884 45
20898 20899 189
20898 20918 61
20899 20898 189
20899 20879 54
20899 20892 166
20899 20921 60
20900 20881 98
20900 20902 18
20900 20904 12
20901 20895 29
20902 20900 18
20902 20895 100
20902 20909 20
20903 20889 54
20903 20893 111
20903 20912 133
20903 20923 50
20904 20900 12
20905 20906 82
20906 20905 82
20906 20926 80
20906 20938 76
20907 20311 1729
20908 20887 76
20908 20911 105
20908 20922 44
20909 20902 20
20909 20910 21
20909 20916 16
20910 20909 21
20911 20870 125
20911 20908 105
20911 20891 233
20912 20892 56
20912 20903 133
20912 20921 162
20912 20936 55
20913 20897 49
20913 20914 136
20913 20929 55
20914 20913 136
20914 20896 62
20914 20915 92
20914 20940 52
20915 20914 92
20915 20918 139
20915 20941 50
20916 20909 16
20916 20917 5
20916 20924 48
20916 20925 33
20917 20916 5
20918 20915 139
20918 20898 61
20918 20921 181
20918 20942 44
20919 20920 292
20919 20928 29
20919 20934 34
20920 20919 292
20921 20918 181
20921 20899 60
20921 20912 162
20921 20944 46
20922 20908 44
20923 20903 50
20923 20936 136
20923 20946 47
20924 20916 48
20925 20916 33
20926 20906 80
20926 20927 68
20926 20938 35
20927 20926 68
20928 20919 29
20928 20934 21
20928 20952 198
20929 20913 55
20929 20939 18
20929 20947 52
20930 20931 952
20930 20992 6384
20931 20930 952
20932 20933 45
20932 20947 34
20933 20932 45
20934 20919 34
20934 20928 21
20934 20991 1230
20935 20894 107
20935 20937 10
20935 20960 76
20936 20912 55
20936 20923 136
20936 20944 172
20936 20951 42
20937 20935 10
20937 20833 219
20937 20833 227
20937 20959 72
20938 20906 76
20938 20926 35
20938 20948 95
20939 20929 18
20939 20940 79
20939 20945 21
20940 20939 79
20940 20914 52
20940 20941 100
20940 20950 38
20941 20940 100
20941 20915 50
20941 20953 41
20942 20918 44
20942 20944 172
20942 20954 44
20943 20821 983
20944 20942 172
20944 20921 46
20944 20936 172
20944 20957 53
20945 20939 21
20945 20956 52
20945 20963 79
20946 20923 47
20946 20951 131
20946 20958 50
20947 20932 34
20947 20929 52
20947 20956 39
20948 20949 300
20948 20938 95
20948 20967 66
20949 20948 300
20950 20940 38
20950 20953 101
20950 20963 39
20951 20936 42
20951 20946 131
20951 20957 197
20951 20964 42
20952 20928 198
20953 20950 101
20953 20941 41
20953 20965 39
20954 20942 44
20954 20957 155
20954 20974 48
20955 20518 691
20955 23865 691
20955 21568 61
20956 20947 39
20956 20945 52
20956 20975 96
20957 20954 155
20957 20944 53
20957 20951 197
20957 20966 34
20958 20946 50
20958 20964 128
20958 20960 231
20958 20978 43
20959 20937 72
20959 20960 10
20959 21053 187
20960 20935 76
20960 20959 10
20960 20958 231
20960 21052 186
20961 20962 52
20962 20961 52
20962 20971 228
20963 20945 79
20963 20950 39
20963 20965 104
20963 20975 25
20964 20951 42
20964 20958 128
20964 20981 35
20965 20963 104
20965 20953 39
20965 20976 24
20966 20957 34
20966 20974 133
20966 21016 109
20967 20948 66
20967 20997 66
20968 20969 142
20968 20972 7
20968 21023 126
20969 20968 142
20969 21034 148
20970 20971 45
20971 20970 45
20971 20962 228
20971 20986 52
20971 20990 95
20972 20968 7
20973 20717 475
20973 21362 43
20974 20954 48
20974 20966 133
20974 21008 81
20975 20956 96
20975 20963 25
20975 20982 23
20976 20965 24
20976 20985 23
20976 21008 158
20977 20582 780
20977 21171 709
20978 20958 43
20978 20981 117
20978 20998 47
20979 20980 549
20979 20996 76
20979 21091 437
20980 20979 549
20981 20964 35
20981 20978 117
20981 21001 42
20982 20975 23
20982 20983 36
20982 21039 120
20983 20982 36
20983 20984 43
20983 21039 109
20984 20983 43
20984 20985 41
20984 21069 169
20985 20984 41
20985 20976 23
20985 21010 52
20986 20971 52
20986 20987 88
20986 21002 111
20986 21005 45
20987 20986 88
20988 20989 48
20988 20997 53
20988 21004 35
20989 20988 48
20989 20990 18
20990 20989 18
20990 20971 95
20990 21002 23
20991 20992 46
20991 21012 57
20991 20934 1230
20992 20991 46
20992 21012 61
20992 20930 6384
20993 20994 77
20993 20995 12
20994 20993 77
20995 20993 12
20995 21005 102
20995 21013 41
20996 20979 76
20997 20967 66
20997 20988 53
20997 21003 48
20997 21027 71
20998 20978 47
20998 20999 39
20998 21047 90
20999 20998 39
20999 21000 33
20999 21046 87
21000 20999 33
21000 21001 40
21000 21045 86
21001 20981 42
21001 21000 40
21001 21044 84
21002 20990 23
21002 20986 111
21002 21004 49
21002 21018 39
21003 20997 48
21003 21017 86
21003 21037 66
21004 20988 35
21004 21002 49
21004 21020 41
21005 20986 45
21005 20995 102
21005 21011 44
21005 21021 43
21006 21007 25
21006 21009 90
21006 21031 45
21007 21006 25
21008 20976 158
21008 20974 81
21008 21022 126
21008 21035 48
21009 21006 90
21009 21024 33
21010 20985 52
21010 21035 138
21010 21038 53
21011 21005 44
21011 21018 68
21011 21030 39
21012 20991 57
21012 20992 61
21012 21168 1385
21013 20995 41
21013 21014 95
21013 21021 92
21013 21048 72
21014 21013 95
21015 21016 33
21016 21015 33
21016 20966 109
21016 21022 23
21017 20841 413
21017 21003 86
21017 21043 66
21018 21002 39
21018 21011 68
21018 21019 31
21018 21056 78
21019 21018 31
21019 21020 23
21019 21064 84
21020 21004 41
21020 21019 23
21020 21027 48
21020 21068 88
21021 21005 43
21021 21013 92
21021 21030 58
21021 21042 33
21022 21008 126
21022 21016 23
21022 21023 42
21022 21051 51
21023 21022 42
21023 20968 126
21023 21036 62
21024 21009 33
21024 21031 91
21025 21026 70
21026 21025 70
21026 21032 36
21026 21036 11
21027 20997 71
21027 21020 48
21027 21037 52
21027 21075 96
21028 21029 59
21028 21032 40
21028 21034 35
21029 21028 59
21030 21011 39
21030 21021 58
21031 21024 91
21031 21006 45
21031 21055 45
21032 21026 36
21032 21033 66
21032 21028 40
21032 21040 14
21033 21032 66
21034 21028 35
21034 20969 148
21034 21041 17
21035 21010 138
21035 21008 48
21035 21051 127
21035 21054 42
21036 21023 62
21036 21026 11
21036 21040 37
21037 21003 66
21037 21027 52
21037 21043 54
21037 21061 53
21038 21010 53
21038 21054 134
21038 21074 80
21039 20982 120
21039 20983 109
21039 21069 68
21040 21036 37
21040 21032 14
21040 21041 77
21040 21063 49
21041 21040 77
21041 21034 17
21041 21044 38
21042 21021 33
21042 21056 122
21042 21062 44
21043 21017 66
21043 21037 54
21043 21066 59
21044 21041 38
21044 21001 84
21044 21045 39
21044 21065 47
21045 21044 39
21045 21000 86
21045 21046 32
21046 21045 32
21046 20999 87
21046 21047 39
21047 21046 39
21047 20998 90
21047 21055 175
21047 21070 50
21048 21013 72
21048 21059 19
21048 21062 82
21049 21050 107
21049 21052 15
21049 21055 44
21050 21049 107
21051 21035 127
21051 21022 51
21051 21063 159
21051 21071 46
21052 21049 15
21052 20960 186
21052 21053 11
21052 21076 55
21053 21052 11
21053 20959 187
21053 21114 192
21054 21038 134
21054 21035 42
21054 21071 129
21054 21086 91
21055 21047 175
21055 21031 45
21055 21049 44
21056 21018 78
21056 21042 122
21056 21064 33
21056 21073 37
21057 21058 471
21057 21082 75
21057 21138 654
21058 21057 471
21059 21048 19
21060 20802 1997
21061 21037 53
21061 21066 28
21062 21042 44
21062 21048 82
21062 21077 40
21062 21080 125
21063 21051 159
21063 21040 49
21063 21065 106
21063 21081 60
21064 21019 84
21064 21056 33
21064 21068 30
21065 21063 106
21065 21044 47
21065 21067 62
21065 21085 60
21066 21043 59
21066 21061 28
21066 21079 56
21067 21065 62
21067 21070 50
21067 21109 131
21068 21020 88
21068 21064 30
21068 21075 47
21069 21039 68
21069 20984 169
21069 21074 49
21070 21067 50
21070 21047 50
21070 21072 67
21070 21110 131
21071 21054 129
21071 21051 46
21071 21098 87
21072 21070 67
21072 21076 166
21072 21111 130
21073 21056 37
21073 21078 50
21073 21080 36
21074 21069 49
21074 21038 80
21074 21086 134
21075 21027 96
21075 21068 47
21075 21079 62
21075 21087 46
21076 21072 166
21076 21052 55
21076 21089 48
21077 21062 40
21077 21097 121
21078 21073 50
21078 21087 66
21078 21088 35
21079 21066 56
21079 21075 62
21079 21095 49
21080 21073 36
21080 21062 125
21080 21088 44
21080 21097 43
21081 21063 60
21081 21085 107
21081 21093 27
21082 21057 75
21082 21083 66
21082 21094 24
21083 21082 66
21083 21084 552
21083 21092 19
21084 21083 552
21085 21081 107
21085 21065 60
21085 21096 29
21086 21054 91
21086 21074 134
21086 21098 119
21087 21075 46
21087 21078 66
21087 21095 40
21087 21101 35
21088 21078 35
21088 21080 44
21088 21101 75
21089 21090 132
21089 21076 48
21089 21100 27
21090 21089 132
21091 20979 437
21091 21337 2714
21092 21083 19
21092 21094 57
21092 21286 769
21093 21081 27
21093 21096 106
21093 21104 39
21094 21082 24
21094 21092 57
21094 21285 762
21095 21079 49
21095 21087 40
21095 21103 33
21096 21093 106
21096 21085 29
21096 21107 40
21097 21080 43
21097 21077 121
21097 21102 41
21098 21086 119
21098 21071 87
21098 21104 193
21099 21100 120
21100 21099 120
21100 21089 27
21100 21106 23
21101 21087 35
21101 21088 75
21101 21103 23
21102 21097 41
21102 21112 69
21102 21115 70
21103 21095 33
21103 21101 23
21103 21108 34
21104 21098 193
21104 21093 39
21104 21107 107
21104 21117 54
21105 21106 129
21106 21105 129
21106 21100 23
21106 21113 39
21107 21104 107
21107 21096 40
21107 21109 63
21107 21120 50
21108 21103 34
21108 21112 28
21108 21184 347
21109 21107 63
21109 21067 131
21109 21110 52
21109 21131 75
21110 21109 52
21110 21070 131
21110 21111 69
21110 21155 126
21111 21110 69
21111 21072 130
21111 21113 161
21111 21145 105
21112 21108 28
21112 21102 69
21112 21199 460
21113 21111 161
21113 21106 39
21113 21153 101
21114 21053 192
21114 21202 303
21114 21202 401
21115 21102 70
21116 21117 167
21117 21116 167
21117 21104 54
21117 21118 16
21118 21117 16
21118 21119 42
21118 21144 73
21119 21118 42
21119 21120 45
21119 21146 75
21120 21119 45
21120 21107 50
21120 21130 31
21121 20822 1518
21121 21154 233
21121 21215 869
21122 21123 147
21123 21122 147
21123 21126 431
21123 21127 91
21124 21125 18
21124 21139 98
21124 21163 129
21125 21124 18
21126 21123 431
21127 21123 91
21128 21129 60
21128 21272 2495
21129 21128 60
21130 21120 31
21130 21131 60
21130 21149 46
21131 21130 60
21131 21109 75
21131 21152 50
21132 21133 113
21133 21132 113
21134 21135 98
21134 21142 38
21135 21134 98
21135 21139 103
21135 21151 41
21136 21137 100
21137 21136 100
21138 21057 654
21138 21150 88
21138 21150 206
21139 21135 103
21139 21124 98
21139 21157 45
21140 20877 1211
21140 21148 179
21140 21172 131
21141 21142 297
21142 21141 297
21142 21134 38
21142 21151 98
21142 21158 45
21143 21144 113
21144 21143 113
21144 21118 73
21144 21146 44
21144 21173 109
21145 21111 105
21145 21147 62
21145 21156 22
21146 21144 44
21146 21119 75
21146 21149 49
21147 21145 62
21147 21153 101
21147 21161 50
21148 21140 179
21149 21146 49
21149 21130 46
21149 21152 56
21149 21176 106
21150 21138 88
21150 21138 206
21150 21214 635
21151 21142 98
21151 21135 41
21151 21157 104
21151 21159 43
21152 21149 56
21152 21131 50
21152 21155 51
21152 21178 106
21153 21147 101
21153 21113 101
21153 21191 150
21154 21121 233
21155 21152 51
21155 21110 126
21155 21156 68
21155 21180 106
21156 21155 68
21156 21145 22
21156 21160 30
21157 21151 104
21157 21139 45
21157 21163 45
21157 21164 43
21158 21142 45
21158 21159 96
21159 21158 96
21159 21151 43
21159 21164 106
21160 21156 30
21160 21161 64
21160 21182 75
21161 21160 64
21161 21147 50
21161 21189 101
21162 20541 1488
21162 21168 128
21162 21171 69
21163 21157 45
21163 21124 129
21163 21164 36
21163 21179 59
21164 21159 106
21164 21157 43
21164 21163 36
21165 21166 64
21165 21167 147
21165 21192 477
21166 21165 64
21166 21175 99
21166 21181 177
21167 21165 147
21167 21172 145
21167 21187 65
21168 21162 128
21168 21177 49
21168 21012 1385
21169 21170 172
21170 21169 172
21171 20977 709
21171 21162 69
21171 21177 116
21172 21140 131
21172 21167 145
21172 21209 229
21173 21144 109
21173 21174 30
21174 21173 30
21174 21176 57
21174 21186 49
21175 21166 99
21176 21174 57
21176 21149 106
21176 21178 58
21176 21185 28
21177 21168 49
21177 21171 116
21177 20822 7438
21178 21176 58
21178 21152 106
21178 21180 49
21178 21196 52
21179 21163 59
21179 21183 46
21180 21178 49
21180 21155 106
21180 21182 67
21180 21197 52
21181 21166 177
21182 21180 67
21182 21160 75
21182 21188 26
21183 21179 46
21183 21195 424
21183 21200 336
21184 21108 347
21185 21176 28
21185 21196 73
21185 21201 69
21186 21174 49
21186 21200 63
21187 21167 65
21188 21182 26
21188 21189 67
21188 21198 27
21189 21188 67
21189 21161 101
21189 21190 46
21190 21189 46
21190 21191 56
21190 21203 69
21191 21190 56
21191 21153 150
21191 21204 74
21192 21165 477
21193 21194 676
21194 21193 676
21194 21205 423
21195 21183 424
21196 21185 73
21196 21178 52
21196 21197 48
21197 21196 48
21197 21180 52
21197 21198 68
21198 21197 68
21198 21188 27
21198 21203 118
21199 21112 460
21199 21210 197
21199 21435 1370
21200 21183 336
21200 21186 63
21200 21201 10
21200 21267 360
21201 21200 10
21201 21185 69
21201 21252 326
21202 21114 303
21202 21114 401
21202 21388 631
21203 21198 118
21203 21190 69
21203 21204 56
21204 21203 56
21204 21191 74
21204 21279 341
21205 21194 423
21205 21211 1105
21206 21212 88
21207 21208 85
21207 21220 96
21208 21207 85
21208 18371 4636
21209 21172 229
21209 21211 32
21209 21213 109
21210 21199 197
21211 21205 1105
21211 21209 32
21211 21213 61
21212 21206 88
21212 21217 65
21213 21211 61
21213 21209 109
21213 21275 228
21214 21150 635
21214 21231 187
21214 21269 359
21215 21216 31
21215 21121 869
21215 21269 193
21216 21215 31
21217 21212 65
21217 21218 48
21217 21230 158
21218 21217 48
21218 21226 47
21218 21242 162
21219 21220 100
21219 21236 145
21219 21236 144
21220 21219 100
21220 21207 96
21221 21222 436
21221 21222 462
21221 21305 214
21222 21221 436
21222 21221 462
21222 21254 947
21223 21224 19
21223 21253 146
21224 21223 19
21224 21225 10
21224 21228 126
21225 21224 10
21225 21227 16
21226 21218 47
21226 21241 84
21226 21302 172
21226 21309 268
21227 21225 16
21227 21234 31
21227 21261 129
21228 21224 126
21228 21229 25
21228 21287 140
21229 21228 25
21230 21217 158
21230 21242 41
21231 21214 187
21231 21235 164
21231 21245 39
21231 21330 433
21232 21233 196
21233 21232 196
21233 21254 124
21233 21319 199
21234 21227 31
21234 21265 89
21235 21231 164
21236 21219 145
21236 21219 144
21236 21240 7
21237 21238 22
21238 21237 22
21238 21239 30
21238 21243 41
21238 21266 44
21239 21238 30
21240 21236 7
21240 21272 1307
21240 21939 1627
21241 21226 84
21241 21271 78
21241 21301 121
21242 21230 41
21242 21218 162
21242 21271 54
21243 21238 41
21243 21244 30
21243 21273 52
21244 21243 30
21245 21231 39
21246 21247 68
21246 21250 44
21246 21278 53
21247 21246 68
21248 21249 89
21248 21250 47
21248 21310 131
21249 21248 89
21250 21248 47
21250 21251 88
21250 21246 44
21250 21299 107
21251 21250 88
21252 21201 326
21252 21268 42
21252 21270 35
21253 21223 146
21253 21258 26
21253 21300 105
21254 21222 947
21254 21233 124
21254 21305 131
21255 21256 19
21256 21255 19
21256 21257 54
21256 21274 38
21257 21256 54
21258 21253 26
21258 21261 26
21258 21284 56
21259 21260 23
21259 21274 77
21260 21259 23
21261 21258 26
21261 21227 129
21261 21262 11
21262 21261 11
21262 21265 37
21262 21288 63
21263 21264 183
21263 21278 44
21263 21290 75
21264 21263 183
21264 21281 41
21264 21369 293
21265 21262 37
21265 21234 89
21265 21297 79
21266 21238 44
21266 21273 33
21266 21311 109
21267 21200 360
21267 21270 9
21267 21338 210
21268 21252 42
21268 21270 38
21268 21279 309
21268 21280 48
21269 21215 193
21269 21214 359
21269 21330 166
21270 21267 9
21270 21252 35
21270 21268 38
21270 21280 21
21271 21242 54
21271 21241 78
21271 21301 103
21272 21240 1307
21272 21128 2495
21273 21266 33
21273 21243 52
21274 21256 38
21274 21259 77
21274 21281 30
21274 21289 41
21275 21213 228
21275 21295 79
21275 21336 155
21276 21277 27
21276 21289 73
21277 21276 27
21278 21246 53
21278 21263 44
21278 21299 74
21279 21268 309
21279 21204 341
21279 21334 132
21280 21270 21
21280 21268 48
21280 21340 188
21281 21264 41
21281 21274 30
21281 21294 44
21282 21283 42
21283 21282 42
21284 21258 56
21285 21094 762
21285 21380 306
21286 21092 769
21286 21370 282
21287 21228 140
21287 21365 224
21288 21262 63
21289 21274 41
21289 21276 73
21289 21294 32
21289 21306 41
21290 21263 75
21290 21291 48
21290 21312 141
21291 21290 48
21292 21293 26
21292 21306 72
21293 21292 26
21294 21281 44
21294 21289 32
21294 21326 78
21295 21275 79
21295 21296 158
21295 21322 84
21296 21295 158
21297 21265 79
21298 18106 6821
21298 20414 3286
21298 22629 5494
21299 21250 107
21299 21278 74
21299 21310 55
21300 21253 105
21300 21367 287
21301 21271 103
21301 21241 121
21301 21302 51
21302 21301 51
21302 21226 172
21302 21309 48
21303 21304 23
21303 21316 78
21303 21335 71
21304 21303 23
21305 21254 131
21305 21221 214
21305 21349 117
21306 21289 41
21306 21292 72
21306 21316 34
21307 21308 140
21308 21307 140
21309 21302 48
21309 21226 268
21309 21310 54
21310 21309 54
21310 21248 131
21310 21299 55
21311 21266 109
21311 21315 94
21311 21339 77
21311 21382 406
21312 21290 141
21313 21314 34
21313 21341 82
21314 21313 34
21314 21327 54
21314 21333 50
21315 21311 94
21315 21358 125
21316 21306 34
21316 21303 78
21316 21326 27
21317 21318 48
21317 21320 31
21317 21324 37
21318 21317 48
21319 21233 199
21319 21342 94
21319 21389 179
21320 21317 31
21320 21321 54
21320 21341 38
21320 21347 104
21321 21320 54
21322 21295 84
21322 21323 95
21322 21336 36
21323 21322 95
21324 21325 78
21324 21317 37
21324 21335 44
21325 21324 78
21326 21294 78
21326 21316 27
21326 21350 74
21327 21314 54
21327 21344 40
21328 21329 731
21329 21328 731
21329 21357 84
21330 21269 166
21330 21231 433
21330 21406 206
21331 21332 19
21332 21331 19
21332 21355 127
21332 21363 109
21333 21314 50
21333 21344 55
21333 21351 55
21334 21279 132
21334 21376 194
21334 21386 134
21335 21303 71
21335 21324 44
21335 21345 47
21336 21275 155
21336 21322 36
21336 21546 805
21337 21091 2714
21338 21267 210
21338 21343 23
21338 21348 27
21339 21311 77
21340 21280 188
21340 21416 180
21341 21320 38
21341 21313 82
21341 21353 45
21341 21354 106
21342 21319 94
21342 21349 109
21342 21394 190
21343 21338 23
21343 21348 21
21343 21375 141
21344 21333 55
21344 21327 40
21344 21375 112
21345 21335 47
21345 21350 47
21345 21352 34
21346 21347 22
21347 21346 22
21347 21320 104
21347 21352 41
21347 21354 33
21348 21343 21
21348 21338 27
21348 21417 156
21349 21305 117
21349 21342 109
21349 21394 304
21350 21326 74
21350 21345 47
21350 21359 30
21351 21333 55
21351 21356 47
21351 21372 64
21352 21345 34
21352 21347 41
21352 21360 33
21353 21341 45
21353 21366 87
21353 21372 56
21354 21347 33
21354 21341 106
21354 21360 40
21354 21366 37
21355 21332 127
21356 21351 47
21357 21329 84
21357 21368 128
21357 21397 82
21358 21315 125
21358 21365 23
21358 21381 62
21359 21350 30
21359 21364 54
21359 21369 50
21360 21352 33
21360 21354 40
21360 21364 13
21361 21362 1311
21361 21373 34
21361 21374 43
21362 21361 1311
21362 20973 43
21363 21332 109
21364 21359 54
21364 21360 13
21364 21378 40
21365 21287 224
21365 21358 23
21365 21367 5
21366 21354 37
21366 21353 87
21366 21378 72
21366 21383 40
21367 21300 287
21367 21365 5
21367 21435 152
21368 21357 128
21369 21264 293
21369 21359 50
21369 21392 116
21370 21371 796
21370 21286 282
21371 21370 796
21372 21353 56
21372 21351 64
21372 21377 45
21372 21390 59
21372 21404 57
21373 21361 34
21373 21374 37
21373 21389 117
21374 21373 37
21374 21361 43
21374 21577 335
21375 21344 112
21375 21343 141
21375 21377 7
21376 21334 194
21376 21384 90
21376 21529 226
21377 21372 45
21377 21375 7
21377 21404 58
21378 21364 40
21378 21366 72
21378 21387 136
21378 21415 58
21379 21380 814
21380 21379 814
21380 21285 306
21381 21358 62
21382 21311 406
21382 21433 152
21383 21366 40
21384 21376 90
21384 21385 27
21384 21386 45
21385 21384 27
21386 21384 45
21386 21334 134
21386 21388 7
21386 21440 105
21387 21378 136
21387 21391 39
21387 21428 79
21388 21386 7
21388 21202 631
21388 21412 158
21388 21480 145
21389 21319 179
21389 21394 15
21389 21373 117
21390 21372 59
21390 21405 34
21390 21415 97
21391 21387 39
21391 21392 28
21391 21434 81
21392 21369 116
21392 21391 28
21392 21393 27
21392 21431 69
21393 21392 27
21393 21395 17
21393 21425 57
21394 21342 190
21394 21389 15
21394 21349 304
21395 21393 17
21395 21396 21
21395 21429 57
21396 21395 21
21396 21398 19
21396 21426 53
21397 21357 82
21397 21399 105
21397 21499 171
21398 21396 19
21398 21400 25
21398 21432 59
21399 21397 105
21399 21468 156
21400 21398 25
21400 21403 25
21400 21427 50
21401 21402 74
21402 21401 74
21402 21422 41
21403 21400 25
21404 21372 57
21404 21377 58
21404 21420 24
21405 21390 34
21406 21330 206
21406 21424 276
21406 21654 391
21407 21408 33
21407 21409 50
21407 21411 31
21408 21407 33
21409 21407 50
21409 21410 35
21409 21444 60
21410 21409 35
21411 21407 31
21412 21388 158
21412 21430 84
21412 21439 55
21413 21414 32
21413 21418 43
21413 21455 210
21414 21413 32
21415 21378 58
21415 21390 97
21415 21418 42
21415 21421 112
21415 21436 47
21416 21340 180
21416 21417 9
21416 21525 153
21417 21348 156
21417 21416 9
21417 21423 51
21417 21463 74
21418 21413 43
21418 21419 42
21418 21415 42
21419 21418 42
21420 21404 24
21420 21421 22
21420 21422 63
21421 21415 112
21421 21420 22
21422 21420 63
21422 21402 41
21422 21423 53
21422 21466 73
21423 21422 53
21423 21417 51
21423 21449 51
21424 21406 276
21425 21393 57
21426 21396 53
21427 21400 50
21428 21387 79
21429 21395 57
21430 21412 84
21430 21438 104
21430 21458 48
21431 21392 69
21432 21398 59
21433 21382 152
21433 21453 49
21433 21468 81
21434 21391 81
21435 21367 152
21435 21467 90
21435 21199 1370
21436 21415 47
21436 21437 76
21436 21484 60
21437 21436 76
21438 21430 104
21438 21462 87
21438 21491 68
21439 21412 55
21439 21447 33
21439 21493 63
21440 21386 105
21440 21444 48
21440 21481 45
21441 21442 36
21441 21443 17
21441 21444 63
21442 21441 36
21443 21441 17
21444 21441 63
21444 21409 60
21444 21440 48
21444 21459 19
21445 21446 65
21446 21445 65
21446 21465 40
21447 21439 33
21447 21448 14
21447 21498 63
21448 21447 14
21449 21423 51
21450 21451 20
21450 21452 199
21451 21450 20
21451 21477 47
21452 21450 199
21453 21433 49
21453 21456 6
21453 21505 92
21454 21455 62
21455 21454 62
21455 21413 210
21455 21469 61
21455 21503 65
21456 21453 6
21456 21457 57
21456 21464 13
21457 21456 57
21458 21430 48
21458 21472 38
21458 21510 68
21459 21444 19
21459 21479 36
21460 21461 19
21460 21474 28
21460 21508 67
21461 21460 19
21462 21438 87
21462 21517 110
21462 21523 84
21463 21417 74
21463 21466 108
21463 21496 40
21464 21456 13
21465 21446 40
21465 21485 115
21465 21555 104
21466 21422 73
21466 21463 108
21466 21495 37
21467 21435 90
21467 21508 90
21467 21550 102
21468 21433 81
21468 21399 156
21468 21490 45
21468 21505 47
21469 21455 61
21469 21482 11
21470 21471 95
21470 21502 33
21471 21470 95
21472 21458 38
21472 21473 40
21472 21491 51
21473 21472 40
21474 21460 28
21474 21486 27
21474 21519 66
21475 21476 40
21476 21475 40
21476 21499 74
21476 21518 59
21477 21478 15
21477 21451 47
21478 21477 15
21479 21459 36
21479 21494 21
21480 21388 145
21480 21481 10
21480 21493 148
21480 21561 202
21481 21440 45
21481 21480 10
21481 21551 78
21481 21567 206
21482 21469 11
21482 21483 66
21482 21492 16
21483 21482 66
21484 21436 60
21484 21489 100
21484 21537 50
21485 21465 115
21486 21474 27
21486 21506 27
21486 21548 67
21487 21488 21
21487 21522 63
21488 21487 21
21489 21484 100
21489 21502 55
21489 21542 48
21490 21468 45
21490 21509 39
21490 21521 53
21491 21472 51
21491 21438 68
21491 21512 56
21491 21594 119
21492 21482 16
21492 21501 68
21492 21511 22
21493 21480 148
21493 21439 63
21493 21498 29
21494 21479 21
21494 21497 50
21494 21520 34
21495 21466 37
21495 21496 108
21495 21533 39
21496 21495 108
21496 21463 40
21496 21526 38
21497 21494 50
21498 21493 29
21498 21447 63
21498 21510 33
21499 21476 74
21499 21397 171
21499 21500 128
21499 21552 62
21500 21499 128
21501 21492 68
21502 21470 33
21502 21489 55
21502 21504 2
21503 21455 65
21503 21504 90
21503 21514 22
21504 21503 90
21504 21502 2
21504 21540 38
21505 21453 92
21505 21468 47
21505 21507 5
21506 21486 27
21506 21557 66
21507 21505 5
21507 21521 34
21507 21522 35
21508 21467 90
21508 21460 67
21508 21519 30
21509 21490 39
21509 21518 39
21509 21565 61
21510 21498 33
21510 21458 68
21510 21561 61
21511 21492 22
21511 21515 84
21511 21539 21
21512 21491 56
21512 21513 62
21512 21523 32
21513 21512 62
21514 21503 22
21514 21516 70
21514 21544 21
21515 21511 84
21516 21514 70
21517 21462 110
21517 21574 57
21518 21509 39
21518 21476 59
21518 21552 71
21518 21580 62
21519 21508 30
21519 21474 66
21519 21548 30
21520 21494 34
21520 21524 67
21520 21547 17
21521 21507 34
21521 21490 53
21521 21543 13
21522 21487 63
21522 21507 35
21522 21557 41
21523 21512 32
21523 21462 84
21523 21574 104
21523 21612 123
21524 21520 67
21525 21416 153
21525 21526 9
21525 21598 116
21526 21527 52
21526 21496 38
21526 21525 9
21526 21599 113
21527 21526 52
21527 21530 41
21527 21570 40
21528 21529 71
21528 21572 44
21529 21528 71
21529 21376 226
21529 21547 84
21529 21578 52
21530 21527 41
21530 21533 15
21530 21597 71
21531 21532 35
21531 21535 38
21531 21600 73
21532 21531 35
21532 21537 29
21532 21592 64
21533 21534 21
21533 21495 39
21533 21530 15
21534 21533 21
21534 21536 34
21534 21595 66
21535 21531 38
21535 21536 36
21535 21596 68
21536 21535 36
21536 21534 34
21536 21591 64
21537 21484 50
21537 21532 29
21537 21538 86
21537 21554 27
21538 21537 86
21538 21542 16
21538 21589 62
21539 21511 21
21539 21541 89
21539 21558 24
21540 21504 38
21540 21544 83
21540 21545 26
21540 21560 27
21541 21539 89
21542 21489 48
21542 21538 16
21542 21545 25
21542 21585 53
21543 21521 13
21543 21565 45
21543 21607 111
21544 21514 21
21544 21540 83
21545 21540 26
21545 21542 25
21545 21586 50
21546 21336 805
21546 22060 22
21547 21529 84
21547 21520 17
21547 21551 77
21547 21587 50
21548 21519 30
21548 21486 67
21548 21579 58
21549 21550 113
21550 21549 113
21550 21467 102
21550 21559 64
21550 21624 135
21551 21547 77
21551 21481 78
21551 21629 129
21552 21518 71
21552 21499 62
21552 21605 67
21553 21554 67
21554 21553 67
21554 21537 27
21554 21576 22
21555 21465 104
21555 21556 54
21555 21697 247
21556 21555 54
21557 21506 66
21557 21522 41
21557 21579 40
21558 21539 24
21558 21564 77
21559 21550 64
21559 21562 34
21559 21631 134
21560 21540 27
21560 21563 76
21560 21584 24
21561 21480 202
21561 21510 61
21561 21567 11
21561 21594 89
21562 21559 34
21562 21566 36
21562 21630 129
21563 21560 76
21564 21558 77
21565 21543 45
21565 21509 61
21565 21580 48
21565 21621 120
21566 21562 36
21566 21582 147
21566 21633 128
21567 21481 206
21567 21561 11
21567 21601 92
21567 21627 108
21568 21569 1705
21568 20955 61
21569 21568 1705
21569 21934 43
21570 21527 40
21570 21573 75
21570 21603 38
21571 21572 78
21572 21571 78
21572 21528 44
21572 21578 72
21572 21606 44
21573 21570 75
21574 21523 104
21574 21517 57
21574 21608 52
21575 21576 63
21576 21575 63
21576 21554 22
21576 21588 17
21577 21374 335
21577 21928 44
21578 21572 72
21578 21529 52
21578 21587 83
21578 21610 41
21579 21548 58
21579 21557 40
21579 21607 54
21579 21620 75
21580 21565 48
21580 21518 62
21580 21605 65
21581 21582 117
21582 21581 117
21582 21566 147
21582 21615 64
21583 21584 49
21584 21583 49
21584 21560 24
21585 21542 53
21586 21545 50
21587 21578 83
21587 21547 50
21587 21611 40
21588 21576 17
21588 21590 50
21589 21538 62
21590 21588 50
21591 21536 64
21592 21532 64
21592 21593 31
21593 21592 31
21594 21561 89
21594 21491 119
21594 21601 10
21594 21612 88
21595 21534 66
21596 21535 68
21597 21530 71
21598 21525 116
21598 21606 112
21598 21614 47
21599 21526 113
21599 21618 48
21600 21531 73
21600 21602 30
21601 21567 92
21601 21594 10
21601 21613 89
21601 21644 118
21602 21600 30
21603 21570 38
21603 21604 82
21604 21603 82
21605 21580 65
21605 21552 67
21605 21692 185
21606 21598 112
21606 21572 44
21606 21610 71
21606 21619 43
21607 21579 54
21607 21543 111
21607 21621 53
21608 21609 61
21608 21574 52
21608 21622 41
21609 21608 61
21610 21606 71
21610 21578 41
21610 21611 79
21610 21626 44
21611 21610 79
21611 21587 40
21611 21628 43
21612 21594 88
21612 21523 123
21612 21613 8
21612 21632 109
21613 21601 89
21613 21612 8
21613 21637 109
21613 21670 118
21614 21598 47
21614 21618 10
21614 21619 100
21614 21643 63
21615 21582 64
21615 21634 127
21616 21617 145
21617 21616 145
21617 21635 129
21617 21639 68
21618 21599 48
21618 21614 10
21618 21625 78
21618 21645 63
21619 21614 100
21619 21606 43
21619 21626 79
21619 21638 47
21620 21579 75
21621 21607 53
21621 21565 120
21621 21692 171
21622 21623 39
21622 21608 41
21622 21632 36
21623 21622 39
21624 21550 135
21625 21618 78
21626 21619 79
21626 21610 44
21626 21628 80
21626 21655 58
21627 21567 108
21627 21641 46
21627 21644 89
21628 21626 80
21628 21611 43
21628 21629 77
21628 21662 59
21629 21628 77
21629 21551 129
21629 21668 69
21630 21562 129
21631 21559 134
21632 21612 109
21632 21622 36
21632 21637 10
21632 21737 243
21633 21566 128
21634 21615 127
21635 21617 129
21635 21636 39
21635 21646 21
21636 21635 39
21637 21613 109
21637 21632 10
21637 21656 29
21637 21672 76
21638 21619 47
21638 21643 83
21638 21655 79
21639 21640 69
21639 21617 68
21639 21659 24
21640 21639 69
21641 21642 96
21641 21627 46
21641 21684 75
21642 21641 96
21643 21614 63
21643 21638 83
21643 21645 13
21643 21680 64
21644 21627 89
21644 21601 118
21644 21670 81
21644 21702 101
21645 21618 63
21645 21643 13
21645 21652 57
21645 21683 64
21646 21635 21
21646 21647 51
21646 21660 34
21647 21646 51
21648 21649 47
21649 21648 47
21649 21650 53
21649 21669 36
21650 21649 53
21650 21651 40
21650 21652 41
21650 21693 71
21651 21650 40
21652 21650 41
21652 21653 46
21652 21645 57
21653 21652 46
21654 21406 391
21654 21789 750
21654 21800 288
21655 21638 79
21655 21626 58
21655 21658 48
21655 21685 54
21656 21657 62
21656 21637 29
21656 21667 20
21657 21656 62
21658 21655 48
21658 21662 31
21658 21695 67
21659 21639 24
21660 21646 34
21660 21661 57
21660 21664 33
21661 21660 57
21662 21658 31
21662 21628 59
21662 21668 80
21663 21664 68
21664 21663 68
21664 21660 33
21664 21669 50
21664 21681 38
21665 21666 36
21665 21671 63
21665 21700 61
21666 21665 36
21666 21673 166
21666 21701 69
21667 21656 20
21667 21672 81
21667 21698 59
21668 21662 80
21668 21629 69
21668 21684 104
21668 21717 92
21669 21664 50
21669 21649 36
21669 21687 33
21670 21644 81
21670 21613 118
21670 21698 109
21670 21710 80
21671 21665 63
21671 21696 44
21672 21667 81
21672 21637 76
21672 21706 55
21672 21741 159
21673 21666 166
21673 21674 69
21673 21690 30
21674 21673 69
21674 21675 50
21674 21678 60
21674 21715 76
21675 21674 50
21676 21677 46
21676 21679 128
21676 21686 41
21677 21676 46
21677 21679 68
21677 21694 33
21678 21674 60
21678 21681 69
21678 21720 81
21679 21677 68
21679 21676 128
21679 21689 16
21680 21643 64
21680 21682 39
21680 21683 12
21681 21678 69
21681 21664 38
21681 21687 60
21681 21721 79
21682 21680 39
21682 21685 92
21682 21707 33
21683 21645 64
21683 21680 12
21683 21688 37
21684 21668 104
21684 21641 75
21684 21702 94
21684 21728 90
21685 21682 92
21685 21655 54
21685 21695 46
21685 21703 27
21686 21676 41
21686 21694 63
21686 21697 32
21687 21681 60
21687 21669 33
21687 21693 62
21687 21729 79
21688 21683 37
21688 21693 80
21688 21713 52
21689 21679 16
21689 21705 24
21689 21709 42
21690 21691 134
21690 21673 30
21690 21712 41
21691 21690 134
21692 21621 171
21692 21605 185
21692 21699 201
21692 21796 182
21693 21687 62
21693 21650 71
21693 21688 80
21694 21686 63
21694 21677 33
21694 21705 81
21694 21716 45
21695 21685 46
21695 21658 67
21695 21704 23
21696 21671 44
21696 21700 44
21696 21724 58
21697 21555 247
21697 21686 32
21697 21716 93
21697 21699 24
21698 21670 109
21698 21667 59
21698 21706 96
21698 21718 49
21699 21692 201
21699 21697 24
21700 21696 44
21700 21665 61
21700 21701 38
21700 21750 93
21701 21700 38
21701 21666 69
21701 21708 70
21702 21684 94
21702 21644 101
21702 21710 84
21702 21754 94
21703 21685 27
21703 21707 87
21703 21725 55
21704 21695 23
21704 21717 106
21704 21731 65
21705 21694 81
21705 21689 24
21705 21709 35
21705 21722 46
21706 21698 96
21706 21672 55
21706 21730 57
21707 21682 33
21707 21703 87
21707 21749 84
21708 21701 70
21708 21712 93
21708 21763 100
21709 21705 35
21709 21689 42
21709 21711 83
21710 21702 84
21710 21670 80
21710 21718 116
21710 21734 48
21711 21709 83
21711 21719 98
21711 21743 78
21712 21708 93
21712 21690 41
21712 21715 67
21712 21761 84
21713 21714 57
21713 21688 52
21713 21742 48
21714 21713 57
21715 21712 67
21715 21674 76
21715 21720 60
21715 21767 84
21716 21697 93
21716 21694 45
21716 21722 81
21716 21739 42
21717 21704 106
21717 21668 92
21717 21728 74
21717 21740 39
21718 21710 116
21718 21698 49
21718 21730 112
21718 21756 59
21719 21711 98
21720 21715 60
21720 21678 81
21720 21721 67
21720 21774 83
21721 21720 67
21721 21681 79
21721 21729 65
21721 21783 86
21722 21716 81
21722 21705 46
21722 21733 88
21722 21753 42
21723 21724 74
21724 21723 74
21724 21696 58
21724 21744 36
21725 21703 55
21725 21731 68
21725 21759 48
21726 21727 25
21726 21751 99
21726 21765 118
21726 21892 730
21727 21726 25
21727 21746 68
21727 21779 266
21728 21717 74
21728 21684 90
21728 21754 105
21728 21781 74
21729 21721 65
21729 21687 79
21729 21732 43
21729 21757 43
21730 21718 112
21730 21706 57
21730 21735 51
21730 21772 63
21731 21725 68
21731 21704 65
21731 21740 104
21731 21764 45
21732 21729 43
21732 21742 93
21732 21760 40
21733 21722 88
21733 21743 83
21733 21762 42
21734 21710 48
21734 21756 112
21734 21769 52
21735 21730 51
21735 21736 31
21735 21745 59
21736 21735 31
21737 21632 243
21737 21741 10
21737 21807 175
21738 21739 43
21739 21738 43
21739 21716 42
21739 21753 81
21739 21766 43
21740 21731 104
21740 21717 39
21740 21773 48
21741 21672 159
21741 21737 10
21741 21745 12
21741 21755 24
21742 21732 93
21742 21713 48
21742 21749 87
21742 21770 42
21743 21733 83
21743 21711 78
21743 21775 41
21743 22167 1699
21744 21724 36
21744 21747 52
21744 21758 22
21745 21735 59
21745 21741 12
21745 21755 24
21745 21784 53
21746 21727 68
21746 21765 105
21746 21779 72
21746 21841 114
21747 21748 76
21747 21744 52
21748 21747 76
21749 21742 87
21749 21707 84
21749 21759 84
21749 21782 45
21750 21700 93
21750 21758 15
21750 21763 110
21751 21752 106
21751 21726 99
21751 21848 199
21752 21751 106
21752 21859 315
21752 21892 967
21753 21739 81
21753 21722 42
21753 21762 89
21753 21780 42
21754 21728 105
21754 21702 94
21754 21769 102
21754 21788 54
21755 21745 24
21755 21741 24
21755 21797 100
21756 21734 112
21756 21718 59
21756 21768 18
21757 21729 43
21757 21760 48
21757 21787 40
21758 21744 22
21758 21750 15
21758 21778 82
21759 21749 84
21759 21725 48
21759 21764 71
21759 21817 82
21760 21757 48
21760 21732 40
21760 21770 89
21760 21793 44
21761 21712 84
21761 21767 67
21761 21777 22
21762 21753 89
21762 21733 42
21762 21775 82
21762 21792 41
21763 21750 110
21763 21708 100
21763 21771 47
21763 21824 83
21764 21759 71
21764 21731 45
21764 21773 105
21764 21827 84
21765 21726 118
21765 21746 105
21765 21841 137
21766 21739 43
21766 21776 158
21766 21780 81
21766 21799 40
21767 21761 67
21767 21715 84
21767 21774 60
21767 21795 38
21768 21756 18
21768 21772 117
21768 21791 31
21769 21754 102
21769 21734 52
21769 21794 98
21769 21801 38
21770 21760 89
21770 21742 42
21770 21782 89
21770 21802 42
21771 21763 47
21771 21777 44
21771 21829 73
21772 21768 117
21772 21730 63
21772 21784 114
21772 21819 63
21773 21764 105
21773 21740 48
21773 21843 95
21773 21845 84
21774 21767 60
21774 21720 83
21774 21783 68
21774 21805 41
21775 21762 82
21775 21743 41
21775 21804 40
21776 21766 158
21777 21771 44
21777 21761 22
21777 21795 69
21777 21828 67
21778 21758 82
21778 21786 78
21778 21833 73
21779 21746 72
21779 21727 266
21779 21815 80
21779 21861 97
21780 21766 81
21780 21753 42
21780 21792 89
21780 21809 41
21781 21728 74
21781 21788 94
21781 21856 87
21782 21770 89
21782 21749 45
21782 21810 38
21783 21774 68
21783 21721 86
21783 21787 67
21783 21803 28
21784 21772 114
21784 21745 53
21784 21797 108
21784 21842 64
21785 21786 934
21786 21785 934
21786 21778 78
21786 21816 44
21787 21783 67
21787 21757 40
21787 21793 40
21788 21781 94
21788 21754 54
21788 21801 108
21788 21865 88
21789 21654 750
21789 21790 550
21789 22111 1067
21790 21789 550
21791 21768 31
21791 21794 17
21791 21811 33
21792 21780 89
21792 21762 41
21792 21804 80
21792 21821 41
21793 21787 40
21793 21760 44
21793 21802 94
21793 21822 40
21794 21769 98
21794 21791 17
21794 21806 23
21795 21777 69
21795 21767 38
21795 21805 64
21795 21820 58
21796 21692 182
21796 22063 88
21797 21784 108
21797 21755 100
21797 21812 61
21797 21851 60
21798 21799 45
21799 21798 45
21799 21766 40
21799 21809 81
21799 21832 42
21800 21654 288
21800 21947 220
21800 22189 782
21801 21788 108
21801 21769 38
21801 21806 81
21801 21875 86
21802 21793 94
21802 21770 42
21802 21810 86
21802 21834 37
21803 21783 28
21803 21805 66
21803 21808 19
21804 21792 80
21804 21775 40
21804 21844 41
21805 21774 41
21805 21803 66
21805 21795 64
21806 21801 81
21806 21794 23
21806 21838 42
21807 21737 175
21807 21835 33
21808 21803 19
21808 21847 85
21809 21799 81
21809 21780 41
21809 21821 90
21809 21850 42
21810 21802 86
21810 21782 38
21810 21817 82
21810 21846 36
21811 21791 33
21811 21819 87
21811 21838 39
21812 21797 61
21812 21863 35
21813 21814 36
21814 21813 36
21814 21816 73
21814 21852 39
21815 21779 80
21815 21818 39
21815 21892 137
21816 21814 73
21816 21786 44
21817 21810 82
21817 21759 82
21817 21827 71
21817 21858 37
21818 21815 39
21819 21811 87
21819 21772 63
21819 21842 113
21819 21899 88
21820 21795 58
21820 21884 67
21820 21889 142
21821 21809 90
21821 21792 41
21821 21844 79
21821 21864 43
21822 21823 69
21822 21793 40
21822 21834 93
21822 21847 25
21823 21822 69
21824 21763 83
21825 21826 125
21826 21825 125
21826 21830 10
21826 21840 84
21827 21817 71
21827 21764 84
21827 21843 63
21827 21866 39
21828 21777 67
21829 21771 73
21830 21826 10
21830 21886 92
21831 21832 39
21832 21831 39
21832 21799 42
21832 21850 81
21832 21855 21
21833 21778 73
21833 21857 110
21833 21871 46
21834 21822 93
21834 21802 37
21834 21846 83
21834 21872 51
21835 21836 123
21835 21807 33
21836 21835 123
21836 21837 143
21836 21873 122
21837 21836 143
21838 21806 42
21838 21811 39
21838 21887 57
21839 21840 179
21840 21839 179
21840 21826 84
21840 21860 47
21841 21765 137
21841 21746 114
21841 21861 62
21842 21819 113
21842 21784 64
21842 21851 110
21842 21870 36
21843 21827 63
21843 21773 95
21843 21845 43
21843 21877 54
21844 21821 79
21844 21804 41
21844 21876 43
21845 21843 43
21845 21773 84
21845 21856 88
21845 21914 93
21846 21834 83
21846 21810 36
21846 21901 89
21847 21808 85
21847 21822 25
21847 21888 69
21848 21751 199
21848 21849 6
21848 21902 77
21849 21848 6
21849 21868 51
21849 21903 76
21850 21832 81
21850 21809 42
21850 21864 90
21850 21867 20
21851 21842 110
21851 21797 60
21851 21859 49
21851 21880 39
21852 21814 39
21852 21857 76
21852 21893 50
21853 21854 300
21854 21853 300
21854 22056 388
21854 22189 639
21855 21832 21
21856 21845 88
21856 21781 87
21856 21865 88
21856 21918 94
21857 21852 76
21857 21833 110
21857 21897 51
21858 21817 37
21858 21866 71
21858 21898 50
21859 21851 49
21859 21752 315
21859 21869 82
21860 21840 47
21860 21900 163
21860 21904 189
21861 21841 62
21861 21779 97
21861 21868 5
21861 21892 177
21862 21863 176
21862 21881 24
21862 21891 97
21863 21862 176
21863 21812 35
21864 21850 90
21864 21821 43
21864 21876 78
21864 21879 20
21865 21856 88
21865 21788 88
21865 21875 99
21865 21923 91
21866 21858 71
21866 21827 39
21866 21877 34
21867 21850 20
21868 21849 51
21868 21861 5
21868 21892 179
21869 21859 82
21869 21878 86
21869 21910 70
21870 21842 36
21870 21880 107
21870 21906 50
21871 21833 46
21871 21897 115
21871 21905 48
21872 21834 51
21872 21882 29
21872 21890 67
21873 21836 122
21873 21874 107
21873 21902 146
21874 21873 107
21875 21865 99
21875 21801 86
21875 21887 115
21875 21926 93
21876 21864 78
21876 21844 43
21876 21885 10
21877 21866 34
21877 21843 54
21877 21907 58
21878 21869 86
21878 21881 50
21878 21911 46
21879 21864 20
21880 21870 107
21880 21851 39
21880 21915 50
21881 21878 50
21881 21862 24
21881 21891 96
21881 21932 95
21882 21872 29
21882 21919 64
21883 21884 63
21884 21883 63
21884 21820 67
21884 21889 131
21884 21896 22
21885 21876 10
21886 21830 92
21886 21893 128
21886 21913 43
21887 21875 115
21887 21838 57
21887 21895 57
21887 21937 94
21888 21847 69
21888 21889 91
21888 21890 30
21889 21884 131
21889 21820 142
21889 21888 91
21889 21921 100
21890 21888 30
21890 21872 67
21890 21912 49
21891 21881 96
21891 21862 97
21891 21908 116
21892 21861 177
21892 21815 137
21892 21726 730
21892 21752 967
21892 21894 123
21892 21868 179
21893 21886 128
21893 21852 50
21893 21897 93
21893 21916 44
21894 21892 123
21895 21887 57
21895 21899 51
21895 21948 91
21896 21884 22
21896 21942 119
21896 21955 122
21897 21893 93
21897 21857 51
21897 21871 115
21898 21858 50
21898 21901 25
21898 21907 96
21898 21920 53
21899 21895 51
21899 21819 88
21899 21906 115
21899 21951 91
21900 21860 163
21901 21846 89
21901 21898 25
21901 21919 78
21902 21873 146
21902 21848 77
21902 21903 8
21902 21908 9
21903 21902 8
21903 21849 76
21903 21909 10
21903 21945 327
21904 21860 189
21905 21871 48
21905 21917 101
21905 21957 126
21906 21899 115
21906 21870 50
21906 21915 108
21906 21953 92
21907 21898 96
21907 21877 58
21907 21914 82
21907 21930 74
21908 21891 116
21908 21902 9
21908 21909 7
21908 21946 70
21909 21908 7
21909 21903 10
21909 21970 335
21909 21988 159
21910 21869 70
21910 21911 122
21910 21938 67
21911 21910 122
21911 21878 46
21911 21944 61
21912 21890 49
21912 21921 73
21912 21931 50
21913 21886 43
21913 21916 126
21913 21940 59
21914 21907 82
21914 21845 93
21914 21918 89
21914 21954 79
21915 21906 108
21915 21880 50
21915 21929 44
21916 21913 126
21916 21893 44
21916 21922 90
21916 21943 48
21917 21905 101
21917 21922 38
21917 21941 45
21918 21914 89
21918 21856 94
21918 21923 81
21918 21960 80
21919 21882 64
21919 21901 78
21919 21931 66
21919 21959 76
21920 21898 53
21920 21959 93
21921 21889 100
21921 21912 73
21921 21942 125
21921 21964 86
21922 21916 90
21922 21917 38
21922 21952 45
21923 21918 81
21923 21865 91
21923 21926 103
21923 21963 81
21924 21925 10
21925 21924 10
21925 23870 85
21926 21923 103
21926 21875 93
21926 21937 111
21926 21974 79
21927 21928 830
21927 21933 101
21927 21945 35
21928 21927 830
21928 21577 44
21929 21915 44
21929 21953 124
21929 21958 76
21930 21907 74
21930 21954 130
21930 21986 133
21931 21912 50
21931 21919 66
21931 21964 114
21931 21981 92
21932 21881 95
21932 21946 197
21932 21965 55
21933 21927 101
21933 21934 858
21933 21949 20
21934 21933 858
21934 21569 43
21935 21936 62
21936 21935 62
21936 23871 103
21937 21926 111
21937 21887 94
21937 21948 63
21937 21978 79
21938 21910 67
21938 21944 157
21938 21983 104
21939 21240 1627
21939 21950 14
21939 21956 109
21940 21913 59
21940 21943 91
21940 21962 55
21941 21917 45
21941 21952 44
21941 21973 60
21942 21896 119
21942 21921 125
21942 21955 104
21942 21961 47
21943 21940 91
21943 21916 48
21943 21952 105
21943 21967 48
21944 21938 157
21944 21911 61
21944 21969 51
21945 21903 327
21945 21927 35
21945 21970 55
21946 21932 197
21946 21908 70
21946 21976 57
21947 21800 220
21948 21937 63
21948 21895 91
21948 21951 49
21949 21933 20
21949 21989 118
21949 22062 542
21950 21939 14
21950 22186 73
21951 21948 49
21951 21899 91
21951 21953 110
21951 21985 82
21952 21943 105
21952 21922 45
21952 21941 44
21952 21971 44
21953 21951 110
21953 21906 92
21953 21929 124
21953 21980 54
21954 21930 130
21954 21914 79
21954 21960 91
21954 22003 90
21955 21896 122
21955 21942 104
21955 21966 75
21955 21979 44
21956 21939 109
21956 22487 17
21957 21905 126
21957 21968 23
21957 21972 137
21958 21929 76
21959 21919 76
21959 21920 93
21959 21981 80
21960 21954 91
21960 21918 80
21960 21963 77
21960 22012 88
21961 21942 47
21961 21979 104
21961 21987 51
21962 21940 55
21962 21967 64
21963 21960 77
21963 21923 81
21963 21974 103
21963 22023 86
21964 21921 86
21964 21931 114
21964 21987 98
21964 22011 81
21965 21932 55
21965 21976 191
21965 21994 56
21966 21955 75
21966 21977 66
21966 22004 69
21967 21962 64
21967 21943 48
21967 21971 110
21967 22019 139
21968 21957 23
21968 21973 82
21968 22017 124
21969 21944 51
21969 21983 215
21969 21995 54
21970 21909 335
21970 21945 55
21970 21975 7
21971 21967 110
21971 21952 44
21971 21973 54
21971 21996 56
21972 21957 137
21972 21977 29
21972 22028 101
21973 21971 54
21973 21941 60
21973 21968 82
21973 22001 55
21974 21963 103
21974 21926 79
21974 21978 112
21974 22025 87
21975 21970 7
21975 21982 39
21975 22000 53
21976 21965 191
21976 21946 57
21976 22008 58
21977 21972 29
21977 21966 66
21977 22034 107
21978 21974 112
21978 21937 79
21978 21985 109
21978 22006 42
21979 21955 44
21979 21961 104
21979 22016 54
21980 21953 54
21981 21931 92
21981 21959 80
21981 21986 112
21981 22011 90
21981 22042 91
21982 21975 39
21982 21990 71
21982 22000 51
21983 21984 66
21983 21938 104
21983 21969 215
21983 22027 63
21983 22029 172
21984 21983 66
21985 21978 109
21985 21951 82
21985 21991 55
21985 22018 38
21986 21981 112
21986 21930 133
21986 21992 64
21986 22042 120
21986 22051 127
21987 21961 51
21987 21964 98
21987 22007 61
21987 22055 86
21988 21909 159
21988 21997 74
21988 22058 90
21989 21949 118
21989 21990 24
21989 22032 319
21990 21982 71
21990 21989 24
21990 22024 178
21991 21985 55
21992 21986 64
21992 21993 40
21992 22003 131
21992 22053 76
21993 21992 40
21994 21965 56
21994 21995 53
21994 22008 187
21994 22039 62
21995 21969 54
21995 21994 53
21995 22002 65
21996 21971 56
21996 21999 77
21996 22001 73
21996 22033 51
21997 21988 74
21997 21998 49
21998 21997 49
21999 21996 77
21999 22031 43
22000 21975 53
22000 21982 51
22000 22098 149
22001 21996 73
22001 21973 55
22001 22043 60
22002 21995 65
22002 22027 139
22002 22050 62
22003 21992 131
22003 21954 90
22003 22012 98
22003 22066 79
22004 21966 69
22004 22005 58
22004 22026 32
22005 22004 58
22006 21978 42
22006 22018 113
22006 22030 39
22007 21987 61
22007 22016 44
22007 22054 64
22008 21994 187
22008 21976 58
22008 22057 62
22009 22010 11
22009 23872 65
22010 22009 11
22011 21964 81
22011 21981 90
22011 22055 101
22011 22077 88
22012 22003 98
22012 21960 88
22012 22023 72
22012 22071 76
22013 22014 29
22013 22015 50
22013 22079 94
22014 22013 29
22015 22013 50
22016 21979 54
22016 22007 44
22016 22026 73
22016 22076 86
22017 21968 124
22017 22028 39
22017 22048 50
22018 22006 113
22018 21985 38
22018 22035 35
22019 22020 525
22019 21967 139
22019 22065 100
22020 22019 525
22021 22022 9
22021 23873 61
22021 23874 16
22022 22021 9
22023 22012 72
22023 21963 86
22023 22025 97
22023 22089 103
22024 21990 178
22024 22040 114
22024 22147 201
22025 22023 97
22025 21974 87
22025 22030 118
22025 22061 43
22026 22004 32
22026 22016 73
22026 22034 62
22026 22084 83
22027 21983 63
22027 22002 139
22027 22064 163
22027 22072 60
22028 22017 39
22028 21972 101
22028 22081 91
22029 21983 172
22029 22064 34
22030 22025 118
22030 22006 39
22030 22035 114
22030 22067 43
22031 21999 43
22031 22033 73
22031 22038 34
22031 22078 63
22032 21989 319
22032 22040 55
22032 22069 121
22033 22031 73
22033 21996 51
22033 22043 99
22033 22082 62
22034 21977 107
22034 22026 62
22034 22081 66
22034 22090 86
22035 22030 114
22035 22018 35
22035 22047 12
22036 22037 75
22036 22044 24
22036 22085 64
22037 22036 75
22038 22031 34
22038 22068 33
22039 21994 62
22039 22041 56
22039 22057 177
22040 22024 114
22040 22032 55
22040 22070 106
22041 22039 56
22041 22050 59
22041 22093 77
22042 21981 91
22042 21986 120
22042 22051 8
22042 22077 87
22043 22033 99
22043 22001 60
22043 22049 49
22043 22083 55
22044 22036 24
22044 22048 30
22044 22102 97
22045 22046 1805
22046 22045 1805
22047 22035 12
22047 22074 24
22048 22044 30
22048 22017 50
22049 22043 49
22050 22002 62
22050 22041 59
22050 22072 131
22051 22042 8
22051 21986 127
22051 22080 88
22051 22092 70
22052 22053 49
22053 22052 49
22053 21992 76
22053 22066 132
22053 22086 50
22054 22007 64
22055 21987 86
22055 22011 101
22055 22076 107
22055 22097 83
22056 21854 388
22056 22149 299
22056 22158 213
22057 22039 177
22057 22008 62
22057 22058 12
22057 22099 82
22058 22057 12
22058 21988 90
22058 22079 143
22058 22153 158
22059 22060 1520
22059 23181 7546
22059 23634 2991
22060 22059 1520
22060 21546 22
22061 22025 43
22061 22067 114
22061 22073 20
22062 21949 542
22062 22063 336
22062 22203 422
22063 22062 336
22063 21796 88
22064 22029 34
22064 22027 163
22064 22075 72
22064 22094 62
22065 22019 100
22066 22053 132
22066 22003 79
22066 22071 100
22066 22105 76
22067 22061 114
22067 22030 43
22067 22100 64
22068 22038 33
22069 22032 121
22069 22070 69
22069 22197 429
22070 22040 106
22070 22069 69
22070 22188 195
22071 22066 100
22071 22012 76
22071 22087 32
22072 22027 60
22072 22050 131
22072 22094 162
22072 22116 81
22073 22061 20
22073 22089 103
22073 22120 85
22074 22075 28
22074 22047 24
22075 22074 28
22075 22064 72
22075 22094 96
22076 22016 86
22076 22055 107
22076 22084 70
22076 22088 27
22077 22011 88
22077 22042 87
22077 22080 10
22077 22097 91
22078 22031 63
22078 22082 52
22078 22103 48
22079 22058 143
22079 22013 94
22079 22098 157
22079 22175 158
22080 22077 10
22080 22051 88
22080 22125 143
22080 22134 91
22081 22028 91
22081 22034 66
22081 22104 57
22082 22078 52
22082 22033 62
22082 22091 124
22082 22108 50
22083 22043 55
22083 22085 49
22083 22091 21
22084 22026 83
22084 22076 70
22084 22090 54
22084 22106 45
22085 22083 49
22085 22036 64
22086 22053 50
22086 22095 40
22086 22096 36
22087 22071 32
22087 22107 65
22087 22131 76
22088 22076 27
22088 22106 73
22088 22112 47
22089 22023 103
22089 22073 103
22089 22109 58
22089 22114 45
22090 22034 86
22090 22084 54
22090 22104 32
22091 22082 124
22091 22083 21
22091 22110 31
22092 22051 70
22092 22095 95
22092 22138 78
22093 22041 77
22093 22099 219
22093 22116 169
22093 22144 85
22094 22075 96
22094 22064 62
22094 22072 162
22094 22141 77
22095 22092 95
22095 22086 40
22095 22113 31
22096 22086 36
22096 22105 107
22096 22113 35
22097 22055 83
22097 22077 91
22097 22122 66
22098 22079 157
22098 22000 149
22098 22117 93
22098 22213 162
22099 22093 219
22099 22057 82
22099 22148 75
22100 22067 64
22100 22101 119
22100 22178 147
22101 22100 119
22102 22044 97
22103 22078 48
22103 22108 38
22103 22152 76
22104 22081 57
22104 22090 32
22104 22118 53
22104 22135 71
22105 22096 107
22105 22066 76
22105 22107 48
22105 22132 43
22106 22084 45
22106 22088 73
22106 22136 48
22107 22105 48
22107 22087 65
22107 22132 67
22108 22103 38
22108 22082 50
22108 22115 49
22108 22173 96
22109 22089 58
22109 22114 43
22109 22131 57
22110 22091 31
22110 22123 25
22110 22129 117
22111 21789 1067
22112 22088 47
22112 22119 15
22113 22095 31
22113 22096 35
22113 22145 54
22114 22109 43
22114 22089 45
22114 22120 84
22114 22170 86
22115 22108 49
22115 22123 96
22115 22163 74
22116 22072 81
22116 22093 169
22116 22141 162
22116 22169 85
22117 22098 93
22117 22140 38
22117 22147 182
22118 22104 53
22118 22121 44
22118 22171 81
22119 22112 15
22119 22122 42
22119 22133 29
22120 22114 84
22120 22073 85
22120 22124 67
22120 22176 82
22121 22118 44
22121 22129 39
22121 22156 49
22122 22119 42
22122 22097 66
22122 22133 25
22123 22115 96
22123 22110 25
22123 22139 24
22124 22120 67
22125 22080 143
22125 22128 8
22125 22231 214
22126 22127 93
22127 22126 93
22127 22174 70
22127 22190 140
22128 22125 8
22128 22134 129
22128 22220 123
22129 22110 117
22129 22121 39
22129 22130 19
22130 22129 19
22130 22139 85
22130 22166 54
22131 22087 76
22131 22109 57
22131 22161 66
22131 22164 48
22132 22105 43
22132 22107 67
22132 22155 48
22132 22157 33
22133 22119 29
22133 22122 25
22133 22180 103
22134 22128 129
22134 22080 91
22134 22138 96
22134 22224 117
22135 22104 71
22135 22146 26
22136 22106 48
22136 22137 51
22136 22146 33
22137 22136 51
22138 22134 96
22138 22092 78
22138 22145 97
22138 22225 108
22139 22123 24
22139 22130 85
22139 22163 118
22139 22177 61
22140 22117 38
22141 22094 77
22141 22116 162
22141 22154 75
22141 22201 88
22142 22143 49
22142 22181 88
22143 22142 49
22143 22151 31
22143 22219 100
22144 22093 85
22144 22148 199
22144 22169 151
22144 22200 77
22145 22138 97
22145 22113 54
22145 22155 95
22145 22229 98
22146 22135 26
22146 22136 33
22146 22180 71
22147 22117 182
22147 22024 201
22147 22165 108
22147 22278 160
22148 22144 199
22148 22099 75
22148 22153 13
22148 22208 79
22149 22056 299
22149 22150 47
22149 22251 140
22150 22149 47
22151 22143 31
22151 22167 45
22151 22202 69
22152 22103 76
22153 22148 13
22153 22058 158
22153 22175 134
22153 22288 158
22154 22141 75
22154 22174 86
22154 22215 77
22155 22145 95
22155 22132 48
22155 22157 36
22155 22216 119
22156 22121 49
22156 22166 57
22156 22187 47
22157 22155 36
22157 22132 33
22157 22161 48
22157 22193 53
22158 22056 213
22158 22162 73
22158 22341 283
22159 22160 92
22160 22159 92
22160 22168 19
22160 22179 92
22161 22157 48
22161 22131 66
22161 22164 43
22161 22193 69
22162 22158 73
22163 22115 74
22163 22139 118
22163 22173 52
22163 22204 56
22164 22161 43
22164 22131 48
22164 22170 83
22164 22221 70
22165 22147 108
22165 22188 112
22165 22292 155
22166 22130 54
22166 22156 57
22166 22177 80
22166 22199 49
22167 21743 1699
22167 22151 45
22167 22192 36
22168 22160 19
22168 22273 118
22169 22116 85
22169 22144 151
22169 22201 160
22169 22236 74
22170 22164 83
22170 22114 86
22170 22176 84
22170 22238 74
22171 22118 81
22171 22172 73
22171 22184 17
22172 22171 73
22172 22198 92
22173 22108 96
22173 22163 52
22173 22191 83
22174 22127 70
22174 22154 86
22174 22190 85
22174 22241 81
22175 22153 134
22175 22079 158
22175 22195 107
22175 22309 162
22176 22170 84
22176 22120 82
22176 22178 44
22176 22244 77
22177 22139 61
22177 22166 80
22177 22204 124
22177 22228 49
22178 22176 44
22178 22100 147
22178 22209 36
22179 22160 92
22180 22146 71
22180 22133 103
22180 22198 42
22181 22142 88
22181 22239 58
22181 22250 175
22182 22183 105
22183 22182 105
22184 22171 17
22184 22187 39
22184 22252 73
22185 22186 1005
22185 23641 77
22186 22185 1005
22186 21950 73
22187 22156 47
22187 22184 39
22187 22199 54
22187 22258 79
22188 22165 112
22188 22070 195
22188 22234 193
22188 22320 158
22189 21854 639
22189 21800 782
22189 22379 211
22190 22127 140
22190 22174 85
22190 22207 72
22190 22263 79
22191 22173 83
22191 22194 26
22191 22243 56
22192 22167 36
22192 22202 42
22192 22253 63
22193 22157 53
22193 22161 69
22193 22210 29
22193 22214 19
22194 22191 26
22194 22311 139
22195 22175 107
22195 22196 50
22195 22213 50
22196 22195 50
22197 22069 429
22197 22237 66
22197 23240 882
22198 22172 92
22198 22180 42
22198 22218 29
22199 22166 49
22199 22187 54
22199 22275 81
22200 22144 77
22200 22208 190
22200 22236 134
22200 22279 83
22201 22141 88
22201 22169 160
22201 22241 163
22201 22270 74
22202 22192 42
22202 22151 69
22202 22219 40
22202 22242 40
22203 22062 422
22203 22237 64
22203 23235 2147
22204 22163 56
22204 22177 124
22204 22227 55
22205 22206 166
22205 22226 41
22205 22250 50
22206 22205 166
22207 22190 72
22207 22277 77
22208 22200 190
22208 22148 79
22208 22284 84
22209 22178 36
22210 22193 29
22210 22214 22
22210 22240 40
22211 22212 60
22212 22211 60
22212 22217 70
22212 22261 99
22213 22195 50
22213 22098 162
22213 22278 273
22213 22344 156
22214 22210 22
22214 22193 19
22214 22221 86
22214 22276 69
22215 22154 77
22216 22155 119
22216 22229 18
22216 22232 45
22217 22212 70
22217 22248 71
22217 22289 153
22218 22198 29
22218 22231 9
22218 22252 89
22219 22202 40
22219 22143 100
22219 22230 19
22220 22128 123
22220 22224 149
22220 22233 10
22221 22214 86
22221 22164 70
22221 22238 86
22221 22285 73
22222 22223 127
22222 22249 33
22223 22222 127
22224 22220 149
22224 22134 117
22224 22225 95
22224 22308 107
22225 22224 95
22225 22138 108
22225 22260 41
22226 22205 41
22226 22286 76
22227 22204 55
22227 22243 81
22227 22264 49
22228 22177 49
22228 22264 177
22228 22299 95
22229 22145 98
22229 22216 18
22229 22260 63
22230 22219 19
22230 22239 26
22230 22294 82
22231 22218 9
22231 22125 214
22231 22268 119
22231 22269 51
22232 22216 45
22232 22240 29
22232 22303 129
22233 22220 10
22233 22255 107
22233 22406 206
22234 22188 193
22234 22235 174
22234 22656 379
22235 22234 174
22236 22169 74
22236 22200 134
22236 22270 160
22236 22293 79
22237 22197 66
22237 22203 64
22237 22434 375
22238 22221 86
22238 22170 74
22238 22244 84
22238 22291 69
22239 22230 26
22239 22181 58
22239 22245 30
22240 22232 29
22240 22210 40
22240 22271 39
22240 22332 141
22241 22174 81
22241 22201 163
22241 22263 83
22241 22300 77
22242 22202 40
22242 22253 46
22242 22294 86
22243 22191 56
22243 22227 81
22243 22283 48
22244 22238 84
22244 22176 77
22244 22290 110
22244 22296 69
22245 22239 30
22245 22259 41
22245 22305 79
22246 22247 55
22246 22249 43
22246 22318 90
22247 22246 55
22248 22217 71
22248 22254 11
22248 22274 59
22249 22222 33
22249 22246 43
22249 22262 17
22250 22181 175
22250 22205 50
22250 22281 48
22251 22149 140
22251 22407 180
22252 22184 73
22252 22218 89
22252 22258 33
22253 22192 63
22253 22242 46
22253 22256 49
22253 22336 134
22254 22248 11
22254 22346 111
22254 22348 122
22255 22233 107
22255 22269 64
22255 22301 60
22256 22257 50
22256 22253 49
22256 22295 52
22257 22256 50
22258 22187 79
22258 22252 33
22258 22268 11
22258 22275 54
22259 22245 41
22259 22281 71
22259 22322 113
22260 22225 41
22260 22229 63
22260 22303 58
22260 22308 95
22261 22212 99
22262 22249 17
22262 22267 111
22262 22282 26
22263 22190 79
22263 22241 83
22263 22277 71
22263 22324 79
22264 22227 49
22264 22228 177
22264 22283 85
22264 22355 107
22265 22266 248
22266 22265 248
22266 22563 284
22267 22262 111
22268 22258 11
22268 22231 119
22268 22280 53
22268 22349 103
22269 22231 51
22269 22255 64
22269 22315 61
22270 22201 74
22270 22236 160
22270 22300 162
22270 22334 78
22271 22240 39
22271 22276 47
22271 22321 62
22272 22273 94
22273 22272 94
22273 22168 118
22273 22328 69
22274 22248 59
22274 22304 43
22274 22307 97
22275 22199 81
22275 22258 54
22275 22280 8
22275 22299 85
22276 22271 47
22276 22214 69
22276 22285 79
22276 22329 65
22277 22207 77
22277 22263 71
22277 22290 45
22277 22343 78
22278 22213 273
22278 22147 160
22278 22292 110
22279 22200 83
22279 22284 185
22279 22293 102
22279 22350 84
22280 22275 8
22280 22268 53
22280 22298 63
22280 22367 100
22281 22259 71
22281 22250 48
22281 22286 66
22281 22322 62
22282 22262 26
22282 22287 107
22282 22323 51
22283 22243 48
22283 22264 85
22283 22317 45
22284 22279 185
22284 22208 84
22284 22288 13
22284 22356 82
22285 22276 79
22285 22221 73
22285 22291 92
22285 22331 54
22286 22281 66
22286 22226 76
22286 22306 123
22286 22373 99
22287 22282 107
22288 22284 13
22288 22153 158
22288 22309 103
22288 22353 79
22289 22217 153
22290 22244 110
22290 22277 45
22290 22358 81
22291 22285 92
22291 22238 69
22291 22296 83
22291 22316 31
22292 22278 110
22292 22165 155
22292 22320 111
22293 22236 79
22293 22279 102
22293 22334 163
22293 22368 78
22294 22242 86
22294 22230 82
22294 22297 17
22295 22256 52
22296 22291 83
22296 22244 69
22297 22294 17
22297 22305 10
22297 22336 48
22298 22280 63
22298 22339 94
22298 22385 89
22299 22228 95
22299 22275 85
22299 22325 63
22300 22241 77
22300 22270 162
22300 22324 84
22300 22342 43
22301 22255 60
22301 22302 73
22301 22315 59
22301 22360 61
22302 22301 73
22302 22338 62
22303 22260 58
22303 22232 129
22303 22332 46
22303 22384 110
22304 22274 43
22304 22340 68
22304 22347 48
22305 22297 10
22305 22245 79
22305 22364 95
22306 22286 123
22306 22327 65
22307 22274 97
22308 22224 107
22308 22260 95
22308 22387 122
22309 22288 103
22309 22175 162
22309 22319 54
22309 22459 145
22310 22311 458
22311 22310 458
22311 22194 139
22311 22377 70
22312 22313 28
22312 22314 50
22312 22318 100
22313 22312 28
22314 22312 50
22314 22361 48
22315 22269 61
22315 22301 59
22315 22335 61
22315 22375 60
22316 22291 31
22316 22331 93
22317 22283 45
22317 22355 110
22318 22246 90
22318 22312 100
22318 22323 35
22319 22309 54
22319 22344 108
22319 22372 52
22320 22292 111
22320 22188 158
22320 22354 110
22320 22363 39
22321 22271 62
22321 22357 34
22321 22359 71
22322 22259 113
22322 22281 62
22322 22364 44
22323 22282 51
22323 22318 35
22323 22330 139
22324 22263 79
22324 22300 84
22324 22343 73
22324 22365 39
22325 22326 57
22325 22299 63
22325 22355 114
22326 22325 57
22327 22306 65
22327 22333 70
22327 22573 210
22328 22273 69
22328 22333 191
22328 22422 131
22329 22276 65
22329 22337 10
22329 22357 57
22330 22323 139
22331 22285 54
22331 22316 93
22331 22337 79
22332 22303 46
22332 22240 141
22332 22359 29
22332 22384 115
22333 22327 70
22333 22328 191
22333 22439 119
22334 22270 78
22334 22293 163
22334 22378 157
22334 22415 81
22335 22315 61
22335 22345 42
22335 22390 57
22336 22253 134
22336 22297 48
22336 22395 113
22337 22329 10
22337 22331 79
22337 22392 55
22338 22302 62
22338 22360 69
22338 22396 64
22339 22298 94
22339 22391 241
22339 22397 65
22340 22304 68
22340 22386 97
22340 22416 76
22341 22158 283
22341 22379 71
22341 22399 65
22342 22300 43
22342 22365 87
22342 22378 37
22343 22277 78
22343 22324 73
22343 22358 44
22343 22381 38
22344 22319 108
22344 22213 156
22344 22366 76
22344 22521 151
22345 22335 42
22345 22349 23
22345 22402 62
22346 22254 111
22346 22347 37
22346 22348 38
22347 22346 37
22347 22304 48
22347 22380 25
22348 22254 122
22348 22346 38
22349 22268 103
22349 22345 23
22349 22367 54
22349 22413 62
22350 22279 84
22350 22351 50
22350 22368 88
22350 22431 72
22351 22350 50
22351 22352 54
22351 22426 69
22352 22351 54
22352 22356 59
22352 22430 71
22353 22288 79
22353 22356 11
22353 22428 70
22354 22320 110
22354 22376 116
22354 22536 149
22355 22317 110
22355 22264 107
22355 22325 114
22355 22377 124
22356 22352 59
22356 22284 82
22356 22353 11
22356 22425 67
22357 22321 34
22357 22329 57
22357 22383 52
22357 22388 32
22358 22290 81
22358 22343 44
22358 22370 44
22358 22440 78
22359 22332 29
22359 22321 71
22359 22383 29
22359 22393 86
22360 22301 61
22360 22338 69
22360 22375 61
22360 22423 67
22361 22314 48
22361 22369 133
22361 22409 76
22361 22414 54
22362 22363 193
22363 22362 193
22363 22320 39
22363 22492 114
22364 22305 95
22364 22322 44
22364 22395 43
22365 22324 39
22365 22342 87
22365 22381 72
22365 22401 41
22366 22344 76
22366 22374 20
22366 22466 87
22367 22280 100
22367 22349 54
22367 22385 59
22367 22433 66
22368 22293 78
22368 22350 88
22368 22415 161
22368 22452 78
22369 22361 133
22369 22398 33
22369 23155 1119
22370 22371 96
22370 22358 44
22370 22418 121
22371 22370 96
22372 22319 52
22373 22286 99
22373 22411 117
22373 22457 80
22374 22366 20
22374 22382 86
22374 22441 69
22375 22315 60
22375 22360 61
22375 22390 64
22375 22447 66
22376 22354 116
22376 22583 161
22377 22311 70
22377 22355 124
22377 22404 44
22378 22342 37
22378 22334 157
22378 22401 88
22378 22455 78
22379 22341 71
22379 22189 211
22379 22432 51
22380 22347 25
22380 22403 87
22380 22429 47
22381 22343 38
22381 22365 72
22381 22427 46
22382 22374 86
22382 22524 120
22383 22359 29
22383 22357 52
22383 22410 31
22383 22453 134
22384 22303 110
22384 22332 115
22384 22419 34
22384 22424 101
22385 22298 89
22385 22367 59
22386 22340 97
22386 22399 45
22387 22308 122
22387 22406 37
22387 22424 40
22388 22357 32
22388 22389 49
22388 22410 33
22389 22388 49
22390 22335 57
22390 22375 64
22390 22402 39
22390 22467 65
22391 22339 241
22391 22490 78
22392 22337 55
22392 22394 43
22392 22531 104
22393 22359 86
22394 22392 43
22394 22517 89
22395 22336 113
22395 22364 43
22395 22408 19
22396 22338 64
22396 22423 68
22396 22438 32
22397 22339 65
22398 22369 33
22398 22400 74
22398 22405 54
22398 22450 43
22399 22386 45
22399 22341 65
22399 22432 78
22399 22458 53
22400 22398 74
22401 22365 41
22401 22378 88
22401 22427 73
22401 22499 76
22402 22345 62
22402 22390 39
22402 22413 23
22402 22483 61
22403 22380 87
22403 22444 49
22403 22488 82
22404 22377 44
22404 22409 35
22404 22464 46
22405 22398 54
22406 22233 206
22406 22387 37
22406 22438 40
22407 22251 180
22408 22395 19
22408 22457 78
22408 22462 48
22409 22361 76
22409 22404 35
22409 22464 59
22410 22383 31
22410 22388 33
22410 22475 107
22411 22373 117
22411 22412 41
22411 22454 38
22412 22411 41
22413 22349 62
22413 22402 23
22413 22433 48
22413 22493 62
22414 22361 54
22414 22417 45
22414 22445 25
22415 22334 81
22415 22368 161
22415 22455 145
22415 22512 74
22416 22340 76
22416 22429 43
22416 22458 118
22416 22519 72
22417 22414 45
22418 22370 121
22418 22435 36
22418 22485 56
22419 22384 34
22419 22453 30
22419 22463 94
22420 22421 218
22421 22420 218
22421 22422 55
22422 22328 131
22422 22421 55
22422 22514 65
22423 22360 67
22423 22396 68
22423 22447 64
22423 22518 67
22424 22387 40
22424 22384 101
22424 22463 33
22424 22470 75
22425 22356 67
22425 22428 13
22425 22437 8
22426 22351 69
22426 22430 50
22426 22431 50
22427 22381 46
22427 22401 73
22427 22440 45
22427 22528 71
22428 22353 70
22428 22425 13
22428 22443 11
22428 22459 92
22429 22380 47
22429 22416 43
22429 22444 42
22429 22519 106
22430 22426 50
22430 22352 71
22430 22437 49
22431 22350 72
22431 22426 50
22431 22452 73
22431 22550 85
22432 22399 78
22432 22379 51
22432 22545 112
22433 22367 66
22433 22413 48
22434 22237 375
22434 23021 534
22434 23255 1785
22435 22436 44
22435 22418 36
22435 22448 36
22435 22567 101
22436 22435 44
22437 22430 49
22437 22425 8
22437 22443 13
22437 22498 45
22438 22396 32
22438 22406 40
22438 22470 29
22438 22497 55
22439 22333 119
22439 22501 73
22439 22533 103
22440 22358 78
22440 22427 45
22440 22551 80
22441 22374 69
22441 22442 67
22441 22476 35
22441 22484 63
22442 22441 67
22443 22437 13
22443 22428 11
22443 22495 39
22444 22403 49
22444 22429 42
22445 22414 25
22445 22446 54
22445 22494 35
22446 22445 54
22447 22375 66
22447 22423 64
22447 22467 60
22447 22558 83
22448 22449 44
22448 22435 36
22448 22461 36
22448 22579 97
22449 22448 44
22450 22398 43
22450 22451 87
22450 22456 54
22450 22508 36
22451 22450 87
22452 22368 78
22452 22431 73
22452 22502 107
22452 22559 80
22453 22419 30
22453 22383 134
22453 22509 92
22453 22520 46
22454 22411 38
22455 22378 78
22455 22415 145
22455 22499 103
22455 22515 41
22456 22450 54
22457 22408 78
22457 22373 80
22457 22486 27
22458 22416 118
22458 22399 53
22458 22513 43
22459 22428 92
22459 22309 145
22459 22506 109
22460 22461 46
22461 22460 46
22461 22448 36
22461 22473 31
22461 22595 99
22462 22408 48
22462 22481 26
22463 22424 33
22463 22419 94
22463 22503 75
22463 22509 30
22464 22409 59
22464 22404 46
22464 22465 1
22464 22490 19
22465 22464 1
22465 22478 9
22466 22366 87
22466 22484 13
22466 22574 74
22467 22390 65
22467 22447 60
22467 22483 43
22467 22570 73
22468 22469 89
22468 22622 169
22469 22468 89
22470 22438 29
22470 22424 75
22470 22497 50
22470 22503 22
22471 22472 40
22471 22485 38
22471 22534 42
22472 22471 40
22473 22474 45
22473 22461 31
22473 22491 35
22474 22473 45
22475 22410 107
22476 22441 35
22476 22477 48
22476 22511 37
22476 22535 45
22477 22476 48
22478 22465 9
22478 22494 91
22478 22606 89
22479 22480 304
22479 22487 2060
22479 22859 365
22480 22479 304
22480 22482 330
22480 22549 56
22481 22462 26
22481 22505 31
22481 22598 93
22482 22480 330
22483 22402 61
22483 22467 43
22483 22493 24
22483 22557 54
22484 22466 13
22484 22441 63
22484 22532 38
22485 22418 56
22485 22471 38
22485 22552 46
22486 22457 27
22486 22537 38
22486 22581 191
22487 22479 2060
22487 21956 17
22488 22489 53
22488 22403 82
22488 22538 50
22489 22488 53
22490 22464 19
22490 22391 78
22490 22633 100
22491 22473 35
22491 22500 10
22492 22363 114
22492 22536 106
22492 22695 150
22493 22413 62
22493 22483 24
22493 22510 29
22494 22445 35
22494 22478 91
22494 22496 57
22495 22443 39
22495 22498 17
22495 22546 37
22496 22494 57
22496 22508 75
22496 22588 66
22497 22438 55
22497 22470 50
22497 22504 11
22498 22437 45
22498 22495 17
22498 22543 34
22499 22401 76
22499 22455 103
22499 22528 70
22500 22491 10
22500 22517 29
22500 22548 33
22501 22439 73
22501 22590 66
22501 22594 105
22502 22452 107
22502 22512 50
22502 22607 76
22503 22470 22
22503 22463 75
22503 22542 29
22504 22497 11
22504 22518 14
22504 22572 50
22505 22481 31
22505 22529 30
22505 22621 92
22506 22459 109
22506 22521 46
22506 22560 42
22507 22508 57
22508 22507 57
22508 22450 36
22508 22496 75
22508 22589 65
22509 22463 30
22509 22453 92
22509 22542 80
22510 22493 29
22511 22476 37
22512 22415 74
22512 22502 50
22512 22530 39
22512 22716 167
22513 22458 43
22513 22519 87
22513 22545 69
22514 22422 65
22515 22455 41
22515 22516 53
22515 22571 40
22516 22515 53
22517 22394 89
22517 22500 29
22517 22531 46
22517 22568 38
22518 22423 67
22518 22504 14
22518 22576 65
22519 22429 106
22519 22416 72
22519 22513 87
22519 22675 112
22520 22453 46
22520 22564 121
22521 22506 46
22521 22344 151
22522 22523 84
22523 22522 84
22523 22525 41
22523 22534 36
22523 22683 120
22524 22382 120
22524 22535 20
22524 22665 102
22525 22523 41
22525 22526 85
22525 22527 31
22525 22674 109
22526 22525 85
22527 22525 31
22528 22427 71
22528 22499 70
22528 22551 53
22529 22505 30
22529 22537 19
22529 22641 91
22530 22512 39
22530 22539 34
22530 22582 40
22531 22392 104
22531 22517 46
22531 22540 44
22531 22631 70
22532 22484 38
22532 22574 52
22532 22578 39
22533 22439 103
22533 22573 42
22533 22590 124
22534 22471 42
22534 22523 36
22534 22552 40
22534 22693 119
22535 22476 45
22535 22524 20
22535 22578 64
22536 22492 106
22536 22354 149
22536 22583 135
22537 22529 19
22537 22486 38
22538 22488 50
22538 22622 58
22538 22681 107
22539 22530 34
22539 22553 32
22539 22602 42
22540 22541 65
22540 22531 44
22540 22554 38
22541 22540 65
22542 22503 29
22542 22509 80
22542 22572 56
22543 22498 34
22543 22544 56
22543 22546 10
22543 22669 96
22544 22543 56
22544 22547 33
22544 22669 84
22545 22513 69
22545 22432 112
22545 22580 59
22545 22755 183
22546 22543 10
22546 22495 37
22546 22562 42
22546 22689 113
22547 22544 33
22547 22550 38
22547 22700 111
22548 22500 33
22549 22480 56
22550 22431 85
22550 22547 38
22550 22559 51
22550 22618 48
22551 22440 80
22551 22528 53
22551 22653 77
22552 22485 46
22552 22534 40
22552 22567 33
22552 22673 85
22553 22539 32
22553 22571 41
22553 22677 87
22554 22555 35
22554 22540 38
22554 22575 35
22554 22658 74
22555 22554 35
22556 22557 43
22557 22556 43
22557 22483 54
22557 22570 48
22558 22447 83
22558 22570 58
22558 22576 12
22559 22452 80
22559 22550 51
22559 22607 115
22559 22644 67
22560 22561 176
22560 22506 42
22560 22577 41
22561 22560 176
22562 22546 42
22562 22719 122
22562 22813 188
22563 22266 284
22563 22778 170
22563 22794 174
22564 22520 121
22565 22566 94
22566 22565 94
22566 22604 43
22566 22624 48
22567 22435 101
22567 22552 33
22567 22579 36
22567 22720 116
22568 22517 38
22568 22569 24
22569 22568 24
22570 22557 48
22570 22467 73
22570 22558 58
22571 22515 40
22571 22553 41
22571 22584 33
22571 22690 88
22572 22504 50
22572 22542 56
22573 22327 210
22573 22533 42
22573 22587 18
22574 22466 74
22574 22532 52
22574 22630 41
22575 22554 35
22575 22586 25
22575 22679 75
22576 22558 12
22576 22518 65
22576 22605 21
22577 22560 41
22578 22532 39
22578 22535 64
22578 22630 62
22579 22448 97
22579 22567 36
22579 22595 33
22579 22726 114
22580 22545 59
22580 22787 181
22581 22486 191
22581 22587 52
22581 22664 190
22582 22530 40
22582 22602 30
22582 22632 34
22583 22536 135
22583 22376 161
22583 22656 75
22583 22684 69
22584 22585 68
22584 22571 33
22584 22596 34
22585 22584 68
22586 22575 25
22586 22599 27
22586 22694 80
22587 22581 52
22587 22573 18
22587 22659 152
22588 22496 66
22589 22508 65
22589 22626 54
22589 22680 65
22590 22533 124
22590 22501 66
22590 22638 96
22590 22659 52
22591 22592 133
22591 22593 6
22591 22624 48
22592 22591 133
22593 22591 6
22593 22672 95
22594 22501 105
22594 22638 31
22594 22773 186
22595 22461 99
22595 22579 33
22595 22613 45
22595 22737 113
22596 22597 66
22596 22584 34
22596 22608 31
22597 22596 66
22598 22481 93
22598 22621 30
22599 22586 27
22599 22714 85
22600 22601 28
22600 22719 96
22600 22725 100
22601 22600 28
22601 22617 37
22601 22725 97
22602 22539 42
22602 22582 30
22602 22648 32
22603 22604 71
22604 22603 71
22604 22566 43
22604 22655 53
22604 22668 72
22605 22576 21
22605 22646 8
22606 22478 89
22606 22619 50
22606 22633 23
22607 22502 76
22607 22559 115
22607 22688 55
22608 22596 31
22608 22612 6
22609 22610 54
22609 22631 32
22609 22742 105
22610 22609 54
22610 22731 126
22611 22612 63
22612 22611 63
22612 22608 6
22612 22627 37
22613 22614 80
22613 22595 45
22613 22682 49
22614 22613 80
22615 22616 39
22615 22654 47
22615 22661 40
22616 22615 39
22617 22601 37
22617 22623 34
22617 22849 182
22618 22550 48
22619 22620 74
22619 22606 50
22619 22680 135
22620 22619 74
22621 22598 30
22621 22505 92
22621 22641 29
22622 22468 169
22622 22538 58
22622 22717 76
22623 22617 34
22623 22634 31
22623 22866 187
22624 22566 48
22624 22591 48
22624 22655 38
22624 22666 38
22625 22626 43
22626 22625 43
22626 22589 54
22626 22651 22
22627 22628 61
22627 22612 37
22627 22635 25
22628 22627 61
22629 21298 5494
22629 22986 28
22630 22574 41
22630 22578 62
22630 22697 58
22631 22531 70
22631 22609 32
22631 22650 37
22631 22782 122
22632 22582 34
22632 22642 10
22632 22648 28
22633 22606 23
22633 22490 100
22633 22705 61
22634 22623 31
22634 22636 29
22634 22870 181
22635 22627 25
22635 22639 7
22636 22634 29
22636 22637 52
22636 22872 180
22637 22636 52
22637 22657 31
22637 22864 179
22638 22590 96
22638 22594 31
22638 22649 18
22638 22703 54
22639 22640 65
22639 22635 7
22639 22653 50
22639 22775 109
22640 22639 65
22641 22621 29
22641 22529 91
22642 22632 10
22642 22643 19
22643 22642 19
22644 22559 67
22644 22645 36
22644 22652 32
22644 22777 109
22645 22644 36
22645 22721 71
22646 22647 19
22646 22605 8
22647 22646 19
22647 22685 49
22647 22704 73
22648 22602 32
22648 22632 28
22648 22670 16
22649 22638 18
22650 22631 37
22650 22658 23
22650 22792 120
22651 22626 22
22651 22724 109
22651 22728 68
22652 22644 32
22652 22660 34
22652 22796 115
22653 22551 77
22653 22639 50
22653 22674 44
22653 22784 107
22654 22615 47
22655 22604 53
22655 22624 38
22655 22701 40
22655 22715 72
22656 22583 75
22656 22234 379
22656 23586 1660
22657 22637 31
22658 22554 74
22658 22650 23
22658 22671 15
22659 22587 152
22659 22590 52
22659 22703 95
22660 22652 34
22660 22676 37
22660 22783 99
22661 22615 40
22661 22662 75
22661 22696 28
22661 22709 72
22662 22661 75
22663 22664 5
22663 22664 328
22664 22663 5
22664 22581 190
22664 22663 328
22665 22524 102
22665 22718 80
22666 22624 38
22666 22701 42
22666 22710 42
22667 22668 166
22668 22667 166
22668 22604 72
22668 22691 30
22668 22715 50
22669 22544 84
22669 22543 96
22669 22700 39
22670 22648 16
22671 22658 15
22671 22679 16
22671 22814 117
22672 22593 95
22672 22710 67
22672 22727 52
22673 22552 85
22674 22525 109
22674 22653 44
22674 22683 30
22674 22929 191
22675 22519 112
22676 22660 37
22676 22688 29
22676 22768 77
22677 22553 87
22677 22678 24
22677 22690 37
22678 22677 24
22679 22575 75
22679 22671 16
22679 22687 12
22680 22589 65
22680 22619 135
22680 22728 51
22681 22538 107
22681 22735 144
22681 22774 80
22682 22613 49
22683 22523 120
22683 22674 30
22683 22693 36
22683 22931 182
22684 22583 69
22684 22695 213
22684 22848 274
22685 22647 49
22685 22686 59
22685 22776 74
22686 22685 59
22686 22743 53
22687 22679 12
22687 22694 15
22687 22824 112
22688 22607 55
22688 22676 29
22688 22706 17
22689 22546 113
22689 22861 169
22689 22861 139
22690 22571 88
22690 22677 37
22690 22699 36
22690 22722 32
22691 22692 163
22691 22668 30
22691 22708 26
22692 22691 163
22693 22534 119
22693 22683 36
22693 22713 52
22694 22586 80
22694 22687 15
22694 22702 16
22695 22492 150
22695 22684 213
22695 22848 123
22696 22661 28
22697 22630 58
22697 22718 19
22697 22846 116
22698 22699 77
22699 22698 77
22699 22690 36
22699 22711 37
22699 22752 48
22700 22547 111
22700 22669 39
22700 22721 37
22701 22655 40
22701 22666 42
22701 22729 40
22701 22786 84
22702 22694 16
22702 22714 17
22702 22832 105
22703 22659 95
22703 22638 54
22703 22738 91
22703 22767 54
22704 22647 73
22704 22727 54
22704 22772 56
22705 22633 61
22705 22780 60
22705 22940 264
22706 22688 17
22706 22744 41
22706 22768 73
22707 22708 98
22708 22707 98
22708 22691 26
22708 22741 44
22708 22747 52
22709 22661 72
22709 22825 101
22710 22666 42
22710 22672 67
22710 22761 55
22711 22712 75
22711 22699 37
22711 22730 22
22712 22711 75
22713 22693 52
22713 22720 24
22713 22819 88
22714 22599 85
22714 22702 17
22714 22739 100
22715 22668 50
22715 22655 72
22715 22747 51
22715 22764 53
22716 22512 167
22717 22622 76
22717 22774 116
22717 22833 95
22718 22697 19
22718 22665 80
22718 22902 170
22719 22562 122
22719 22600 96
22719 22785 58
22719 22799 66
22720 22567 116
22720 22713 24
22720 22726 32
22721 22645 71
22721 22700 37
22721 22777 47
22722 22690 32
22722 22723 65
22722 22760 33
22723 22722 65
22724 22651 109
22724 22732 24
22724 22765 37
22725 22600 100
22725 22601 97
22725 22785 48
22725 22849 91
22726 22579 114
22726 22720 32
22726 22737 40
22727 22672 52
22727 22704 54
22727 22761 58
22728 22651 68
22728 22680 51
22728 22854 113
22729 22701 40
22729 22764 32
22729 22812 74
22730 22711 22
22730 22746 34
22731 22610 126
22732 22724 24
22733 22734 53
22733 22765 41
22733 22795 52
22734 22733 53
22735 22681 144
22735 22736 58
22735 22755 33
22735 22839 81
22736 22735 58
22737 22595 113
22737 22726 40
22737 22748 36
22738 22703 91
22738 22773 75
22738 22810 54
22739 22714 100
22739 22758 66
22739 22840 78
22740 22741 101
22741 22740 101
22741 22708 44
22741 22763 30
22741 22887 157
22742 22609 105
22743 22686 53
22744 22706 41
22744 22779 34
22744 22798 65
22745 22746 94
22746 22745 94
22746 22730 34
22746 22756 35
22746 22918 116
22747 22708 52
22747 22715 51
22747 22811 61
22748 22737 36
22748 22886 118
22749 22750 109
22749 22751 18
22749 22771 33
22750 22749 109
22751 22749 18
22752 22699 48
22753 22754 32
22753 22760 14
22753 22868 79
22754 22753 32
22755 22735 33
22755 22545 183
22755 22787 59
22756 22757 96
22756 22746 35
22756 22775 32
22756 22926 113
22757 22756 96
22758 22759 95
22758 22739 66
22758 22769 30
22759 22758 95
22760 22722 33
22760 22753 14
22760 22790 75
22761 22710 55
22761 22727 58
22761 22786 39
22762 22763 35
22763 22762 35
22763 22741 30
22763 22807 43
22764 22715 53
22764 22729 32
22764 22811 42
22764 22829 65
22765 22724 37
22765 22733 41
22765 22817 41
22766 22767 59
22767 22766 59
22767 22703 54
22767 22808 29
22767 22810 88
22768 22706 73
22768 22676 77
22768 22791 19
22769 22770 99
22769 22758 30
22770 22769 99
22771 22749 33
22771 22782 39
22771 22875 75
22772 22704 56
22772 22793 64
22772 22842 54
22773 22738 75
22773 22594 186
22773 22778 16
22774 22717 116
22774 22681 80
22774 22839 96
22774 22876 82
22775 22639 109
22775 22756 32
22775 22784 50
22775 22938 112
22776 22685 74
22777 22644 109
22777 22721 47
22777 22913 103
22778 22773 16
22778 22563 170
22778 22794 56
22778 22850 54
22779 22744 34
22779 22801 26
22780 22781 149
22780 22705 60
22780 22922 92
22781 22780 149
22781 22826 45
22782 22631 122
22782 22771 39
22782 22792 37
22782 22911 87
22783 22660 99
22784 22653 107
22784 22775 50
22784 22957 114
22785 22719 58
22785 22725 48
22785 22820 22
22785 22849 46
22786 22701 84
22786 22761 39
22786 22812 32
22787 22755 59
22787 22580 181
22787 22891 115
22787 22892 75
22788 22789 43
22788 22818 61
22788 22835 34
22789 22788 43
22790 22760 75
22790 22897 72
22791 22768 19
22792 22650 120
22792 22782 37
22792 22814 30
22792 22927 86
22793 22772 64
22794 22778 56
22794 22563 174
22794 22797 10
22794 22890 62
22795 22733 52
22796 22652 115
22797 22794 10
22797 22804 13
22798 22744 65
22799 22719 66
22799 22800 5
22799 22806 31
22800 22799 5
22800 22820 30
22800 22821 14
22801 22779 26
22801 22828 28
22801 22834 40
22802 22803 18
22803 22802 18
22803 22877 69
22804 22805 12
22804 22797 13
22805 22804 12
22805 22833 103
22805 22923 75
22806 22799 31
22806 22813 41
22806 22821 33
22806 22900 66
22807 22763 43
22807 22830 32
22807 22851 45
22808 22809 54
22808 22767 29
22808 22836 26
22809 22808 54
22810 22767 88
22810 22738 54
22810 22850 90
22810 22883 55
22811 22747 61
22811 22764 42
22811 22893 79
22812 22729 74
22812 22786 32
22812 22829 34
22813 22562 188
22813 22806 41
22813 22822 30
22813 22881 51
22814 22671 117
22814 22792 30
22814 22824 32
22814 22937 84
22815 22816 50
22815 22860 37
22816 22815 50
22817 22765 41
22817 22854 32
22817 22860 58
22818 22788 61
22818 22819 10
22818 22862 34
22819 22713 88
22819 22818 10
22819 22867 46
22820 22800 30
22820 22785 22
22820 22831 13
22820 22849 31
22821 22806 33
22821 22800 14
22821 22831 30
22821 22966 97
22822 22823 175
22822 22813 30
22822 22857 32
22823 22822 175
22824 22687 112
22824 22814 32
22824 22832 34
22824 22947 81
22825 22709 101
22825 22863 44
22826 22781 45
22826 22827 23
22826 22899 45
22827 22826 23
22828 22801 28
22828 22871 39
22829 22764 65
22829 22812 34
22829 22893 40
22830 22807 32
22830 22869 33
22830 22888 48
22831 22821 30
22831 22820 13
22831 22849 27
22831 23004 134
22832 22702 105
22832 22824 34
22832 22964 82
22833 22805 103
22833 22717 95
22833 22856 50
22833 22954 75
22834 22801 40
22835 22788 34
22835 22855 34
22835 22944 69
22836 22808 26
22836 22852 10
22836 22883 88
22837 22838 35
22837 22847 66
22837 23123 236
22838 22837 35
22838 22882 46
22838 23099 217
22839 22774 96
22839 22735 81
22839 22892 89
22839 22942 63
22840 22739 78
22840 22841 38
22840 22858 32
22840 22982 92
22841 22840 38
22842 22772 54
22842 22843 86
22842 22896 37
22843 22842 86
22843 22894 46
22844 22845 307
22844 22891 102
22845 22844 307
22846 22697 116
22846 22865 57
22846 22904 37
22847 22837 66
22847 22874 30
22847 22930 66
22848 22695 123
22848 22684 274
22849 22831 27
22849 22820 31
22849 22785 46
22849 22725 91
22849 22617 182
22849 22866 38
22849 23025 145
22850 22810 90
22850 22778 54
22850 22890 76
22850 22935 56
22851 22807 45
22852 22853 55
22852 22836 10
22852 22925 45
22853 22852 55
22854 22817 32
22854 22728 113
22854 22910 58
22854 22950 71
22855 22835 34
22855 22862 28
22855 22873 14
22856 22833 50
22856 22876 55
22856 22999 114
22857 22822 32
22857 22881 43
22857 22903 40
22858 22840 32
22859 22479 365
22859 22934 1593
22859 23621 2954
22860 22815 37
22860 22817 58
22860 22910 36
22860 22917 55
22861 22689 169
22861 22689 139
22861 22903 31
22862 22818 34
22862 22855 28
22862 22884 14
22863 22825 44
22863 22901 50
22863 22917 35
22864 22637 179
22865 22846 57
22865 22879 31
22865 22945 50
22866 22849 38
22866 22623 187
22866 22870 35
22866 23054 165
22867 22819 46
22868 22753 79
22868 22880 34
22868 22885 36
22868 23053 162
22869 22830 33
22869 22898 27
22869 22989 113
22870 22866 35
22870 22634 181
22870 22872 34
22870 23072 179
22871 22828 39
22872 22870 34
22872 22636 180
22872 22904 124
22872 22993 91
22873 22855 14
22873 22884 30
22873 22932 33
22874 22847 30
22874 22885 124
22874 22979 86
22875 22771 75
22876 22856 55
22876 22774 82
22876 22912 67
22876 22943 41
22877 22878 18
22877 22803 69
22878 22877 18
22879 22865 31
22879 22889 30
22879 22976 64
22880 22868 34
22880 22897 50
22880 23074 173
22881 22857 43
22881 22813 51
22881 22900 32
22882 22838 46
22882 22913 65
22882 23064 165
22883 22836 88
22883 22810 55
22883 22935 88
22883 22969 53
22884 22862 14
22884 22873 30
22884 22907 29
22885 22868 36
22885 22874 124
22885 23046 140
22886 22748 118
22886 22911 53
22886 23005 93
22887 22741 157
22888 22830 48
22889 22879 30
22889 22902 27
22889 22996 82
22890 22850 76
22890 22794 62
22890 22908 10
22891 22787 115
22891 22844 102
22892 22839 89
22892 22787 75
22892 22952 90
22892 22990 76
22893 22811 79
22893 22829 40
22893 22984 64
22894 22843 46
22894 22895 78
22894 22933 73
22895 22894 78
22895 22988 158
22896 22842 37
22896 22933 25
22896 23033 116
22897 22790 72
22897 22880 50
22897 22918 42
22898 22869 27
22899 22826 45
22899 22905 34
22900 22881 32
22900 22806 66
22900 22949 34
22901 22863 50
22902 22889 27
22902 22718 170
22902 22921 32
22902 22955 39
22902 23001 85
22903 22861 31
22903 22857 40
22903 22913 7
22903 22939 24
22904 22872 124
22904 22846 37
22904 22909 20
22905 22899 34
22905 22906 76
22905 22915 33
22906 22905 76
22907 22884 29
22907 22936 20
22908 22890 10
22908 22914 11
22908 22983 50
22909 22904 20
22909 22945 36
22910 22860 36
22910 22854 58
22910 22970 56
22911 22782 87
22911 22886 53
22911 22927 42
22911 23010 88
22912 22876 67
22912 22942 40
22912 22973 43
22913 22777 103
22913 22903 7
22913 22882 65
22913 23107 187
22914 22908 11
22914 22924 11
22915 22905 33
22915 22916 73
22915 22919 42
22916 22915 73
22917 22863 35
22917 22860 55
22917 22961 56
22917 22970 43
22918 22746 116
22918 22897 42
22918 22926 37
22919 22915 42
22919 22920 66
22919 22922 39
22920 22919 66
22921 22902 32
22921 22928 29
22921 22955 23
22922 22919 39
22922 22780 92
22922 23225 271
22923 22924 12
22923 22805 75
22923 22954 82
22924 22923 12
22924 22914 11
22925 22852 45
22925 22969 87
22926 22756 113
22926 22918 37
22926 22938 28
22926 23060 140
22927 22792 86
22927 22911 42
22927 22937 27
22927 23009 80
22928 22921 29
22928 22941 37
22928 23023 90
22929 22674 191
22930 22847 66
22931 22683 182
22932 22873 33
22932 22953 58
22932 22956 16
22933 22896 25
22933 22894 73
22933 23026 134
22934 22859 1593
22934 22987 14
22935 22883 88
22935 22850 56
22935 22983 103
22935 22995 55
22936 22907 20
22936 22953 11
22936 22958 42
22937 22814 84
22937 22927 27
22937 22947 31
22937 23012 73
22938 22775 112
22938 22926 28
22938 22957 45
22938 23062 131
22939 22903 24
22939 22980 35
22940 22705 264
22940 22963 20
22940 22971 86
22941 22928 37
22941 23027 89
22942 22912 40
22942 22839 63
22942 22985 41
22942 22990 85
22943 22876 41
22943 22973 60
22943 23041 96
22944 22835 69
22944 22946 30
22944 22956 40
22944 23135 181
22945 22909 36
22945 22865 50
22945 22976 35
22946 22944 30
22946 22951 35
22946 23128 174
22947 22824 81
22947 22937 31
22947 22964 36
22947 23034 88
22948 22949 58
22949 22948 58
22949 22900 34
22949 22966 34
22950 22854 71
22951 22946 35
22951 22957 49
22951 23111 164
22952 22892 90
22952 23006 138
22952 23018 86
22953 22936 11
22953 22932 58
22953 22972 14
22954 22923 82
22954 22833 75
22954 22977 17
22955 22902 39
22955 22921 23
22955 23014 66
22956 22932 16
22956 22944 40
22956 22965 30
22956 23063 123
22957 22951 49
22957 22784 114
22957 22938 45
22957 23100 150
22958 22936 42
22959 22960 27
22960 22959 27
22960 22974 37
22960 23015 69
22961 22962 18
22961 22917 56
22961 22991 53
22961 23003 58
22962 22961 18
22963 22940 20
22963 23000 45
22964 22832 82
22964 22947 36
22964 22978 60
22964 23024 70
22965 22956 30
22965 22972 28
22965 23080 126
22966 22949 34
22966 22821 97
22966 22998 37
22967 22968 63
22968 22967 63
22969 22925 87
22969 22883 53
22969 22995 90
22969 23008 51
22970 22917 43
22970 22910 56
22970 23003 61
22971 22940 86
22972 22953 14
22972 22965 28
22972 22981 38
22972 23081 121
22973 22943 60
22973 22912 43
22973 22985 38
22973 23011 48
22974 22960 37
22974 22975 24
22974 22994 67
22974 23134 156
22975 22974 24
22976 22945 35
22976 22879 64
22976 22996 40
22977 22954 17
22977 22999 57
22977 23049 86
22978 22964 60
22978 22982 53
22978 23109 135
22979 22874 86
22980 22939 35
22980 22998 75
22980 23002 34
22981 22972 38
22982 22840 92
22982 22978 53
22982 22988 34
22983 22935 103
22983 22908 50
22983 23030 58
22984 22893 64
22984 22989 35
22984 23071 99
22985 22973 38
22985 22942 41
22985 23031 55
22986 22987 1104
22986 22629 28
22987 22986 1104
22987 22934 14
22988 22895 158
22988 22982 34
22988 22997 31
22988 23131 139
22989 22869 113
22989 22984 35
22989 23000 81
22989 23067 85
22990 22942 85
22990 22892 76
22990 23018 67
22990 23061 91
22991 22992 80
22991 22961 53
22991 23016 56
22992 22991 80
22992 23028 91
22993 22872 91
22994 22974 67
22995 22969 90
22995 22935 55
22995 23017 76
22995 23045 55
22996 22976 40
22996 22889 82
22996 23001 22
22996 23019 76
22997 22988 31
22997 23013 80
22997 23042 46
22998 22980 75
22998 22966 37
22998 23004 31
22999 22977 57
22999 22856 114
22999 23041 63
23000 22963 45
23000 22989 81
23000 23007 36
23000 23056 60
23001 22996 22
23001 22902 85
23001 23014 33
23002 22980 34
23002 23029 82
23002 23040 34
23003 22961 58
23003 22970 61
23003 23016 30
23004 22998 31
23004 22831 134
23004 23035 30
23005 22886 93
23005 23010 29
23005 23069 69
23006 22952 138
23007 23000 36
23008 22969 51
23008 23045 92
23009 22927 80
23010 22911 88
23010 23005 29
23010 23022 37
23011 22973 48
23011 23031 36
23011 23057 57
23012 22937 73
23013 22997 80
23013 23026 61
23013 23055 49
23014 23001 33
23014 22955 66
23014 23023 32
23015 22960 69
23016 22991 56
23016 23003 30
23016 23112 166
23017 22995 76
23017 23030 45
23017 23068 53
23018 22990 67
23018 22952 86
23018 23048 96
23018 23102 86
23019 23020 48
23019 22996 76
23019 23044 87
23020 23019 48
23021 22434 534
23022 23010 37
23022 23032 31
23022 23084 63
23023 23014 32
23023 22928 90
23023 23027 34
23024 22964 70
23025 22849 145
23026 22933 134
23026 23013 61
23026 23033 106
23026 23085 57
23027 23023 34
23027 22941 89
23027 23037 34
23028 22992 91
23028 23155 397
23029 23002 82
23030 23017 45
23030 22983 58
23030 23049 85
23030 23087 56
23031 23011 36
23031 22985 55
23031 23039 12
23032 23022 31
23032 23036 7
23033 22896 116
23033 23026 106
23033 23093 57
23034 22947 88
23035 23004 30
23036 23032 7
23036 23043 38
23036 23101 62
23037 23027 34
23037 23038 83
23038 23037 83
23039 23031 12
23039 23061 63
23039 23094 57
23040 23002 34
23040 23052 59
23040 23108 64
23041 22999 63
23041 22943 96
23041 23057 44
23042 22997 46
23042 23055 80
23042 23139 86
23043 23036 38
23043 23047 33
23043 23110 62
23044 23019 87
23044 23073 35
23045 23008 92
23045 22995 55
23045 23068 80
23045 23129 69
23046 22885 140
23047 23043 33
23047 23136 72
23048 23018 96
23048 23103 91
23048 23177 109
23049 23030 85
23049 22977 86
23050 23051 113
23050 23058 32
23050 23064 40
23051 23050 113
23052 23040 59
23053 22868 162
23054 22866 165
23055 23013 49
23055 23042 80
23055 23078 18
23056 23000 60
23056 23067 78
23056 23161 80
23057 23041 44
23057 23011 57
23057 23094 51
23058 23050 32
23058 23059 120
23058 23107 48
23059 23058 120
23060 22926 140
23061 23039 63
23061 22990 91
23061 23147 70
23062 22938 131
23063 22956 123
23063 23080 35
23063 23096 27
23064 22882 165
23064 23050 40
23064 23099 36
23065 23066 28
23065 23074 46
23066 23065 28
23066 23079 57
23067 23056 78
23067 22989 85
23067 23071 52
23067 23158 69
23068 23045 80
23068 23017 53
23068 23087 60
23068 23121 37
23069 23005 69
23069 23070 30
23069 23086 15
23070 23069 30
23071 23067 52
23071 22984 99
23071 23159 69
23072 22870 179
23073 23044 35
23073 23144 53
23073 23145 57
23074 22880 173
23074 23065 46
23074 23100 100
23075 23076 14
23075 23122 90
23076 23075 14
23076 23077 46
23076 23117 32
23077 23076 46
23078 23055 18
23078 23085 77
23078 23156 61
23079 23066 57
23079 23162 66
23079 23199 120
23080 22965 126
23080 23063 35
23080 23090 23
23081 22972 121
23081 23090 14
23081 23339 413
23082 23083 107
23082 23122 108
23083 23082 107
23083 23132 35
23084 23022 63
23084 23101 37
23084 23120 23
23085 23026 57
23085 23078 77
23085 23093 107
23085 23166 58
23086 23069 15
23086 23120 75
23086 23165 58
23087 23068 60
23087 23030 56
23087 23104 12
23088 23089 67
23089 23088 67
23089 23098 32
23089 23151 45
23090 23081 14
23090 23080 23
23090 23119 28
23091 23092 58
23091 23133 38
23092 23091 58
23092 23114 166
23092 23148 42
23093 23033 57
23093 23085 107
23093 23095 26
23093 23170 57
23094 23057 51
23094 23039 57
23094 23147 61
23095 23093 26
23096 23063 27
23096 23119 45
23096 23154 45
23097 23098 70
23098 23097 70
23098 23089 32
23098 23106 25
23098 23167 51
23099 22838 217
23099 23064 36
23099 23124 24
23099 23140 33
23100 22957 150
23100 23074 100
23100 23111 44
23101 23036 62
23101 23084 37
23101 23110 34
23101 23187 81
23102 23018 86
23102 23177 114
23102 23209 99
23103 23048 91
23103 23134 120
23103 23227 107
23104 23087 12
23105 23106 69
23106 23105 69
23106 23098 25
23106 23116 30
23106 23183 65
23107 23058 48
23107 22913 187
23107 23108 12
23107 23215 117
23108 23107 12
23108 23040 64
23108 23122 22
23108 23261 149
23109 22978 135
23109 23131 70
23109 23195 76
23110 23043 62
23110 23101 34
23110 23136 39
23110 23196 80
23111 22951 164
23111 23100 44
23111 23128 31
23112 23113 38
23112 23016 166
23112 23391 612
23113 23112 38
23114 23092 166
23114 23130 45
23114 23172 45
23115 23116 71
23116 23115 71
23116 23106 30
23116 23127 29
23116 23210 85
23117 23076 32
23117 23118 89
23117 23173 51
23118 23117 89
23119 23090 28
23119 23096 45
23119 23153 38
23120 23084 23
23120 23086 75
23120 23182 59
23121 23068 37
23122 23108 22
23122 23082 108
23122 23075 90
23123 22837 236
23124 23099 24
23124 23125 32
23124 23178 70
23125 23124 32
23126 23127 67
23127 23126 67
23127 23116 29
23127 23138 29
23127 23202 75
23128 22946 174
23128 23111 31
23128 23135 36
23129 23045 69
23129 23217 41
23130 23114 45
23130 23278 132
23131 22988 139
23131 23109 70
23131 23139 56
23132 23083 35
23132 23173 118
23132 23174 39
23133 23091 38
23133 23148 60
23133 23180 44
23134 22974 156
23134 23103 120
23134 23146 25
23135 22944 181
23135 23128 36
23135 23154 26
23136 23047 72
23136 23110 39
23136 23186 51
23137 23138 65
23138 23137 65
23138 23127 29
23138 23144 30
23138 23200 64
23139 23042 86
23139 23131 56
23139 23156 60
23139 23221 88
23140 23099 33
23140 23152 16
23140 23220 113
23141 23142 52
23141 23143 19
23141 23149 36
23141 23207 66
23142 23141 52
23143 23141 19
23143 23190 55
23144 23073 53
23144 23138 30
23144 23145 21
23144 23194 55
23145 23073 57
23145 23144 21
23145 23194 68
23146 23134 25
23146 23219 68
23146 23496 665
23147 23094 61
23147 23061 70
23147 23209 77
23148 23133 60
23148 23092 42
23148 23157 57
23148 23188 42
23149 23150 64
23149 23141 36
23149 23165 31
23149 23223 70
23150 23149 64
23151 23089 45
23152 23140 16
23152 23179 33
23152 23262 98
23153 23119 38
23154 23096 45
23154 23135 26
23154 23212 70
23155 22369 1119
23155 23169 176
23155 23028 397
23156 23078 61
23156 23139 60
23156 23166 90
23156 23234 71
23157 23148 57
23157 23164 49
23157 23280 108
23158 23067 69
23158 23159 53
23158 23161 80
23158 23249 81
23159 23158 53
23159 23071 69
23159 23185 100
23159 23304 132
23160 23161 36
23161 23160 36
23161 23056 80
23161 23158 80
23161 23241 72
23162 23079 66
23162 23163 46
23162 23205 44
23163 23162 46
23164 23157 49
23164 23172 56
23164 23277 100
23165 23086 58
23165 23149 31
23165 23175 33
23165 23189 34
23166 23085 58
23166 23156 90
23166 23170 102
23166 23237 65
23167 23098 51
23167 23168 22
23168 23167 22
23169 23155 176
23170 23093 57
23170 23166 102
23170 23171 61
23170 23242 68
23171 23170 61
23172 23164 56
23172 23114 45
23172 23260 81
23173 23117 51
23173 23132 118
23173 23201 33
23174 23132 39
23174 23201 95
23174 23211 37
23175 23176 46
23175 23165 33
23175 23182 35
23176 23175 46
23177 23102 114
23177 23048 109
23177 23193 24
23178 23124 70
23179 23152 33
23179 23197 32
23179 23292 100
23180 23133 44
23180 23188 61
23180 23224 38
23181 22059 7546
23182 23120 59
23182 23175 35
23182 23187 32
23182 23214 30
23183 23106 65
23183 23184 29
23183 23210 31
23184 23183 29
23185 23159 100
23185 23252 95
23185 23316 136
23186 23136 51
23187 23101 81
23187 23182 32
23187 23196 36
23187 23228 31
23188 23180 61
23188 23148 42
23188 23244 43
23189 23165 34
23189 23214 68
23189 23236 35
23190 23143 55
23190 23207 17
23191 23192 25
23191 23283 218
23192 23191 25
23192 23198 54
23192 23321 118
23193 23177 24
23193 23227 69
23193 23266 57
23194 23145 68
23194 23144 55
23194 23200 30
23195 23109 76
23196 23110 80
23196 23187 36
23196 23263 50
23197 23179 32
23197 23215 14
23197 23257 44
23198 23192 54
23198 23208 50
23198 23330 121
23199 23079 120
23199 23218 11
23199 23220 26
23200 23194 30
23200 23138 64
23200 23202 27
23201 23173 33
23201 23174 95
23201 23247 38
23202 23200 27
23202 23127 75
23202 23210 36
23203 23204 71
23203 23212 36
23203 23245 45
23204 23203 71
23205 23162 44
23205 23206 52
23205 23238 26
23206 23205 52
23207 23141 66
23207 23190 17
23207 23223 31
23207 23288 70
23208 23198 50
23208 23216 46
23208 23340 124
23209 23147 77
23209 23102 99
23209 23266 130
23209 23282 62
23210 23202 36
23210 23116 85
23210 23183 31
23211 23174 37
23211 23247 108
23211 23254 34
23212 23154 70
23212 23213 65
23212 23203 36
23213 23212 65
23214 23182 30
23214 23189 68
23214 23228 43
23214 23256 34
23215 23197 14
23215 23107 117
23215 23261 39
23216 23208 46
23216 23217 164
23216 23226 51
23216 23351 128
23217 23216 164
23217 23129 41
23218 23199 11
23218 23271 73
23218 23296 66
23219 23146 68
23219 23272 125
23219 23281 55
23220 23199 26
23220 23140 113
23220 23474 394
23221 23139 88
23221 23222 45
23221 23234 91
23221 23285 60
23222 23221 45
23223 23149 70
23223 23207 31
23223 23236 36
23223 23298 67
23224 23180 38
23224 23244 64
23225 22922 271
23226 23216 51
23226 23233 48
23226 23358 130
23227 23193 69
23227 23103 107
23227 23258 73
23227 23290 58
23228 23187 31
23228 23214 43
23228 23253 19
23229 23230 110
23229 23231 38
23229 23238 18
23230 23229 110
23231 23232 107
23231 23229 38
23231 23275 55
23232 23231 107
23233 23226 48
23233 23239 47
23233 23341 107
23234 23156 71
23234 23221 91
23234 23237 101
23234 23295 55
23235 22203 2147
23235 23255 19
23235 23299 223
23236 23189 35
23236 23223 36
23236 23248 46
23236 23308 67
23237 23166 65
23237 23234 101
23237 23242 105
23237 23300 55
23238 23229 18
23238 23205 26
23238 23271 39
23239 23233 47
23239 23243 19
23239 23352 109
23240 22197 882
23241 23161 72
23241 23249 71
23241 23319 76
23242 23170 68
23242 23237 105
23242 23252 98
23242 23305 59
23243 23239 19
23243 23284 58
23243 23286 39
23244 23224 64
23244 23188 43
23244 23268 19
23245 23203 45
23245 23246 95
23245 23264 35
23246 23245 95
23247 23201 38
23247 23211 108
23247 23297 48
23248 23236 46
23248 23256 25
23248 23313 62
23249 23241 71
23249 23158 81
23249 23327 76
23250 23251 161
23251 23250 161
23252 23185 95
23252 23242 98
23252 23318 67
23253 23228 19
23254 23211 34
23254 23291 34
23254 23297 127
23255 22434 1785
23255 23235 19
23255 23424 998
23256 23214 34
23256 23248 25
23256 23267 29
23257 23197 44
23258 23227 73
23258 23259 73
23258 23281 68
23258 23314 59
23259 23258 73
23260 23172 81
23260 23278 44
23260 23283 20
23261 23215 39
23261 23108 149
23261 23279 20
23262 23152 98
23263 23196 50
23264 23245 35
23264 23265 114
23264 23269 29
23265 23264 114
23266 23209 130
23266 23193 57
23266 23290 67
23266 23324 61
23267 23256 29
23268 23244 19
23268 23280 49
23268 23299 29
23269 23264 29
23269 23270 127
23269 23273 36
23269 23320 54
23270 23269 127
23271 23238 39
23271 23218 73
23271 23287 43
23272 23219 125
23273 23269 36
23273 23274 128
23273 23275 33
23273 23347 76
23274 23273 128
23275 23273 33
23275 23276 129
23275 23231 55
23275 23293 36
23275 23353 81
23276 23275 129
23277 23164 100
23277 23280 52
23277 23283 57
23278 23260 44
23278 23130 132
23279 23261 20
23279 23474 447
23280 23268 49
23280 23157 108
23280 23277 52
23281 23258 68
23281 23219 55
23281 23301 70
23281 23335 60
23282 23209 62
23282 23302 68
23282 23348 71
23283 23277 57
23283 23260 20
23283 23191 218
23284 23243 58
23285 23221 60
23285 23295 89
23285 23343 66
23286 23243 39
23286 23315 52
23286 23322 39
23287 23271 43
23288 23207 70
23288 23289 40
23288 23298 36
23288 23334 55
23289 23288 40
23290 23266 67
23290 23227 58
23290 23314 74
23290 23345 61
23291 23254 34
23291 23328 130
23291 23336 59
23292 23179 100
23293 23275 36
23293 23294 40
23293 23306 39
23293 23355 66
23294 23293 40
23295 23234 55
23295 23285 89
23295 23300 121
23295 23356 69
23296 23218 66
23296 23317 36
23296 23384 107
23297 23247 48
23297 23254 127
23297 23328 38
23298 23223 67
23298 23288 36
23298 23308 31
23299 23235 223
23299 23268 29
23299 23363 314
23300 23237 55
23300 23295 121
23300 23305 107
23300 23359 65
23301 23281 70
23302 23282 68
23302 23303 33
23302 23324 61
23302 23331 31
23303 23302 33
23304 23159 132
23304 23316 38
23304 23333 36
23305 23242 59
23305 23300 107
23305 23318 80
23305 23364 59
23306 23293 39
23306 23307 56
23306 23309 31
23306 23350 45
23307 23306 56
23308 23236 67
23308 23298 31
23308 23313 38
23308 23354 50
23309 23306 31
23309 23310 52
23310 23309 52
23311 23312 27
23312 23311 27
23312 23326 33
23312 23332 31
23312 23369 64
23313 23248 62
23313 23308 38
23313 23375 75
23314 23290 74
23314 23258 59
23314 23335 70
23314 23368 61
23315 23286 52
23316 23304 38
23316 23185 136
23316 23323 39
23316 23383 86
23317 23296 36
23317 23387 88
23318 23252 67
23318 23305 80
23318 23349 40
23319 23241 76
23319 23327 77
23319 23378 65
23320 23269 54
23321 23192 118
23321 23330 52
23321 23363 42
23322 23286 39
23322 23342 36
23323 23316 39
23323 23329 31
23323 23388 87
23324 23302 61
23324 23266 61
23324 23345 64
23324 23357 36
23325 23326 35
23326 23325 35
23326 23312 33
23326 23334 36
23326 23374 58
23327 23319 77
23327 23249 76
23327 23333 38
23327 23337 11
23328 23297 38
23328 23291 130
23328 23365 55
23329 23323 31
23329 23338 40
23329 23399 88
23330 23321 52
23330 23198 121
23330 23340 50
23331 23302 31
23332 23312 31
23332 23361 44
23333 23327 38
23333 23304 36
23333 23379 66
23334 23288 55
23334 23326 36
23334 23346 37
23334 23382 57
23335 23314 70
23335 23281 60
23335 23373 110
23336 23291 59
23336 23381 137
23337 23327 11
23338 23329 40
23338 23349 45
23338 23418 106
23339 23081 413
23340 23330 50
23340 23208 124
23340 23351 49
23341 23233 107
23341 23352 48
23341 23366 26
23342 23322 36
23343 23285 66
23343 23344 80
23343 23356 96
23343 23389 66
23344 23343 80
23345 23324 64
23345 23290 61
23345 23368 74
23345 23370 28
23346 23334 37
23346 23354 38
23346 23386 55
23347 23273 76
23348 23282 71
23348 23402 44
23349 23338 45
23349 23318 40
23349 23360 26
23350 23306 45
23351 23340 49
23351 23216 128
23351 23358 46
23352 23341 48
23352 23239 109
23352 23400 65
23353 23275 81
23354 23308 50
23354 23346 38
23354 23367 18
23355 23293 66
23356 23295 69
23356 23343 96
23356 23359 138
23356 23395 57
23357 23324 36
23358 23351 46
23358 23226 130
23358 23366 51
23359 23300 65
23359 23356 138
23359 23364 106
23359 23409 64
23360 23349 26
23360 23364 80
23361 23332 44
23361 23362 52
23361 23369 35
23361 23393 47
23362 23361 52
23362 23398 67
23363 23299 314
23363 23321 42
23363 23400 293
23364 23305 59
23364 23359 106
23364 23360 80
23364 23408 60
23365 23328 55
23366 23358 51
23366 23341 26
23367 23354 18
23367 23375 45
23367 23394 42
23368 23345 74
23368 23314 61
23369 23312 64
23369 23361 35
23369 23374 39
23369 23405 52
23370 23345 28
23371 23372 35
23371 23407 51
23372 23371 35
23373 23335 110
23373 23419 68
23374 23326 58
23374 23369 39
23374 23382 36
23374 23410 44
23375 23313 75
23375 23367 45
23375 23426 99
23376 23377 0
23376 23378 0
23376 23433 109
23377 23376 0
23377 23378 0
23377 23380 112
23378 23376 0
23378 23377 0
23378 23319 65
23378 23397 70
23379 23333 66
23379 23390 53
23379 23397 30
23380 23377 112
23380 23385 40
23380 23443 124
23381 23336 137
23382 23334 57
23382 23374 36
23382 23386 37
23382 23413 37
23383 23316 86
23384 23296 107
23384 23387 33
23385 23380 40
23386 23346 55
23386 23382 37
23386 23394 32
23386 23420 47
23387 23384 33
23387 23317 88
23388 23323 87
23389 23343 66
23389 23415 42
23390 23379 53
23390 23403 37
23390 23444 110
23391 23392 206
23391 23112 612
23391 23549 1086
23392 23391 206
23393 23361 47
23394 23367 42
23394 23386 32
23394 23421 48
23395 23356 57
23395 23396 85
23395 23404 63
23395 23427 69
23396 23395 85
23397 23378 70
23397 23379 30
23397 23431 93
23398 23362 67
23398 23426 267
23399 23329 88
23400 23363 293
23400 23352 65
23400 23412 188
23401 23402 29
23401 23445 184
23401 23447 165
23402 23401 29
23402 23348 44
23403 23390 37
23403 23411 37
23403 23448 106
23404 23395 63
23404 23409 72
23404 23434 72
23405 23369 52
23406 23407 42
23407 23406 42
23407 23371 51
23408 23364 60
23408 23409 102
23408 23417 16
23409 23408 102
23409 23359 64
23409 23404 72
23409 23425 46
23410 23374 44
23411 23403 37
23411 23414 26
23411 23451 112
23412 23400 188
23412 23424 81
23412 23440 214
23413 23382 37
23414 23411 26
23414 23418 26
23414 23453 111
23415 23389 42
23415 23416 70
23415 23422 26
23416 23415 70
23417 23408 16
23418 23414 26
23418 23338 106
23418 23455 110
23419 23373 68
23420 23386 47
23421 23394 48
23422 23415 26
23422 23423 71
23422 23429 24
23423 23422 71
23424 23255 998
23424 23412 81
23424 23439 168
23425 23409 46
23426 23375 99
23426 23398 267
23427 23395 69
23427 23428 50
23427 23434 64
23427 23454 63
23428 23427 50
23429 23422 24
23429 23430 69
23429 23435 23
23430 23429 69
23431 23397 93
23431 23432 35
23431 23433 44
23432 23431 35
23432 23444 65
23432 23458 65
23433 23376 109
23433 23431 44
23433 23446 68
23433 23480 121
23434 23404 72
23434 23427 64
23434 23452 48
23435 23429 23
23435 23436 69
23435 23449 26
23436 23435 69
23437 23438 34
23437 23466 67
23438 23437 34
23439 23424 168
23439 23481 325
23439 23606 1028
23440 23412 214
23440 23447 93
23440 23467 210
23441 23442 118
23441 23443 20
23441 23446 13
23442 23441 118
23443 23380 124
23443 23441 20
23443 23533 245
23444 23432 65
23444 23390 110
23444 23448 40
23444 23463 57
23445 23401 184
23445 23447 133
23445 23464 82
23445 23467 76
23446 23441 13
23446 23433 68
23446 23468 58
23447 23440 93
23447 23401 165
23447 23445 133
23448 23444 40
23448 23403 106
23448 23451 34
23448 23507 135
23449 23435 26
23449 23450 72
23449 23456 22
23450 23449 72
23451 23448 34
23451 23411 112
23451 23453 30
23451 23511 130
23452 23434 48
23452 23461 53
23453 23451 30
23453 23414 111
23453 23455 21
23454 23427 63
23455 23453 21
23455 23418 110
23456 23449 22
23456 23457 74
23456 23469 23
23457 23456 74
23458 23432 65
23458 23462 33
23458 23492 76
23459 23460 80
23460 23459 80
23460 23461 15
23460 23471 26
23461 23452 53
23461 23460 15
23461 23477 110
23462 23458 33
23462 23463 32
23462 23494 75
23463 23462 32
23463 23444 57
23463 23500 75
23464 23445 82
23464 23490 153
23464 23501 198
23465 23466 34
23466 23465 34
23466 23437 67
23467 23440 210
23467 23445 76
23467 23501 275
23468 23446 58
23468 23480 47
23468 23504 79
23469 23456 23
23469 23470 71
23469 23473 43
23469 23475 25
23470 23469 71
23471 23460 26
23471 23472 76
23471 23478 24
23471 23491 130
23472 23471 76
23473 23469 43
23474 23220 394
23474 23279 447
23475 23469 25
23475 23476 68
23475 23483 42
23475 23486 23
23476 23475 68
23477 23461 110
23477 23491 28
23478 23471 24
23478 23479 70
23478 23488 24
23478 23505 129
23479 23478 70
23480 23468 47
23480 23433 121
23480 23484 59
23480 23508 55
23481 23439 325
23481 23482 18
23481 23512 60
23482 23481 18
23482 23495 89
23482 23506 48
23483 23475 42
23484 23480 59
23484 23485 73
23484 23492 32
23484 23527 99
23485 23484 73
23486 23475 23
23486 23487 68
23486 23493 39
23486 23498 25
23487 23486 68
23488 23478 24
23488 23489 69
23488 23502 26
23488 23516 127
23489 23488 69
23490 23464 153
23490 23522 72
23491 23477 28
23491 23471 130
23491 23505 24
23492 23484 32
23492 23458 76
23492 23494 33
23492 23530 96
23493 23486 39
23494 23492 33
23494 23462 75
23494 23500 34
23494 23531 98
23495 23482 89
23495 23510 60
23495 23624 1348
23496 23146 665
23496 23497 253
23496 23567 528
23497 23496 253
23498 23486 25
23498 23499 70
23498 23509 35
23498 23514 25
23499 23498 70
23500 23494 34
23500 23463 75
23500 23507 42
23500 23532 97
23501 23467 275
23501 23464 198
23501 23618 1204
23502 23488 26
23502 23503 73
23502 23517 26
23502 23521 112
23503 23502 73
23504 23468 79
23504 23508 47
23504 23524 47
23505 23491 24
23505 23478 129
23505 23516 24
23506 23482 48
23506 23510 12
23506 23512 36
23507 23500 42
23507 23448 135
23507 23511 29
23507 23535 95
23508 23504 47
23508 23480 55
23508 23513 30
23508 23525 45
23509 23498 35
23510 23506 12
23510 23495 60
23510 23522 138
23511 23507 29
23511 23451 130
23511 23537 96
23512 23481 60
23512 23506 36
23512 23543 373
23513 23508 30
23514 23498 25
23514 23515 71
23514 23519 22
23515 23514 71
23516 23505 24
23516 23488 127
23517 23502 26
23517 23518 74
23517 23523 23
23517 23526 96
23518 23517 74
23519 23514 22
23519 23520 64
23520 23519 64
23521 23502 112
23522 23510 138
23522 23490 72
23523 23517 23
23524 23504 47
23524 23525 34
23524 23534 52
23525 23524 34
23525 23508 45
23525 23527 66
23525 23536 52
23526 23517 96
23527 23525 66
23527 23484 99
23527 23530 29
23527 23540 53
23528 23529 358
23529 23528 358
23529 23538 55
23529 23542 93
23530 23527 29
23530 23492 96
23530 23531 32
23530 23545 95
23531 23530 32
23531 23494 98
23531 23532 36
23531 23548 91
23532 23531 36
23532 23500 97
23532 23535 37
23532 23550 92
23533 23443 245
23533 23592 366
23534 23524 52
23534 23536 32
23534 23541 48
23535 23532 37
23535 23507 95
23535 23537 34
23535 23554 92
23536 23534 32
23536 23525 52
23536 23540 65
23536 23544 53
23537 23535 34
23537 23511 96
23537 23555 92
23538 23529 55
23538 23539 20
23538 23546 90
23539 23538 20
23540 23536 65
23540 23527 53
23541 23534 48
23541 23544 34
23541 23556 61
23542 23529 93
23543 23512 373
23544 23541 34
23544 23536 53
23544 23545 81
23544 23557 55
23545 23544 81
23545 23530 95
23545 23548 33
23546 23538 90
23546 23547 0
23546 23596 415
23546 23596 667
23547 23546 0
23548 23545 33
23548 23531 91
23548 23550 33
23549 23391 1086
23550 23548 33
23550 23532 92
23550 23554 37
23551 23552 68
23552 23551 68
23552 23553 85
23552 23560 50
23552 23562 56
23553 23552 85
23554 23550 37
23554 23535 92
23554 23555 37
23555 23554 37
23555 23537 92
23556 23541 61
23556 23557 41
23556 23572 73
23557 23556 41
23557 23544 55
23557 23558 55
23557 23571 68
23558 23557 55
23558 23559 39
23558 23569 58
23559 23558 39
23560 23552 50
23561 23562 89
23562 23561 89
23562 23552 56
23562 23567 67
23562 23568 53
23563 23564 82
23564 23563 82
23564 23570 55
23564 23575 85
23565 23566 94
23566 23565 94
23567 23496 528
23567 23562 67
23567 23588 187
23568 23562 53
23569 23558 58
23569 23571 58
23570 23564 55
23570 23578 93
23570 23582 122
23571 23557 68
23571 23569 58
23571 23572 35
23571 23584 95
23572 23556 73
23572 23571 35
23572 23585 111
23573 23574 227
23574 23573 227
23574 23579 111
23575 23564 85
23576 23577 879
23577 23576 879
23578 23570 93
23578 23583 30
23579 23574 111
23579 23598 252
23580 23581 84
23580 23584 51
23581 23580 84
23582 23570 122
23582 23588 74
23582 23590 106
23583 23578 30
23583 23587 37
23583 23590 90
23584 23571 95
23584 23580 51
23584 23585 39
23584 23597 137
23585 23572 111
23585 23584 39
23585 23593 89
23586 22656 1660
23587 23583 37
23587 23589 38
23588 23567 187
23588 23582 74
23589 23587 38
23590 23582 106
23590 23583 90
23590 23594 81
23591 23592 219
23591 23608 516
23591 23668 3927
23592 23591 219
23592 23533 366
23593 23585 89
23594 23590 81
23594 23595 29
23594 23600 53
23595 23594 29
23596 23546 415
23596 23546 667
23596 23623 631
23597 23584 137
23598 23579 252
23598 23602 77
23599 23600 131
23600 23599 131
23600 23594 53
23600 23601 74
23601 23600 74
23602 23598 77
23602 23603 550
23602 23604 74
23603 23602 550
23604 23602 74
23604 23605 276
23605 23604 276
23605 23607 143
23605 23631 466
23606 23439 1028
23606 23607 315
23606 23632 291
23607 23605 143
23607 23606 315
23608 23591 516
23608 23615 70
23608 23617 121
23609 23610 143
23610 23609 143
23611 23612 1468
23611 23640 4103
23612 23611 1468
23613 23614 1465
23614 23613 1465
23614 23625 292
23614 23676 4480
23615 23608 70
23615 23616 130
23615 23619 27
23615 23622 109
23616 23615 130
23617 23608 121
23618 23501 1204
23618 23626 145
23618 23624 160
23619 23615 27
23619 23620 122
23619 23627 108
23619 23633 267
23620 23619 122
23621 22859 2954
23621 23636 16
23622 23615 109
23623 23596 631
23624 23495 1348
23624 23618 160
23624 23630 120
23625 23614 292
23626 23618 145
23627 23619 108
23628 23629 104
23629 23628 104
23630 23624 120
23631 23605 466
23632 23606 291
23632 23656 2366
23633 23619 267
23634 22059 2991
23634 23649 21
23635 23636 384
23635 23670 27
23636 23635 384
23636 23621 16
23637 23638 224
23637 23671 33
23638 23637 224
23638 23639 78
23638 23640 198
23639 23638 78
23639 23675 62
23640 23641 3249
23640 23638 198
23640 23611 4103
23641 23640 3249
23641 22185 77
23642 23643 1266
23643 23642 1266
23644 23645 69
23644 23646 116
23644 23648 1654
23645 23644 69
23646 23644 116
23646 23647 141
23646 23655 787
23647 23646 141
23648 23649 896
23648 23644 1654
23648 23658 568
23649 23648 896
23649 23634 21
23650 23651 846
23651 23650 846
23651 23652 337
23651 23664 1615
23652 23651 337
23653 23654 303
23653 23657 515
23653 23659 506
23654 23653 303
23655 23646 787
23656 23632 2366
23657 23653 515
23658 23648 568
23658 23663 400
23658 23663 284
23659 23653 506
23660 23661 678
23661 23660 678
23661 23662 767
23661 23687 1519
23662 23661 767
23663 23658 400
23663 23658 284
23663 23680 700
23664 23651 1615
23664 23678 848
23665 23666 1231
23666 23665 1231
23667 23668 334
23667 23672 1762
23668 23667 334
23668 23591 3927
23669 23670 3006
23669 23671 2725
23669 23673 396
23670 23669 3006
23670 23635 27
23671 23669 2725
23671 23637 33
23672 23667 1762
23672 23677 1007
23673 23669 396
23674 23675 4150
23675 23674 4150
23675 23639 62
23676 23614 4480
23677 23672 1007
23677 23682 865
23678 23664 848
23678 23679 254
23678 23688 288
23679 23678 254
23680 23663 700
23680 23683 296
23680 23717 2053
23681 23682 1274
23682 23681 1274
23682 23677 865
23682 23689 374
23683 23680 296
23683 23686 151
23683 23716 2269
23684 23685 440
23684 23713 1854
23685 23684 440
23686 23683 151
23686 23688 453
23687 23661 1519
23687 23688 33
23687 23690 756
23688 23687 33
23688 23678 288
23688 23686 453
23689 23682 374
23689 23696 1344
23690 23691 1845
23690 23687 756
23690 23699 1102
23691 23690 1845
23692 23693 440
23693 23692 440
23693 23694 134
23693 23695 231
23694 23693 134
23695 23693 231
23695 23697 754
23695 23703 730
23696 23689 1344
23696 23701 899
23697 23695 754
23698 23699 1516
23699 23698 1516
23699 23690 1102
23699 23705 356
23700 23701 1194
23701 23700 1194
23701 23696 899
23701 23717 1046
23702 23703 346
23703 23702 346
23703 23695 730
23703 23724 1244
23704 23705 922
23705 23704 922
23705 23699 356
23705 23706 7
23706 23705 7
23706 23707 121
23706 23709 183
23707 23706 121
23707 23708 75
23707 23712 115
23708 23707 75
23709 23706 183
23710 23711 813
23711 23710 813
23711 23712 835
23711 23718 482
23712 23707 115
23712 23711 835
23713 23684 1854
23714 23715 1414
23715 23714 1414
23716 23683 2269
23717 23680 2053
23717 23701 1046
23717 23719 118
23717 23725 1015
23718 23711 482
23719 23717 118
23719 23730 1605
23719 23734 818
23720 23721 475
23721 23720 475
23721 23722 981
23721 23723 1407
23721 23728 230
23722 23721 981
23723 23721 1407
23724 23703 1244
23724 23726 162
23724 23735 600
23725 23717 1015
23726 23724 162
23726 23727 76
23726 23743 1056
23727 23726 76
23728 23721 230
23728 23729 52
23728 23731 472
23729 23728 52
23730 23719 1605
23731 23728 472
23732 23733 221
23733 23732 221
23733 23735 454
23734 23719 818
23734 23737 938
23734 23744 1345
23735 23733 454
23735 23724 600
23735 23736 244
23736 23735 244
23736 23739 218
23736 23742 417
23737 23734 938
23738 23739 305
23739 23738 305
23739 23736 218
23739 23746 418
23740 23741 196
23741 23740 196
23742 23736 417
23743 23726 1056
23744 23734 1345
23744 23745 91
23744 23745 110
23745 23744 91
23745 23744 110
23745 23747 232
23746 23739 418
23746 23747 103
23746 23748 63
23747 23745 232
23747 23746 103
23747 23749 116
23748 23746 63
23749 23747 116
23750 23751 566
23751 23750 566
23752 1104 123
23753 23754 187
23754 23753 187
23755 2249 101
23755 2387 25
23755 2431 60
23756 2496 21
23756 2380 120
23756 2565 144
23756 23758 144
23757 2541 217
23757 2723 217
23757 2025 583
23758 2602 31
23758 2565 144
23758 23756 144
23758 2661 43
23759 2811 315
23759 2957 315
23759 2868 185
23760 3613 12
23760 23761 46
23760 23762 12
23761 23760 46
23762 3622 10
23762 23760 12
23762 23763 131
23763 23762 131
23764 4019 33
23764 4022 38
23764 4203 55
23765 4137 25
23765 4135 54
23765 23766 11
23766 4142 25
23766 23765 11
23766 4146 131
23766 4159 131
23766 4172 131
23767 4147 97
23768 4267 325
23768 4304 325
23768 4287 29
23769 4762 184
23769 4856 170
23769 4891 379
23769 4922 379
23770 4949 70
23770 4950 70
23770 4872 70
23771 5636 11
23771 5641 11
23771 23772 11
23772 23771 11
23772 23773 158
23772 5673 23
23773 23772 158
23774 23775 224
23774 5578 192
23774 23777 139
23775 5260 401
23775 5593 401
23775 23774 224
23776 5638 243
23776 23780 119
23776 5891 240
23777 23778 88
23777 23774 139
23777 5705 159
23778 5650 93
23778 5655 93
23778 23777 88
23779 5381 347
23779 5691 347
23779 5686 28
23780 23776 119
23780 5700 69
23780 5740 170
23781 6848 12
23781 6857 15
23782 6839 26
23782 6858 12
23783 6687 281
23783 7127 169
23784 23785 56
23784 23790 50
23785 23784 56
23786 7065 131
23786 23800 245
23787 7223 122
23787 23788 122
23787 23789 103
23787 23790 28
23787 23795 45
23788 6733 783
23788 7545 783
23788 7223 122
23788 23787 122
23789 23787 103
23790 23784 50
23790 23787 28
23790 23792 49
23791 23792 37
23792 23791 37
23792 23790 49
23792 23794 12
23793 23794 38
23794 23793 38
23794 23792 12
23794 7707 285
23794 23797 285
23795 23787 45
23795 7216 156
23795 7351 126
23796 7221 165
23796 7355 117
23796 7390 78
23797 7170 172
23797 7707 285
23797 23794 285
23797 23798 12
23797 7905 107
23798 7164 179
23798 23797 12
23798 7445 308
23798 23799 308
23798 7712 101
23799 7369 171
23799 7382 171
23799 7445 308
23799 23798 308
23800 23786 245
23800 7928 136
23801 7756 54
23802 7680 177
23802 7820 177
23802 7765 28
23803 8044 173
23803 8247 173
23803 8400 256
23804 8596 7
23804 8477 63
23804 8600 7
23804 9026 264
23805 23806 45
23806 23805 45
23807 8833 73
23807 8860 73
23807 8796 47
23808 9159 4
23808 9182 9
23808 9184 40
23808 9236 40
23809 9106 194
23809 9489 35
23809 9604 113
23810 9464 115
23810 9632 115
23810 9523 27
23811 23812 46
23812 23811 46
23813 9820 106
23813 9994 106
23813 9820 106
23813 9994 106
23813 10090 105
23814 23815 413
23815 23814 413
23816 11773 27
23817 11788 46
23818 11804 128
23818 11875 128
23818 23819 28
23819 11773 162
23819 11826 162
23819 23818 28
23820 23821 12
23821 23820 12
23821 23826 40
23822 23823 25
23822 23829 56
23823 23822 25
23824 23825 179
23825 11801 354
23825 11802 354
23825 23824 179
23826 23821 40
23826 23827 8
23827 23826 8
23828 23829 58
23829 23828 58
23829 23822 56
23829 23830 54
23829 23831 116
23830 23829 54
23831 23829 116
23832 23833 125
23833 23832 125
23834 13271 45
23835 23836 9
23835 13355 101
23836 23835 9
23836 13264 97
23837 23838 48
23838 23837 48
23839 13335 130
23839 13516 2
23839 23841 12
23839 23842 13
23840 13518 6
23840 13333 134
23840 23841 10
23840 23845 13
23841 23840 10
23841 23839 12
23841 23843 10
23841 23846 9
23842 23839 13
23842 13500 54
23842 23843 2
23842 23844 2
23843 23841 10
23843 23842 2
23843 23844 1
23843 23848 9
23844 23843 1
23844 23842 2
23844 23849 14
23844 13553 35
23845 13535 34
23845 23840 13
23845 23846 1
23845 23847 2
23846 23845 1
23846 23841 9
23846 23847 1
23846 23848 10
23847 23845 2
23847 23846 1
23847 23850 15
23847 13603 31
23848 23846 10
23848 23843 9
23848 23849 11
23848 23850 13
23849 23848 11
23849 23844 14
23849 13593 7
23849 13816 128
23850 23847 15
23850 23848 13
23850 13601 2
23850 13823 128
23851 23852 39
23852 23851 39
23853 14437 69
23853 14449 69
23853 23854 1
23854 23853 1
23855 14867 146
23855 15060 146
23855 23856 13
23856 23855 13
23857 23858 118
23858 23857 118
23859 15401 227
23859 15451 227
23859 15454 227
23860 15749 138
23861 15828 50
23861 23862 50
23862 15828 50
23862 23861 50
23863 17399 26
23863 17400 26
23863 17292 129
23864 19762 301
23864 20190 301
23864 20411 255
23865 20518 691
23865 20955 691
23865 20703 124
23866 23867 51
23867 23866 51
23868 23869 29
23869 23868 29
23870 21925 85
23871 21936 103
23872 22009 65
23873 22021 61
23874 22021 16
23875 23876 83
23876 23875 83
23877 23878 84
23878 23877 84
23879 23880 44
23880 23879 44
23881 4153 99
23881 4197 76
23881 23882 132
23882 4263 265
23882 4277 265
23882 23881 132
23883 13402 326
23883 23884 326
23884 13402 326
23884 23883 326
23885 23886 2
23886 14107 31
23886 14150 31
23886 23885 2
