13894 38712
0 1 554
0 13481 67
1 0 554
1 7 649
2 3 559
2 10 649
3 2 559
3 13482 64
4 5 215
5 4 215
5 6 105
5 11 855
6 5 105
7 8 546
7 1 649
8 7 546
8 14 150
9 10 545
9 17 150
10 9 545
10 2 649
11 5 855
12 13 1545
13 12 1545
13 46 3714
13 46 3705
14 15 1398
14 8 150
15 14 1398
15 20 282
16 17 1397
16 23 270
17 16 1397
17 9 150
18 19 351
19 18 351
19 24 1855
19 29 2719
20 21 607
20 15 282
21 20 607
21 32 74
22 23 615
22 35 71
23 22 615
23 16 270
24 19 1855
24 51 3108
24 55 8642
25 26 1509
26 25 1509
26 30 2429
26 49 1543
27 28 52
27 31 4450
27 31 4677
28 27 52
29 19 2719
29 40 104
30 26 2429
30 31 193
31 27 4450
31 30 193
31 27 4677
31 80 2933
32 33 4430
32 21 74
33 32 4430
33 36 188
33 37 186
34 35 4436
34 38 182
34 42 288
35 34 4436
35 22 71
36 33 188
36 37 9
36 41 459
36 47 511
37 33 186
37 36 9
37 38 17
37 47 369
38 34 182
38 37 17
38 42 202
38 48 371
39 40 381
39 42 229
39 45 67
40 39 381
40 29 104
41 36 459
41 43 82
42 34 288
42 38 202
42 39 229
43 44 171
43 41 82
44 43 171
44 45 243
44 48 497
45 39 67
45 44 243
45 69 2311
46 13 3714
46 13 3705
46 58 1702
47 37 369
47 36 511
47 51 1075
48 44 497
48 38 371
48 52 1092
49 50 1108
49 26 1543
49 80 3676
50 49 1108
51 47 1075
51 24 3108
51 52 24
51 53 1288
52 48 1092
52 51 24
52 54 1279
52 68 1321
53 51 1288
53 59 377
54 52 1279
54 62 377
55 24 8642
55 56 8118
55 122 4289
56 55 8118
57 58 5044
58 57 5044
58 46 1702
58 94 5316
58 131 6665
59 60 585
59 53 377
60 59 585
60 121 528
61 62 591
61 119 525
62 61 591
62 54 377
63 64 311
64 63 311
64 65 291
64 66 132
64 72 183
65 64 291
66 64 132
66 67 116
66 68 84
66 73 187
67 66 116
68 66 84
68 52 1321
68 74 189
69 45 2311
69 70 623
69 86 498
70 69 623
70 71 487
70 79 180
71 70 487
71 72 340
71 96 700
72 71 340
72 64 183
72 73 133
72 82 285
73 72 133
73 66 187
73 74 76
73 75 134
74 73 76
74 68 189
74 104 792
75 73 134
76 77 48
77 76 48
77 78 108
77 79 117
77 81 125
78 77 108
79 70 180
79 77 117
79 95 459
80 31 2933
80 49 3676
80 87 407
80 87 346
81 77 125
82 72 285
83 84 55
84 83 55
84 85 78
84 86 214
84 94 152
85 84 78
86 84 214
86 69 498
86 93 119
87 80 407
87 80 346
87 124 3896
87 125 5729
88 89 137
88 90 93
88 92 77
88 98 163
89 88 137
90 88 93
90 95 362
90 97 157
91 92 118
92 91 118
92 88 77
92 93 80
92 99 165
93 86 119
93 92 80
93 94 204
93 100 168
94 84 152
94 93 204
94 58 5316
95 90 362
95 79 459
95 96 457
95 105 177
96 95 457
96 71 700
96 104 383
96 108 178
97 90 157
97 98 92
97 105 339
98 88 163
98 97 92
98 99 78
98 109 160
99 92 165
99 98 78
99 100 82
99 107 130
100 93 168
100 99 82
100 101 80
100 112 1281
101 102 114
101 100 80
101 103 69
101 106 111
102 101 114
103 101 69
104 96 383
104 74 792
104 117 7243
105 97 339
105 95 177
105 108 454
105 112 1301
106 101 111
107 99 130
108 105 454
108 96 178
108 110 192
108 111 49
109 98 160
110 108 192
111 108 49
112 100 1281
112 105 1301
112 149 6856
113 114 4184
114 113 4184
114 115 192
114 124 12503
115 116 592
115 114 192
115 123 949
116 115 592
117 104 7243
117 118 523
118 117 523
118 119 5590
118 120 32
118 741 28300
119 118 5590
119 61 525
120 118 32
120 121 5626
120 122 2457
120 740 28276
121 120 5626
121 60 528
122 120 2457
122 55 4289
122 123 3153
122 126 4969
123 122 3153
123 115 949
123 126 2098
124 114 12503
124 87 3896
124 125 1019
124 130 1985
125 124 1019
125 87 5729
125 130 1425
126 122 4969
126 123 2098
126 198 13494
127 128 277
127 129 752
127 204 11621
128 127 277
129 127 752
129 132 1086
129 132 1300
130 124 1985
130 125 1425
130 133 1454
130 174 6917
131 58 6665
132 129 1086
132 129 1300
132 134 768
133 130 1454
133 198 7172
134 132 768
135 136 56
136 135 56
137 138 292
137 141 353
137 151 1701
138 137 292
139 140 325
140 139 325
140 142 408
141 137 353
141 142 78
141 144 130
142 141 78
142 140 408
142 143 43
143 142 43
143 145 153
143 146 274
144 141 130
145 143 153
146 143 274
147 148 3348
147 150 89
148 147 3348
149 112 6856
149 150 1580
149 157 1577
150 149 1580
150 147 89
151 137 1701
151 174 4880
152 153 3397
153 152 3397
153 154 2104
153 156 2082
154 153 2104
155 156 4125
156 155 4125
156 153 2082
156 160 1780
157 149 1577
157 162 130
158 159 58
159 158 58
159 173 4665
159 187 1096
160 156 1780
161 162 1248
161 163 74
162 161 1248
162 157 130
163 164 41
163 161 74
164 163 41
164 165 81
164 179 276
165 164 81
165 166 147
165 180 242
166 165 147
166 167 242
166 168 309
166 181 221
167 166 242
168 166 309
168 169 339
168 170 163
169 168 339
170 168 163
170 171 203
170 172 348
170 183 237
171 170 203
172 170 348
172 173 88
173 159 4665
173 172 88
174 130 6917
174 151 4880
174 191 1691
174 208 5142
175 176 15
176 175 15
176 177 68
176 184 332
177 176 68
177 178 230
177 179 71
177 185 328
178 177 230
179 177 71
179 164 276
179 180 73
179 186 325
180 179 73
180 165 242
180 181 144
180 182 73
181 180 144
181 166 221
181 183 506
181 186 528
182 180 73
183 181 506
183 170 237
183 197 1564
184 176 332
184 185 71
184 188 738
185 184 71
185 177 328
185 186 70
186 185 70
186 179 325
186 181 528
186 203 1945
187 159 1096
188 184 738
188 190 41
189 190 133
190 189 133
190 188 41
191 174 1691
191 201 485
191 202 1329
192 193 138
192 194 107
192 195 106
192 199 160
193 192 138
194 192 107
195 192 106
195 196 71
195 197 90
195 200 267
196 195 71
197 195 90
197 183 1564
197 200 166
198 126 13494
198 133 7172
198 201 4279
199 192 160
200 195 267
200 197 166
200 210 4506
201 198 4279
201 191 485
201 202 1100
202 201 1100
202 191 1329
202 221 2178
203 186 1945
204 127 11621
204 205 94
204 211 248
205 204 94
205 206 68
205 214 212
206 205 68
206 207 69
206 215 210
207 206 69
207 209 69
207 216 212
208 174 5142
208 223 2098
208 276 759
209 207 69
209 217 205
210 200 4506
210 229 62
211 204 248
211 212 159
211 222 241
212 211 159
212 213 124
212 214 68
212 230 218
213 212 124
214 212 68
214 205 212
214 215 65
214 232 217
215 214 65
215 206 210
215 216 66
215 235 217
216 215 66
216 207 212
216 217 70
216 239 216
217 216 70
217 209 205
217 218 58
217 240 216
218 217 58
218 219 42
218 220 193
218 242 216
219 218 42
220 218 193
221 202 2178
221 276 647
221 284 906
222 211 241
222 230 247
222 254 258
223 208 2098
223 224 62
223 255 211
224 223 62
224 225 58
224 257 215
225 224 58
225 226 58
225 259 218
226 225 58
226 231 99
226 261 221
227 228 926
228 227 926
228 229 263
228 233 86
228 243 111
229 228 263
229 210 62
230 222 247
230 212 218
230 232 70
230 245 122
231 226 99
231 236 141
231 236 204
232 230 70
232 214 217
232 235 62
232 249 121
233 228 86
233 234 73
233 237 53
233 248 113
234 233 73
235 232 62
235 215 217
235 239 70
235 274 308
236 231 141
236 231 204
236 254 335
237 233 53
237 238 137
237 246 305
237 253 113
238 237 137
239 235 70
239 216 216
239 240 69
239 241 25
240 239 69
240 217 216
240 242 58
240 250 83
241 239 25
242 240 58
242 218 216
242 244 151
242 252 78
243 228 111
243 248 83
243 275 249
244 242 151
245 230 122
246 237 305
246 247 56
246 262 97
247 246 56
247 251 54
247 263 97
248 243 83
248 233 113
248 253 50
249 232 121
250 240 83
251 247 54
251 265 96
252 242 78
253 248 50
253 237 113
253 258 107
253 260 42
254 236 335
254 222 258
254 266 232
254 269 191
255 256 530
255 223 211
255 257 59
255 264 78
256 255 530
257 255 59
257 224 215
257 259 59
257 268 105
258 253 107
259 257 59
259 225 218
259 261 62
259 270 103
260 253 42
261 259 62
261 226 221
261 269 455
261 278 203
262 246 97
262 263 55
262 271 71
263 262 55
263 247 97
263 265 56
263 272 74
264 255 78
265 263 56
265 251 96
265 267 72
265 273 73
266 254 232
266 274 264
266 292 842
267 265 72
268 257 105
269 261 455
269 254 191
269 286 912
270 259 103
271 262 71
272 263 74
272 281 275
273 265 73
274 266 264
274 235 308
274 277 27
274 298 1569
275 243 249
275 280 116
275 281 553
276 221 647
276 208 759
276 282 412
276 284 435
277 274 27
278 261 203
279 280 723
280 279 723
280 275 116
280 288 584
281 275 553
281 272 275
281 285 387
282 276 412
282 283 704
282 294 585
282 317 1644
283 282 704
284 221 906
284 276 435
284 316 980
285 281 387
286 269 912
286 287 371
286 299 515
287 286 371
287 292 535
287 303 441
288 280 584
288 289 1015
288 369 1756
289 288 1015
289 290 44
289 296 154
290 289 44
290 291 1534
290 293 74
291 290 1534
292 287 535
292 266 842
292 295 384
292 305 379
293 290 74
294 282 585
294 297 227
294 304 1459
295 292 384
295 298 922
295 332 679
296 289 154
297 294 227
297 311 1347
297 317 420
298 295 922
298 274 1569
298 336 581
299 286 515
299 303 498
299 304 34
300 301 594
301 300 594
301 302 587
301 307 95
302 301 587
303 299 498
303 287 441
303 305 517
303 325 353
304 294 1459
304 299 34
304 311 183
305 303 517
305 292 379
305 306 143
305 328 336
306 305 143
307 301 95
307 308 187
307 378 1415
308 307 187
308 309 109
308 310 166
308 312 131
309 308 109
310 308 166
311 297 1347
311 304 183
311 320 145
312 308 131
313 314 327
314 313 327
314 315 96
314 316 59
314 330 148
315 314 96
316 314 59
316 284 980
316 331 148
317 282 1644
317 297 420
317 318 186
317 337 256
317 347 702
318 317 186
318 319 144
318 321 115
318 337 193
319 318 144
320 311 145
320 325 490
320 340 242
321 318 115
321 322 144
321 323 61
321 341 314
322 321 144
323 321 61
323 324 140
323 326 57
323 342 376
324 323 140
325 320 490
325 303 353
325 328 512
325 344 563
326 323 57
326 327 134
326 339 188
326 340 728
327 326 134
328 305 336
328 325 512
328 332 399
328 345 584
329 330 323
330 329 323
330 314 148
330 331 60
330 334 111
331 330 60
331 316 148
331 338 111
332 328 399
332 295 679
332 333 499
332 352 598
333 332 499
333 336 487
333 353 622
334 335 315
334 330 111
334 338 58
335 334 315
336 298 581
336 333 487
336 429 2978
337 317 256
337 318 193
337 341 169
338 334 58
338 331 111
338 368 849
339 326 188
340 326 728
340 320 242
340 343 309
341 337 169
341 321 314
341 342 85
342 341 85
342 323 376
342 346 285
343 340 309
343 344 487
343 374 472
344 343 487
344 325 563
344 345 497
344 385 493
345 344 497
345 328 584
345 352 415
345 386 491
346 342 285
346 351 87
346 366 569
347 317 702
347 348 105
347 354 137
348 347 105
348 349 59
348 355 138
349 348 59
349 350 59
349 356 138
350 349 59
350 351 60
350 357 138
351 350 60
351 346 87
351 358 138
352 345 415
352 332 598
352 353 523
352 388 445
353 352 523
353 333 622
353 389 386
354 347 137
354 355 103
354 360 135
355 354 103
355 348 138
355 356 62
355 361 136
356 355 62
356 349 138
356 357 58
356 362 136
357 356 58
357 350 138
357 358 60
357 363 136
358 357 60
358 351 138
358 359 86
358 364 135
359 358 86
360 354 135
360 361 100
360 384 173
361 360 100
361 355 136
361 362 61
362 361 61
362 356 136
362 363 59
363 362 59
363 357 136
363 364 62
364 363 62
364 358 135
364 365 54
365 364 54
366 346 569
366 367 130
366 376 126
367 366 130
367 374 94
367 382 93
368 338 849
368 377 842
368 415 449
369 288 1756
369 383 356
369 394 178
370 371 1031
370 381 22
371 370 1031
372 373 111
372 375 79
372 391 131
373 372 111
374 367 94
374 343 472
374 390 125
374 412 595
375 372 79
375 376 76
375 392 131
376 375 76
376 366 126
376 382 180
376 393 130
377 368 842
377 384 891
377 416 438
378 307 1415
379 380 27
379 381 292
379 387 907
379 398 182
380 379 27
381 379 292
381 370 22
382 376 180
382 367 93
382 390 91
383 369 356
383 387 37
384 360 173
384 377 891
384 391 667
384 417 463
385 344 493
385 386 481
385 412 304
386 385 481
386 345 491
386 388 431
386 423 564
387 379 907
387 383 37
388 386 431
388 352 445
388 389 535
388 424 589
389 388 535
389 353 386
389 425 623
390 382 91
390 374 125
390 395 45
391 384 667
391 372 131
391 392 81
391 399 96
392 391 81
392 375 131
392 393 74
392 401 96
393 392 74
393 376 130
393 395 220
393 402 96
394 369 178
394 404 20
395 393 220
395 390 45
395 405 95
396 397 232
396 408 88
397 396 232
398 379 182
399 400 120
399 391 96
399 401 80
400 399 120
401 399 80
401 392 96
401 402 74
401 410 112
402 401 74
402 393 96
402 405 227
402 411 113
403 404 55
403 406 605
403 434 801
404 403 55
404 394 20
405 402 227
405 395 95
405 414 114
406 403 605
406 409 104
407 408 351
408 407 351
408 396 88
408 409 120
408 413 95
409 408 120
409 406 104
410 401 112
410 411 73
410 418 434
411 410 73
411 402 113
411 414 234
411 419 213
412 374 595
412 385 304
412 421 258
412 422 296
413 408 95
414 411 234
414 405 114
414 420 203
415 368 449
415 416 851
415 443 865
416 415 851
416 377 438
416 417 929
417 416 929
417 384 463
417 418 488
417 428 350
418 417 488
418 410 434
418 419 274
419 418 274
419 411 213
419 420 247
420 419 247
420 414 203
420 421 486
420 430 346
421 420 486
421 412 258
421 422 138
421 431 344
422 421 138
422 412 296
422 423 327
422 432 394
423 422 327
423 386 564
423 424 447
423 433 342
424 423 447
424 388 589
424 425 525
424 426 92
425 424 525
425 389 623
425 429 2470
426 424 92
427 428 197
428 427 197
428 417 350
428 430 988
428 441 357
429 425 2470
429 336 2978
429 442 376
430 428 988
430 420 346
430 431 489
430 444 358
431 430 489
431 421 344
431 432 324
431 447 360
432 431 324
432 422 394
432 433 170
432 449 417
433 432 170
433 423 342
433 450 368
434 403 801
434 435 130
434 455 676
435 434 130
435 436 68
435 439 109
436 435 68
436 437 62
436 438 119
436 440 148
437 436 62
438 436 119
439 435 109
440 436 148
441 428 357
441 444 964
441 445 1717
441 456 451
442 429 376
442 584 421
443 415 865
443 445 241
443 469 554
444 441 964
444 430 358
444 446 343
444 452 246
445 443 241
445 441 1717
445 468 499
446 444 343
446 447 141
446 453 245
447 446 141
447 431 360
447 448 226
448 447 226
448 449 304
448 454 243
449 448 304
449 432 417
449 450 4
449 484 595
450 449 4
450 433 368
450 451 659
451 450 659
452 444 246
452 453 341
452 463 184
453 452 341
453 446 245
453 454 369
453 465 183
454 453 369
454 448 243
454 466 182
455 434 676
455 500 588
456 441 451
456 460 37
456 468 1655
457 458 67
457 460 59
457 476 168
458 457 67
458 459 64
458 475 168
459 458 64
459 461 70
459 474 166
460 456 37
460 457 59
460 477 167
461 459 70
461 462 66
461 473 164
462 461 66
462 471 346
462 472 165
463 464 81
463 452 184
463 465 334
463 499 393
464 463 81
465 463 334
465 453 183
465 466 368
465 503 405
466 465 368
466 454 182
466 467 352
466 486 183
467 466 352
468 445 499
468 456 1655
468 469 381
468 531 576
469 443 554
469 468 381
469 470 159
469 535 588
470 469 159
471 462 346
471 472 181
472 462 165
472 471 181
472 473 66
472 487 197
473 461 164
473 472 66
473 474 68
473 488 197
474 459 166
474 473 68
474 475 67
474 490 198
475 458 168
475 474 67
475 476 68
475 489 197
476 457 168
476 475 68
476 477 57
476 491 197
477 460 167
477 476 57
477 478 44
477 492 197
478 477 44
478 479 68
478 494 198
479 480 108
479 478 68
479 481 67
479 495 198
480 479 108
481 479 67
481 482 69
481 496 199
482 481 69
482 483 65
482 497 200
483 482 65
484 449 595
484 485 479
484 506 292
484 510 744
485 484 479
486 466 183
487 472 197
487 488 67
487 493 176
487 514 182
488 473 197
488 487 67
488 490 67
488 515 181
489 475 197
489 490 68
489 491 69
489 517 181
490 489 68
490 474 198
490 488 67
490 516 181
491 476 197
491 489 69
491 492 55
491 518 181
492 477 197
492 491 55
492 494 44
492 519 182
493 487 176
494 478 198
494 492 44
494 495 68
494 511 140
495 479 198
495 494 68
495 496 68
495 520 188
496 481 199
496 495 68
496 497 67
496 524 191
497 482 200
497 496 67
497 498 61
497 512 152
498 497 61
499 463 393
499 514 760
499 529 277
500 455 588
501 502 921
502 501 921
503 465 405
504 505 47
504 522 176
505 504 47
505 509 84
505 526 165
506 484 292
506 508 23
506 532 268
507 508 212
507 509 297
507 513 158
508 507 212
508 506 23
508 527 161
509 505 84
509 507 297
509 513 144
509 528 164
510 484 744
510 530 64
511 494 140
512 497 152
513 509 144
513 507 158
513 523 69
513 534 163
514 487 182
514 499 760
514 515 69
515 488 181
515 514 69
515 516 65
516 490 181
516 515 65
516 517 69
517 489 181
517 516 69
517 518 69
518 491 181
518 517 69
518 519 54
519 492 182
519 518 54
519 520 112
519 558 421
520 495 188
520 519 112
520 524 70
521 522 54
522 521 54
522 504 176
522 526 80
522 546 267
523 513 69
523 525 74
523 536 163
524 496 191
524 520 70
524 531 1439
525 523 74
525 527 73
525 538 163
526 522 80
526 505 165
526 528 84
526 551 268
527 525 73
527 508 161
527 537 236
527 540 163
528 526 84
528 509 164
528 534 143
528 553 270
529 499 277
529 530 328
529 539 317
529 552 225
530 529 328
530 510 64
531 468 576
531 524 1439
531 535 525
532 506 268
532 533 33
532 537 59
532 565 496
533 532 33
534 528 143
534 513 163
534 536 72
534 555 269
535 469 588
535 531 525
535 637 960
536 534 72
536 523 163
536 538 69
536 556 269
537 527 236
537 532 59
537 578 425
538 536 69
538 525 163
538 540 74
538 562 269
539 529 317
539 549 76
539 550 223
540 538 74
540 527 163
540 564 269
541 542 169
541 543 85
541 563 241
542 541 169
543 541 85
544 545 168
544 548 130
544 566 235
545 544 168
546 547 142
546 522 267
546 551 85
546 577 327
547 546 142
548 544 130
549 539 76
549 552 376
549 570 235
550 539 223
550 557 313
550 567 213
551 546 85
551 526 268
551 553 80
551 575 283
552 549 376
552 529 225
552 554 80
553 551 80
553 528 270
553 555 145
553 580 280
554 552 80
554 571 166
555 553 145
555 534 269
555 556 71
555 581 222
556 555 71
556 536 269
556 562 72
556 585 193
557 550 313
558 519 421
558 591 166
559 560 405
559 565 1367
559 593 356
560 559 405
560 561 642
560 563 327
560 597 351
561 560 642
562 556 72
562 538 269
562 564 70
562 586 163
563 560 327
563 541 241
563 566 248
563 601 349
564 562 70
564 540 269
564 578 246
564 587 137
565 532 496
565 559 1367
565 589 279
565 626 589
566 563 248
566 544 235
566 568 172
567 550 213
567 570 204
567 608 358
568 566 172
568 569 436
568 573 268
568 607 347
569 568 436
570 567 204
570 549 235
570 571 427
570 609 359
571 570 427
571 554 166
571 572 11
571 611 360
572 571 11
572 576 54
573 568 268
573 574 127
573 579 331
573 610 347
574 573 127
575 551 283
576 577 125
576 572 54
577 576 125
577 546 327
577 580 175
578 564 246
578 537 425
578 588 50
579 573 331
579 583 213
579 614 349
580 577 175
580 553 280
580 581 153
580 592 150
581 580 153
581 555 222
581 582 28
582 581 28
582 585 49
582 594 157
583 579 213
583 584 1284
583 617 359
584 583 1284
584 442 421
585 582 49
585 556 193
585 586 78
586 585 78
586 562 163
586 587 68
587 586 68
587 564 137
587 588 264
587 595 172
588 587 264
588 578 50
588 589 325
588 603 240
589 588 325
589 565 279
589 596 131
590 591 126
590 602 114
590 621 773
591 590 126
591 558 166
592 580 150
592 594 185
592 613 184
593 559 356
593 597 406
593 639 395
594 592 185
594 582 157
594 595 195
594 615 179
595 594 195
595 587 172
595 616 178
596 589 131
596 598 141
596 606 79
597 593 406
597 560 351
597 601 327
598 596 141
598 599 178
598 600 129
598 622 223
599 598 178
600 598 129
601 597 327
601 563 349
601 604 211
601 623 205
602 590 114
602 608 616
602 624 193
603 588 240
603 606 265
603 618 140
604 601 211
604 605 92
604 607 214
604 619 146
605 604 92
606 603 265
606 596 79
606 620 144
607 604 214
607 568 347
607 610 274
607 649 385
608 602 616
608 567 358
608 609 204
608 628 190
609 608 204
609 570 359
609 611 407
609 630 189
610 607 274
610 573 347
610 614 331
610 641 274
611 609 407
611 571 360
611 612 70
611 635 188
612 611 70
612 613 278
612 636 194
613 612 278
613 592 184
613 615 197
613 634 164
614 610 331
614 579 349
614 617 287
614 656 374
615 613 197
615 594 179
615 616 195
616 615 195
616 595 178
616 618 332
617 614 287
617 583 359
617 666 530
618 616 332
618 603 140
618 620 267
619 604 146
619 625 83
619 627 83
620 618 267
620 606 144
620 622 134
620 646 199
621 590 773
621 624 586
621 665 454
622 620 134
622 598 223
622 626 296
623 601 205
623 625 151
623 647 183
624 621 586
624 602 193
624 628 591
624 652 233
625 623 151
625 619 83
625 638 82
626 622 296
626 565 589
626 633 477
626 651 217
627 619 83
627 629 108
627 638 85
628 624 591
628 608 190
628 630 209
628 658 253
629 627 108
630 628 209
630 609 189
630 635 399
630 660 245
631 632 203
631 632 430
631 642 118
632 631 203
632 631 430
632 644 116
633 626 477
633 639 546
633 682 508
634 613 164
634 646 1003
634 685 517
635 630 399
635 611 188
635 636 63
635 659 226
636 635 63
636 612 194
636 661 221
637 535 960
637 670 126
638 625 82
638 627 85
638 648 120
639 633 546
639 593 395
639 640 177
639 650 115
640 639 177
640 643 236
640 655 119
641 610 274
641 642 60
641 654 106
642 641 60
642 631 118
642 644 204
643 640 236
643 647 323
643 657 125
644 642 204
644 632 116
644 645 33
645 644 33
646 634 1003
646 620 199
646 651 484
646 695 666
647 643 323
647 623 183
647 648 208
647 662 132
648 647 208
648 638 120
648 649 218
649 648 218
649 607 385
649 654 285
649 680 323
650 639 115
650 655 176
650 663 195
651 646 484
651 626 217
651 687 346
652 653 341
652 624 233
652 658 563
652 668 208
653 652 341
654 649 285
654 641 106
654 656 329
655 650 176
655 640 119
655 657 236
655 667 194
656 654 329
656 614 374
656 666 487
656 688 349
657 655 236
657 643 125
657 662 323
657 671 192
658 652 563
658 628 253
658 660 214
658 672 185
659 635 226
659 660 385
659 661 66
659 675 214
660 630 245
660 659 385
660 658 214
660 674 193
661 659 66
661 636 221
661 679 224
662 657 323
662 647 132
662 676 189
663 650 195
663 667 169
663 686 148
664 665 847
664 669 801
664 708 700
665 664 847
665 621 454
665 668 687
665 673 46
666 656 487
666 617 530
666 681 243
666 705 760
667 663 169
667 655 194
667 671 240
668 665 687
668 652 208
668 672 535
668 703 622
669 670 258
669 664 801
669 724 815
670 669 258
670 637 126
671 667 240
671 657 192
671 676 324
671 692 357
672 668 535
672 658 185
672 674 220
672 704 613
673 665 46
674 672 220
674 660 193
674 675 364
674 707 610
675 674 364
675 659 214
675 677 8
675 709 614
676 671 324
676 662 189
676 680 411
676 696 358
677 675 8
677 678 50
678 679 18
678 677 50
679 678 18
679 661 224
679 685 216
680 676 411
680 649 323
680 688 543
680 697 362
681 666 243
681 694 198
682 633 508
682 683 245
682 687 345
682 701 444
683 682 245
683 684 125
683 686 288
683 691 217
684 683 125
685 679 216
685 634 517
685 689 410
685 711 579
686 683 288
686 663 148
686 706 524
687 651 346
687 682 345
687 699 414
688 680 543
688 656 349
688 698 394
689 685 410
689 690 164
689 695 669
689 714 511
690 689 164
691 683 217
692 671 357
692 696 325
692 710 296
693 694 298
693 702 270
693 715 416
694 693 298
694 681 198
695 689 669
695 646 666
695 699 607
695 718 384
696 692 325
696 676 358
696 697 411
696 712 284
697 696 411
697 680 362
697 698 443
697 726 401
698 697 443
698 688 394
698 705 347
698 733 479
699 695 607
699 687 414
699 700 310
699 719 279
700 699 310
700 701 11
700 725 287
701 700 11
701 682 444
701 706 531
702 693 270
702 721 403
702 728 319
703 668 622
703 704 498
703 708 1554
703 763 622
704 703 498
704 672 613
704 707 241
704 767 598
705 698 347
705 666 760
705 735 780
705 744 443
706 701 531
706 686 524
706 710 394
707 704 241
707 674 610
707 709 335
707 757 525
708 664 700
708 703 1554
708 724 766
708 751 475
709 707 335
709 675 614
709 711 215
709 720 167
710 692 296
710 706 394
710 712 328
711 709 215
711 685 579
711 713 348
711 727 169
712 710 328
712 696 284
712 717 199
713 711 348
713 714 125
713 729 179
714 713 125
714 689 511
714 718 665
714 754 428
715 716 328
715 693 416
715 728 269
715 735 239
716 715 328
717 712 199
717 726 232
717 730 183
718 714 665
718 695 384
718 719 585
718 758 398
719 718 585
719 699 279
719 723 194
719 732 130
720 709 167
720 727 232
720 772 453
721 702 403
721 722 291
721 736 335
721 743 235
722 721 291
723 719 194
723 725 112
723 734 144
724 669 815
724 708 766
724 747 278
724 873 4664
725 723 112
725 700 287
725 737 142
725 739 309
726 717 232
726 697 401
726 733 321
726 738 156
727 720 232
727 711 169
727 729 352
728 715 269
728 702 319
728 743 383
728 746 237
729 727 352
729 713 179
729 756 267
730 731 498
730 717 183
730 738 237
730 816 792
731 730 498
732 719 130
732 734 190
732 745 147
733 726 321
733 698 479
733 744 325
734 732 190
734 723 144
734 737 111
734 750 149
735 705 780
735 715 239
735 746 283
735 778 463
736 721 335
736 759 485
736 760 233
737 734 111
737 725 142
737 739 170
737 752 149
738 730 237
738 726 156
738 831 773
739 737 170
739 725 309
739 742 51
739 755 149
740 120 28276
740 780 321
741 118 28300
741 790 321
742 739 51
743 728 383
743 721 235
743 760 337
743 765 207
744 733 325
744 705 443
744 771 503
745 732 147
745 750 184
745 761 98
746 735 283
746 728 237
746 749 63
746 785 476
747 724 278
747 748 8
747 751 720
747 844 1789
748 747 8
748 753 718
748 839 1761
748 916 2413
749 746 63
750 745 184
750 734 149
750 752 111
750 764 98
751 747 720
751 708 475
751 753 8
751 773 663
752 750 111
752 737 149
752 755 171
752 766 98
753 748 718
753 751 8
753 775 663
753 852 765
754 714 428
754 756 201
754 758 628
754 821 566
755 752 171
755 739 149
755 770 97
756 729 267
756 754 201
756 820 561
757 707 525
758 754 628
758 718 398
758 761 571
758 805 445
759 736 485
760 743 337
760 736 233
760 836 669
761 758 571
761 745 98
761 764 180
761 777 200
762 763 232
763 762 232
763 703 622
763 767 255
763 793 351
764 761 180
764 750 98
764 766 110
764 776 145
765 743 207
766 764 110
766 752 98
766 770 173
766 782 255
767 763 255
767 704 598
767 772 462
768 769 138
769 768 138
770 766 173
770 755 97
770 779 147
771 744 503
771 778 303
771 858 698
772 767 462
772 720 453
772 804 361
773 751 663
773 774 249
773 775 8
773 793 1275
774 773 249
775 753 663
775 773 8
775 795 1279
775 891 823
776 764 145
777 761 200
777 787 162
777 788 151
778 771 303
778 735 463
778 785 211
779 770 147
780 781 276
780 740 321
781 780 276
781 824 613
781 835 411
782 766 255
782 783 85
782 784 10
782 787 184
783 782 85
783 786 9
783 797 438
784 782 10
784 786 83
784 792 349
785 778 211
785 746 476
785 814 370
785 817 254
786 784 83
786 783 9
786 798 438
786 846 367
787 777 162
787 782 184
787 791 166
788 777 151
788 791 21
788 794 102
789 790 340
789 838 345
789 843 819
790 789 340
790 741 321
791 788 21
791 787 166
791 792 10
792 791 10
792 784 349
792 800 90
793 773 1275
793 763 351
793 795 9
793 799 258
794 788 102
794 796 7
794 805 408
795 775 1279
795 793 9
795 802 254
795 871 458
796 794 7
796 800 34
796 801 166
797 783 438
797 798 9
797 811 544
798 786 438
798 797 9
798 813 544
798 903 724
799 793 258
799 803 47
800 796 34
800 792 90
800 825 177
801 796 166
801 809 247
801 825 195
802 795 254
802 808 47
803 804 216
803 799 47
804 803 216
804 772 361
804 807 9
804 819 674
805 758 445
805 794 408
805 806 30
805 809 10
806 805 30
806 810 9
806 821 583
807 808 215
807 804 9
807 822 675
807 907 882
808 807 215
808 802 47
809 805 10
809 801 247
809 810 27
810 806 9
810 809 27
810 827 578
810 878 489
811 797 544
811 812 309
811 813 9
811 816 278
812 811 309
813 798 544
813 811 9
813 818 277
813 882 451
814 785 370
814 815 32
814 817 469
815 814 32
815 823 510
815 828 128
816 811 278
816 730 792
816 818 9
816 831 278
817 785 254
817 814 469
817 823 18
817 858 591
818 813 277
818 816 9
818 832 280
818 892 472
819 804 674
819 820 36
820 819 36
820 756 561
820 826 9
820 821 234
821 754 566
821 806 583
821 827 9
821 820 234
822 807 675
822 826 37
823 817 18
823 815 510
823 866 578
823 911 863
824 781 613
824 840 188
824 845 731
825 801 195
825 800 177
825 857 214
826 822 37
826 820 9
826 827 240
827 821 9
827 810 578
827 826 240
827 847 144
828 815 128
828 836 230
829 830 113
829 833 66
829 841 76
829 862 417
830 829 113
831 816 278
831 738 773
831 832 10
831 834 114
832 818 280
832 831 10
832 837 111
832 901 491
833 829 66
834 831 114
834 859 120
835 781 411
835 874 50
836 828 230
836 760 669
836 933 2227
836 1006 6415
837 832 111
837 867 118
838 789 345
838 865 50
839 748 1761
839 844 22
839 849 78
840 824 188
840 844 136
840 848 103
841 829 76
841 846 81
841 872 303
842 843 145
842 850 105
842 856 128
843 842 145
843 789 819
843 875 418
844 747 1789
844 839 22
844 840 136
844 848 58
845 824 731
845 864 50
846 841 81
846 786 367
846 853 138
847 827 144
847 878 381
848 840 103
848 844 58
848 849 8
848 850 5
849 848 8
849 839 78
849 851 6
850 842 105
850 848 5
850 851 8
850 856 52
851 850 8
851 849 6
851 869 74
852 753 765
853 846 138
853 860 179
853 876 148
853 894 287
854 855 176
854 862 53
854 870 58
855 854 176
856 842 128
856 850 52
856 869 24
856 938 2385
857 825 214
857 870 167
857 902 365
858 771 698
858 817 591
858 859 823
858 866 8
859 858 823
859 834 120
860 853 179
860 861 214
860 900 325
861 860 214
862 854 53
862 829 417
862 868 62
863 864 142
863 865 140
863 890 262
864 863 142
864 845 50
865 863 140
865 838 50
866 858 8
866 823 578
866 867 828
866 905 546
867 866 828
867 837 118
868 862 62
869 856 24
869 851 74
869 940 2369
870 857 167
870 854 58
870 872 138
871 795 458
871 908 44
872 870 138
872 841 303
872 885 270
872 899 370
873 724 4664
874 875 248
874 835 50
875 874 248
875 843 418
875 888 150
876 853 148
876 877 97
876 879 72
877 876 97
878 847 381
878 810 489
878 887 147
879 876 72
879 884 80
879 889 57
880 881 149
881 880 149
881 885 53
881 893 72
882 883 345
882 813 451
882 892 271
883 882 345
884 879 80
885 881 53
885 872 270
885 886 48
885 895 71
886 885 48
886 889 38
886 896 67
887 878 147
887 902 262
887 913 592
888 875 150
888 1022 118
889 886 38
889 879 57
889 894 83
890 863 262
890 998 113
891 775 823
892 882 271
892 818 472
892 901 307
893 881 72
893 895 54
893 897 37
894 889 83
894 853 287
894 900 148
894 899 217
895 893 54
895 885 71
895 896 49
895 899 51
896 895 49
896 886 67
896 898 39
897 893 37
898 896 39
899 872 370
899 895 51
899 894 217
899 904 256
900 894 148
900 860 325
900 903 133
900 906 239
901 892 307
901 832 491
901 905 1006
901 922 1024
902 887 262
902 857 365
902 914 495
903 900 133
903 798 724
903 917 710
904 899 256
905 901 1006
905 866 546
905 911 396
905 925 1054
906 900 239
907 908 480
907 807 882
907 929 1135
908 907 480
908 871 44
909 910 2363
909 923 1618
910 909 2363
910 923 1106
910 931 1315
911 905 396
911 823 863
911 915 349
912 913 888
913 912 888
913 887 592
913 914 316
914 913 316
914 902 495
914 917 1119
914 921 471
915 911 349
916 748 2413
916 918 316
916 927 574
917 914 1119
917 903 710
917 922 1148
917 924 530
918 916 316
918 919 66
918 928 397
918 986 2091
919 918 66
920 921 980
920 930 662
921 920 980
921 914 471
921 924 909
921 943 592
922 917 1148
922 901 1024
922 925 950
922 939 460
923 909 1618
923 910 1106
923 963 1022
924 921 909
924 917 530
924 939 1412
924 955 540
925 922 950
925 905 1054
925 933 699
925 959 479
926 927 280
927 926 280
927 916 574
927 928 255
927 972 1549
928 927 255
928 918 397
928 932 624
928 980 927
929 907 1135
929 930 143
929 952 316
930 929 143
930 920 662
930 943 976
930 952 274
931 910 1315
931 951 298
931 966 548
932 928 624
933 925 699
933 836 2227
933 962 486
934 935 423
934 936 55
935 934 423
936 934 55
936 937 207
936 941 41
937 936 207
938 856 2385
938 948 98
939 924 1412
939 922 460
939 959 940
939 961 381
940 869 2369
940 949 98
941 936 41
941 942 194
941 944 73
942 941 194
943 930 976
943 921 592
943 955 992
943 977 611
944 941 73
944 945 190
944 946 11
945 944 190
946 944 11
946 951 70
946 960 252
947 948 414
947 954 204
948 947 414
948 938 98
949 950 414
949 940 98
950 949 414
950 957 204
951 946 70
951 931 298
952 929 316
952 930 274
952 969 346
952 971 435
953 954 346
953 956 8
954 953 346
954 947 204
955 943 992
955 924 540
955 961 1250
955 992 628
956 953 8
956 957 344
956 958 2
956 1265 4702
957 956 344
957 950 204
958 956 2
958 1561 24789
959 939 940
959 925 479
959 962 617
959 968 268
960 946 252
961 955 1250
961 939 381
961 968 936
961 1021 687
962 959 617
962 933 486
962 967 100
963 923 1022
963 964 151
963 965 3
963 983 541
964 963 151
965 963 3
965 970 210
966 931 548
966 987 389
966 1012 641
967 962 100
967 974 117
968 961 936
968 959 268
968 974 652
968 1039 782
969 952 346
969 971 235
969 986 263
970 965 210
971 969 235
971 952 435
971 977 692
971 1020 583
972 973 245
972 927 1549
972 980 835
972 996 300
973 972 245
974 968 652
974 967 117
974 1107 6839
974 1121 1881
975 976 5641
975 1006 300
975 1031 1357
976 975 5641
977 971 692
977 943 611
977 992 1154
977 1029 463
978 979 316
978 981 97
978 982 131
979 978 316
980 972 835
980 928 927
980 1013 228
981 978 97
982 978 131
983 963 541
983 987 27
983 989 19
984 985 34
985 984 34
986 918 2091
986 969 263
986 1009 171
986 1017 330
987 983 27
987 966 389
987 1008 294
988 989 8
989 988 8
989 983 19
989 995 81
989 1011 315
990 991 36
991 990 36
992 977 1154
992 955 628
992 1021 1039
992 1043 543
993 994 447
994 993 447
995 989 81
995 1030 345
995 1034 755
996 972 300
997 998 2833
997 1041 526
997 1050 1207
998 997 2833
998 890 113
999 1000 118
1000 999 118
1001 1002 318
1002 1001 318
1002 1003 121
1002 1007 70
1003 1002 121
1003 1019 212
1004 1005 37
1005 1004 37
1006 836 6415
1006 975 300
1006 1048 1382
1006 1064 690
1007 1002 70
1007 1010 18
1007 1016 51
1008 987 294
1008 1011 28
1008 1016 66
1009 986 171
1009 1017 264
1009 1069 1163
1010 1007 18
1010 1018 51
1010 1019 115
1011 989 315
1011 1008 28
1011 1014 19
1011 1056 939
1012 966 641
1012 1035 530
1013 980 228
1014 1011 19
1014 1015 6
1014 1030 196
1015 1014 6
1016 1008 66
1016 1007 51
1016 1018 19
1017 1009 264
1017 986 330
1017 1020 311
1018 1016 19
1018 1010 51
1018 1054 765
1019 1010 115
1019 1003 212
1019 1024 38
1020 1017 311
1020 971 583
1020 1029 230
1020 1051 407
1021 992 1039
1021 961 687
1021 1039 918
1021 1060 526
1022 1023 3037
1022 888 118
1023 1022 3037
1023 1042 331
1023 1046 621
1024 1019 38
1024 1025 133
1024 1028 23
1025 1024 133
1026 1027 206
1027 1026 206
1028 1024 23
1029 1020 230
1029 977 463
1029 1043 1285
1029 1051 335
1030 995 345
1030 1014 196
1031 975 1357
1031 1047 639
1031 1048 280
1032 1033 95
1033 1032 95
1034 995 755
1035 1012 530
1035 1036 95
1035 1052 287
1035 1244 3979
1036 1035 95
1037 1038 384
1038 1037 384
1039 1021 918
1039 968 782
1039 1040 677
1039 1074 550
1040 1039 677
1041 997 526
1041 1653 125
1042 1023 331
1042 1067 115
1043 1029 1285
1043 992 543
1043 1060 996
1043 1084 651
1044 1045 271
1045 1044 271
1046 1023 621
1046 1049 733
1046 1072 3529
1047 1031 639
1047 1061 198
1047 1081 1427
1048 1006 1382
1048 1031 280
1048 1061 636
1048 1111 750
1049 1046 733
1049 1653 133
1050 997 1207
1050 1068 525
1050 1073 3318
1051 1020 407
1051 1029 335
1051 1069 233
1052 1053 616
1052 1035 287
1052 1054 34
1052 1055 41
1053 1052 616
1054 1018 765
1054 1052 34
1054 1057 47
1055 1052 41
1056 1011 939
1057 1054 47
1057 1063 82
1057 1203 2070
1058 1059 19
1059 1058 19
1060 1043 996
1060 1021 526
1060 1066 130
1060 1237 2883
1061 1048 636
1061 1047 198
1061 1120 673
1061 1177 1891
1062 1063 104
1063 1062 104
1063 1057 82
1063 1085 434
1064 1065 2033
1064 1006 690
1064 1107 541
1064 1111 1451
1065 1064 2033
1066 1060 130
1067 1068 255
1067 1042 115
1068 1067 255
1068 1050 525
1068 1651 10210
1069 1009 1163
1069 1051 233
1069 1084 1145
1069 1099 436
1070 1071 202
1071 1070 202
1072 1046 3529
1072 1077 74
1073 1050 3318
1073 1076 75
1074 1039 550
1075 1076 20
1075 1083 142
1075 1094 231
1076 1075 20
1076 1073 75
1077 1078 139
1077 1072 74
1078 1077 139
1078 1079 31
1078 1080 30
1079 1078 31
1079 1096 49
1080 1078 30
1080 1089 49
1081 1047 1427
1081 1082 763
1081 1088 699
1081 1177 1132
1082 1081 763
1083 1075 142
1083 1093 48
1084 1069 1145
1084 1043 651
1084 1100 555
1084 1130 736
1085 1063 434
1086 1087 44
1087 1086 44
1087 1091 65
1088 1081 699
1089 1090 147
1089 1080 49
1090 1089 147
1090 1108 64
1091 1087 65
1092 1093 149
1092 1118 65
1093 1092 149
1093 1083 48
1094 1075 231
1094 1095 469
1094 1105 78
1095 1094 469
1095 1110 78
1096 1097 617
1096 1079 49
1097 1096 617
1097 1098 260
1097 1106 76
1098 1097 260
1098 1118 66
1099 1069 436
1099 1112 66
1099 1114 96
1100 1084 555
1101 1102 230
1102 1101 230
1103 1104 591
1104 1103 591
1105 1094 78
1105 1114 90
1106 1097 76
1106 1115 99
1107 974 6839
1107 1064 541
1107 1145 1549
1108 1109 130
1108 1090 64
1109 1108 130
1109 1110 149
1109 1116 95
1110 1109 149
1110 1095 78
1111 1064 1451
1111 1048 750
1111 1120 697
1111 1129 404
1112 1099 66
1112 1113 5
1112 1114 65
1113 1112 5
1113 1115 67
1113 1119 51
1114 1099 96
1114 1105 90
1114 1112 65
1115 1113 67
1115 1106 99
1115 1119 88
1116 1109 95
1116 1123 95
1117 1118 234
1117 1126 94
1118 1117 234
1118 1098 66
1118 1092 65
1119 1113 51
1119 1115 88
1119 1649 9648
1120 1111 697
1120 1061 673
1120 1122 531
1120 1133 373
1120 1193 1456
1121 974 1881
1121 1157 2204
1121 1555 9081
1122 1120 531
1123 1124 200
1123 1116 95
1124 1123 200
1124 1305 27
1125 1126 200
1125 1308 27
1126 1125 200
1126 1117 94
1127 1128 294
1127 1153 595
1127 1217 1024
1128 1127 294
1129 1111 404
1129 1133 711
1129 1145 209
1130 1084 736
1131 1132 95
1131 1137 80
1132 1131 95
1132 1138 85
1132 1143 99
1133 1129 711
1133 1120 373
1133 1134 55
1133 1167 296
1134 1133 55
1135 1136 29
1136 1135 29
1137 1131 80
1137 1143 85
1137 1158 211
1138 1132 85
1138 1139 13
1138 1142 88
1139 1138 13
1139 1144 87
1139 1147 95
1140 1141 8
1141 1140 8
1142 1138 88
1142 1144 22
1142 1146 93
1143 1137 85
1143 1132 99
1143 1148 85
1144 1139 87
1144 1142 22
1144 1152 89
1144 1155 101
1145 1107 1549
1145 1129 209
1145 1167 743
1145 1236 1248
1146 1142 93
1146 1151 22
1146 1156 137
1147 1139 95
1147 1148 3
1147 1149 3
1148 1143 85
1148 1147 3
1148 1149 0
1148 1168 207
1149 1148 0
1149 1147 3
1149 1150 4
1149 1155 88
1150 1149 4
1151 1146 22
1151 1152 11
1151 1156 104
1152 1144 89
1152 1151 11
1152 1154 39
1153 1127 595
1154 1152 39
1154 1159 64
1155 1149 88
1155 1144 101
1155 1159 87
1156 1151 104
1156 1146 137
1156 1160 62
1157 1121 2204
1158 1137 211
1158 1168 156
1158 1197 358
1159 1155 87
1159 1154 64
1159 1169 114
1160 1156 62
1160 1161 93
1160 1162 33
1160 1170 139
1161 1160 93
1162 1160 33
1162 1163 47
1162 1166 36
1162 1172 138
1163 1162 47
1164 1165 3
1165 1164 3
1166 1162 36
1167 1145 743
1167 1133 296
1167 1171 207
1167 1191 199
1168 1158 156
1168 1148 207
1168 1173 99
1168 1196 251
1169 1159 114
1169 1170 72
1169 1186 175
1170 1169 72
1170 1160 139
1170 1172 26
1170 1190 175
1171 1167 207
1172 1170 26
1172 1162 138
1172 1194 173
1173 1168 99
1173 1186 147
1173 1199 245
1174 1175 113
1175 1174 113
1175 1176 85
1175 1178 48
1175 1187 74
1176 1175 85
1177 1061 1891
1177 1081 1132
1177 1193 107
1177 1212 702
1178 1175 48
1178 1179 110
1178 1180 35
1178 1192 90
1179 1178 110
1180 1178 35
1180 1181 102
1180 1184 43
1180 1200 170
1181 1180 102
1182 1183 66
1183 1182 66
1184 1180 43
1184 1185 100
1184 1195 118
1184 1201 152
1185 1184 100
1186 1173 147
1186 1169 175
1186 1190 69
1186 1198 126
1187 1175 74
1188 1189 11
1189 1188 11
1189 1204 185
1190 1186 69
1190 1170 175
1190 1194 29
1191 1167 199
1192 1178 90
1193 1120 1456
1193 1177 107
1193 1245 1088
1194 1190 29
1194 1172 173
1194 1204 158
1194 1205 139
1195 1184 118
1196 1168 251
1196 1199 53
1196 1208 108
1197 1158 358
1197 1202 38
1197 1208 141
1198 1186 126
1198 1205 86
1198 1211 117
1199 1196 53
1199 1173 245
1199 1210 102
1199 1211 149
1200 1180 170
1201 1184 152
1202 1197 38
1202 1206 49
1202 1207 41
1203 1057 2070
1203 1244 1530
1203 1247 1028
1204 1194 158
1204 1189 185
1204 1209 309
1204 1226 347
1205 1198 86
1205 1194 139
1205 1214 96
1205 1214 96
1206 1202 49
1206 1213 76
1207 1202 41
1207 1222 251
1208 1197 141
1208 1196 108
1208 1213 51
1208 1216 182
1209 1204 309
1210 1199 102
1211 1199 149
1211 1198 117
1211 1215 52
1212 1177 702
1212 1217 447
1212 1251 1049
1213 1206 76
1213 1208 51
1213 1221 138
1214 1205 96
1214 1205 96
1214 1220 159
1215 1211 52
1215 1216 53
1215 1223 246
1216 1208 182
1216 1215 53
1216 1225 247
1217 1212 447
1217 1127 1024
1217 1218 16
1217 1238 619
1218 1217 16
1218 1219 1023
1218 1224 304
1218 1239 615
1219 1218 1023
1220 1214 159
1220 1223 60
1220 1226 259
1221 1213 138
1221 1222 33
1222 1207 251
1222 1221 33
1222 1224 66
1223 1215 246
1223 1220 60
1223 1225 55
1223 1229 257
1224 1218 304
1224 1222 66
1224 1231 481
1225 1216 247
1225 1223 55
1225 1230 164
1226 1220 259
1226 1204 347
1226 1229 47
1227 1228 25
1228 1227 25
1229 1223 257
1229 1226 47
1229 1230 224
1230 1225 164
1230 1229 224
1230 1231 88
1231 1224 481
1231 1230 88
1231 1246 708
1232 1233 130
1232 1247 1649
1232 1252 614
1233 1232 130
1234 1235 144
1235 1234 144
1235 1240 316
1235 1246 452
1236 1145 1248
1237 1060 2883
1238 1217 619
1238 1239 15
1238 1254 426
1239 1238 15
1239 1218 615
1239 1241 120
1239 1255 429
1240 1235 316
1240 1242 265
1240 1253 440
1241 1239 120
1241 1259 434
1242 1240 265
1242 1243 256
1242 1248 431
1242 1263 437
1243 1242 256
1244 1203 1530
1244 1035 3979
1244 1264 611
1244 1267 580
1245 1193 1088
1245 1251 673
1245 1388 2323
1246 1231 708
1246 1235 452
1246 1253 384
1246 1272 597
1247 1232 1649
1247 1203 1028
1247 1250 362
1248 1242 431
1248 1249 534
1248 1252 252
1248 1271 446
1249 1248 534
1250 1247 362
1250 1267 944
1250 1269 386
1251 1245 673
1251 1212 1049
1251 1254 479
1251 1355 2403
1252 1248 252
1252 1232 614
1252 1269 2084
1252 1275 495
1253 1246 384
1253 1240 440
1253 1263 262
1253 1274 513
1254 1251 479
1254 1238 426
1254 1255 16
1254 1355 1675
1255 1254 16
1255 1239 429
1255 1259 109
1255 1354 1664
1256 1257 61
1257 1256 61
1257 1258 69
1257 1260 41
1257 1262 28
1258 1257 69
1259 1255 109
1259 1241 434
1259 1261 24
1260 1257 41
1261 1259 24
1261 1268 552
1262 1257 28
1262 1266 135
1262 1270 543
1263 1253 262
1263 1242 437
1263 1271 502
1263 1280 498
1264 1244 611
1264 1276 566
1264 1366 3151
1265 956 4702
1266 1262 135
1267 1250 944
1267 1244 580
1267 1276 374
1267 1282 407
1268 1261 552
1268 1272 450
1269 1252 2084
1269 1250 386
1269 1282 879
1269 1287 542
1270 1262 543
1271 1263 502
1271 1248 446
1271 1273 258
1271 1281 338
1272 1268 450
1272 1246 597
1272 1274 372
1272 1284 393
1273 1271 258
1273 1275 18
1274 1272 372
1274 1253 513
1274 1278 339
1274 1285 421
1275 1273 18
1275 1252 495
1275 1277 614
1275 1283 311
1276 1267 374
1276 1264 566
1276 1286 344
1276 1291 699
1276 1348 2120
1277 1275 614
1277 1287 1516
1277 1295 719
1278 1274 339
1278 1279 330
1278 1280 202
1278 1296 429
1279 1278 330
1280 1278 202
1280 1263 498
1280 1281 358
1280 1298 446
1281 1280 358
1281 1271 338
1281 1299 427
1282 1269 879
1282 1267 407
1282 1286 355
1282 1302 472
1283 1275 311
1283 1290 321
1283 1300 338
1284 1272 393
1284 1285 185
1284 1315 481
1285 1284 185
1285 1274 421
1285 1296 434
1285 1334 672
1286 1282 355
1286 1276 344
1286 1288 73
1286 1313 399
1287 1277 1516
1287 1269 542
1287 1292 361
1287 1342 754
1288 1286 73
1288 1289 506
1288 1293 159
1289 1288 506
1289 1293 317
1289 1294 261
1290 1283 321
1290 1295 152
1290 1301 304
1291 1276 699
1291 1294 63
1291 1343 1347
1292 1287 361
1292 1302 431
1292 1358 816
1293 1288 159
1293 1289 317
1293 1303 248
1293 1337 568
1294 1289 261
1294 1291 63
1294 1311 215
1294 1314 312
1295 1290 152
1295 1277 719
1295 1312 340
1296 1285 434
1296 1278 429
1296 1297 182
1296 1321 307
1297 1296 182
1297 1298 170
1297 1332 330
1298 1297 170
1298 1280 446
1298 1299 257
1298 1326 268
1299 1298 257
1299 1281 427
1299 1300 253
1299 1316 180
1300 1299 253
1300 1283 338
1300 1301 152
1300 1318 214
1301 1300 152
1301 1290 304
1301 1312 132
1302 1292 431
1302 1282 472
1302 1319 351
1303 1293 248
1303 1304 29
1303 1309 31
1304 1303 29
1304 1310 40
1304 1311 216
1305 1306 4125
1305 1124 27
1306 1305 4125
1306 1551 78
1307 1308 4103
1307 1554 81
1308 1307 4103
1308 1125 27
1309 1303 31
1309 1310 14
1309 1362 692
1310 1309 14
1310 1304 40
1311 1304 216
1311 1294 215
1311 1320 165
1311 1322 123
1312 1301 132
1312 1295 340
1312 1367 725
1313 1286 399
1313 1319 74
1313 1325 124
1314 1294 312
1314 1320 162
1314 1323 153
1315 1284 481
1315 1338 641
1315 1338 641
1315 1340 302
1316 1299 180
1316 1317 172
1316 1318 230
1316 1335 200
1317 1316 172
1318 1316 230
1318 1300 214
1318 1346 353
1319 1302 351
1319 1313 74
1319 1325 71
1319 1327 70
1319 1329 73
1319 1358 1209
1320 1311 165
1320 1314 162
1320 1328 125
1320 1330 74
1321 1296 307
1321 1334 346
1321 1339 198
1322 1311 123
1322 1324 28
1322 1349 509
1323 1314 153
1323 1331 117
1324 1322 28
1324 1328 40
1325 1319 71
1325 1313 124
1325 1386 910
1326 1298 268
1326 1332 173
1326 1341 238
1327 1319 70
1327 1329 66
1327 1403 1226
1328 1324 40
1328 1320 125
1328 1333 65
1329 1319 73
1329 1327 66
1329 1359 1153
1330 1320 74
1331 1323 117
1332 1297 330
1332 1326 173
1332 1339 209
1333 1328 65
1334 1285 672
1334 1321 346
1334 1340 211
1334 1363 387
1335 1316 200
1335 1336 215
1335 1341 301
1335 1346 216
1336 1335 215
1337 1293 568
1338 1315 641
1338 1315 641
1338 1354 536
1338 1354 536
1338 1361 279
1339 1321 198
1339 1332 209
1339 1350 175
1340 1315 302
1340 1334 211
1340 1361 533
1340 1369 419
1341 1326 238
1341 1335 301
1341 1369 835
1341 1394 619
1342 1287 754
1342 1344 10
1342 1345 885
1342 1358 356
1343 1291 1347
1343 1364 328
1343 1375 621
1344 1342 10
1344 1347 886
1344 1359 354
1344 1385 487
1345 1342 885
1345 1353 179
1346 1335 216
1346 1318 353
1346 1373 370
1347 1344 886
1347 1356 176
1348 1276 2120
1348 1365 288
1348 1374 534
1349 1322 509
1349 1351 47
1349 1360 94
1350 1339 175
1351 1349 47
1352 1353 282
1352 1368 610
1353 1352 282
1353 1345 179
1354 1255 1664
1354 1338 536
1354 1338 536
1354 1355 16
1354 1355 16
1354 1404 727
1355 1254 1675
1355 1354 16
1355 1354 16
1355 1251 2403
1355 1404 722
1356 1357 274
1356 1347 176
1357 1356 274
1357 1395 611
1358 1342 356
1358 1292 816
1358 1359 8
1358 1319 1209
1359 1344 354
1359 1358 8
1359 1329 1153
1360 1349 94
1361 1338 279
1361 1340 533
1361 1392 420
1362 1309 692
1363 1334 387
1364 1343 328
1364 1398 139
1365 1348 288
1365 1389 175
1366 1264 3151
1366 1370 911
1366 1399 481
1367 1312 725
1367 1368 150
1367 1373 152
1368 1367 150
1368 1352 610
1369 1340 419
1369 1341 835
1369 1392 533
1369 1406 567
1370 1366 911
1370 1380 2130
1370 1457 1657
1371 1372 49
1371 1397 371
1372 1371 49
1373 1346 370
1373 1367 152
1373 1394 515
1374 1348 534
1374 1405 748
1375 1343 621
1375 1408 768
1376 1377 37
1377 1376 37
1378 1379 565
1379 1378 565
1380 1370 2130
1380 1565 58
1381 1382 473
1382 1381 473
1383 1384 44
1383 1393 170
1383 1416 793
1384 1383 44
1385 1344 487
1386 1325 910
1386 1387 85
1386 1401 321
1387 1386 85
1388 1245 2323
1388 1404 1389
1388 1474 1426
1389 1390 268
1389 1365 175
1390 1389 268
1390 1391 852
1390 1412 578
1391 1390 852
1392 1361 420
1392 1369 533
1392 1404 693
1392 1419 567
1393 1383 170
1394 1341 619
1394 1373 515
1394 1395 816
1394 1406 575
1394 1406 574
1394 1409 275
1395 1394 816
1395 1357 611
1396 1397 475
1396 1398 444
1396 1415 474
1397 1396 475
1397 1371 371
1398 1396 444
1398 1364 139
1399 1366 481
1399 1400 118
1400 1399 118
1400 1405 107
1400 1411 106
1400 1416 177
1401 1386 321
1401 1402 147
1401 1403 13
1401 1430 647
1402 1401 147
1403 1327 1226
1403 1401 13
1403 1456 913
1404 1388 1389
1404 1355 722
1404 1354 727
1404 1392 693
1404 1424 385
1404 1425 410
1405 1374 748
1405 1400 107
1405 1407 19
1406 1369 567
1406 1394 575
1406 1394 574
1406 1419 536
1406 1420 537
1406 1423 332
1407 1405 19
1407 1410 21
1408 1375 768
1408 1445 22
1409 1394 275
1410 1411 11
1410 1407 21
1411 1410 11
1411 1400 106
1411 1443 1831
1412 1390 578
1412 1448 18
1413 1414 25
1414 1413 25
1415 1396 474
1415 1452 19
1416 1383 793
1416 1400 177
1416 1417 8
1416 1454 1602
1417 1418 624
1417 1416 8
1417 1455 1606
1418 1417 624
1419 1392 567
1419 1406 536
1419 1420 8
1419 1421 182
1420 1419 8
1420 1406 537
1420 1422 175
1420 1486 893
1421 1419 182
1421 1426 113
1421 1425 551
1422 1420 175
1422 1427 120
1422 1462 484
1423 1406 332
1423 1432 277
1423 1436 170
1424 1404 385
1424 1428 47
1424 1429 61
1425 1404 410
1425 1421 551
1425 1433 134
1426 1421 113
1426 13484 249
1427 1422 120
1427 13483 221
1428 1424 47
1428 1429 42
1428 1440 232
1429 1428 42
1429 1424 61
1429 1453 273
1430 1401 647
1430 1435 164
1430 1456 261
1431 1432 299
1432 1431 299
1432 1423 277
1432 1437 99
1432 1442 317
1433 1425 134
1433 1434 74
1433 1438 135
1434 1433 74
1434 13484 178
1435 1430 164
1436 1423 170
1437 1432 99
1437 1439 304
1437 1466 249
1438 1433 135
1438 1450 128
1438 1462 121
1439 1437 304
1440 1428 232
1440 1441 108
1440 1499 1218
1441 1440 108
1441 13484 128
1442 1432 317
1442 1465 205
1443 1411 1831
1444 1445 1823
1445 1444 1823
1445 1408 22
1446 1447 86
1446 13483 156
1447 1446 86
1447 1461 244
1447 1463 353
1448 1449 1647
1448 1412 18
1449 1448 1647
1450 1438 128
1450 13483 105
1451 1452 1600
1452 1451 1600
1452 1415 19
1453 1429 273
1453 1460 59
1453 1461 48
1454 1416 1602
1455 1417 1606
1456 1403 913
1456 1430 261
1456 1464 240
1457 1370 1657
1458 1459 507
1459 1458 507
1460 1453 59
1460 1461 45
1460 1487 596
1461 1453 48
1461 1460 45
1461 1447 244
1462 1438 121
1462 1422 484
1462 1486 571
1463 1447 353
1463 1492 584
1463 1500 872
1464 1456 240
1465 1442 205
1465 1466 287
1465 1476 290
1466 1465 287
1466 1437 249
1466 1469 331
1466 1473 224
1467 1468 21
1468 1467 21
1469 1466 331
1469 1470 9
1469 1471 1
1469 1472 40
1470 1469 9
1471 1469 1
1472 1469 40
1473 1466 224
1473 1475 37
1473 1477 61
1474 1388 1426
1474 1499 1339
1474 1512 569
1475 1473 37
1475 1478 43
1475 1479 283
1476 1465 290
1477 1473 61
1477 1478 19
1477 1497 351
1478 1477 19
1478 1475 43
1478 1501 575
1479 1475 283
1480 1481 51
1481 1480 51
1481 1532 183
1482 1483 24
1482 1528 180
1483 1482 24
1484 1485 33
1485 1484 33
1486 1462 571
1486 1420 893
1486 1487 18
1486 1497 153
1487 1460 596
1487 1486 18
1487 1492 634
1487 1530 994
1488 1489 267
1488 1490 279
1488 1491 131
1488 1494 89
1488 1506 286
1488 1506 288
1489 1488 267
1490 1488 279
1491 1488 131
1491 1498 138
1492 1463 584
1492 1487 634
1492 1500 717
1492 1523 692
1493 1494 101
1494 1493 101
1494 1488 89
1494 1495 8
1494 1513 365
1495 1496 84
1495 1494 8
1495 1513 362
1496 1495 84
1497 1486 153
1497 1477 351
1497 1531 848
1498 1491 138
1499 1474 1339
1499 1440 1218
1499 1500 27
1499 1518 439
1500 1499 27
1500 1463 872
1500 1492 717
1500 1519 438
1501 1478 575
1501 1502 123
1501 1503 115
1501 1520 421
1502 1501 123
1503 1501 115
1504 1505 40
1504 1507 166
1504 1547 925
1505 1504 40
1506 1488 286
1506 1488 288
1506 1522 320
1507 1504 166
1507 1508 93
1507 1509 56
1507 1514 111
1508 1507 93
1509 1507 56
1509 1510 106
1509 1511 702
1509 1516 114
1510 1509 106
1511 1509 702
1512 1474 569
1512 1518 1456
1512 1549 921
1513 1495 362
1513 1494 365
1513 1515 22
1514 1507 111
1515 1513 22
1515 1517 71
1515 1573 1508
1516 1509 114
1517 1515 71
1517 1527 279
1518 1512 1456
1518 1499 439
1518 1519 14
1518 1550 892
1519 1518 14
1519 1500 438
1519 1523 902
1519 1550 889
1520 1501 421
1520 1521 137
1520 1531 405
1521 1520 137
1522 1506 320
1522 1529 3343
1522 1533 278
1523 1519 902
1523 1492 692
1523 1530 900
1523 1559 902
1524 1525 1509
1525 1524 1509
1526 1527 64
1526 1528 770
1526 1539 135
1527 1526 64
1527 1517 279
1528 1526 770
1528 1482 180
1529 1522 3343
1530 1523 900
1530 1487 994
1530 1566 898
1531 1497 848
1531 1520 405
1531 1567 902
1532 1533 831
1532 1481 183
1533 1532 831
1533 1522 278
1533 1538 78
1534 1535 820
1534 1536 68
1534 1543 234
1535 1534 820
1536 1537 155
1536 1534 68
1536 1540 301
1537 1536 155
1538 1533 78
1538 1557 621
1539 1526 135
1539 1558 620
1540 1536 301
1540 1544 155
1540 1545 106
1541 1542 126
1541 1543 32
1541 1544 164
1542 1541 126
1543 1541 32
1543 1534 234
1543 1586 1340
1544 1540 155
1544 1541 164
1544 1545 95
1545 1540 106
1545 1544 95
1545 1546 27
1546 1545 27
1547 1504 925
1547 1548 143
1547 1560 493
1547 1570 908
1548 1547 143
1549 1512 921
1549 1550 1618
1549 1572 661
1550 1549 1618
1550 1518 892
1550 1519 889
1550 1559 995
1550 1582 753
1551 1552 4018
1551 1306 78
1552 1551 4018
1552 1578 422
1553 1554 4020
1553 1581 428
1554 1553 4020
1554 1307 81
1555 1121 9081
1555 1556 1242
1555 1648 4616
1556 1555 1242
1557 1538 621
1557 13883 1517
1558 1539 620
1558 13882 1486
1559 1550 995
1559 1523 902
1559 1566 717
1559 1584 744
1560 1547 493
1561 958 24789
1562 1563 1432
1563 1562 1432
1563 1568 83
1563 1572 1148
1564 1565 4016
1564 1605 3226
1565 1564 4016
1565 1380 58
1566 1559 717
1566 1530 898
1566 1567 15
1566 1589 779
1567 1566 15
1567 1531 902
1567 1588 777
1568 1563 83
1568 1569 122
1568 1569 538
1569 1568 122
1569 1568 538
1569 1575 355
1570 1547 908
1570 1571 346
1570 1576 196
1571 1570 346
1572 1563 1148
1572 1549 661
1572 1582 1687
1572 1583 1690
1572 1646 1649
1573 1515 1508
1573 1574 350
1573 1585 600
1574 1573 350
1575 1569 355
1576 1570 196
1576 1577 381
1576 1594 518
1577 1576 381
1578 1579 423
1578 1552 422
1579 1578 423
1579 1614 450
1580 1581 420
1580 1617 452
1581 1580 420
1581 1553 428
1582 1572 1687
1582 1550 753
1582 1583 16
1582 1589 1560
1583 1572 1690
1583 1582 16
1583 1590 1558
1583 1672 1736
1584 1559 744
1585 1573 600
1585 1605 55
1586 1543 1340
1586 1587 205
1586 1592 1347
1587 1586 205
1587 1602 422
1587 1609 987
1588 1567 777
1588 1589 8
1588 1591 16
1588 1601 685
1589 1582 1560
1589 1566 779
1589 1588 8
1589 1590 14
1590 1583 1558
1590 1589 14
1590 1591 11
1590 1628 737
1591 1590 11
1591 1588 16
1591 1606 715
1591 1627 734
1592 1586 1347
1593 1594 439
1593 1613 950
1594 1593 439
1594 1576 518
1594 1598 665
1594 1619 507
1595 1596 70
1595 1597 82
1595 1600 100
1595 1642 1023
1596 1595 70
1597 1595 82
1598 1594 665
1598 1599 64
1598 1618 382
1599 1598 64
1600 1595 100
1601 1588 685
1602 1587 422
1602 1611 435
1603 1604 17
1604 1603 17
1605 1564 3226
1605 1585 55
1606 1591 715
1607 1608 15
1608 1607 15
1609 1587 987
1609 1786 3732
1610 1611 108
1611 1610 108
1611 1612 193
1611 1602 435
1612 1611 193
1613 1593 950
1614 1615 635
1614 1579 450
1615 1614 635
1615 1725 41
1616 1617 646
1616 1728 42
1617 1616 646
1617 1580 452
1618 1598 382
1618 1620 597
1618 1650 872
1619 1594 507
1619 1631 209
1619 1650 1697
1620 1618 597
1620 1621 97
1620 1622 123
1621 1620 97
1622 1620 123
1622 1623 185
1622 1624 58
1622 1634 144
1623 1622 185
1624 1622 58
1624 1625 90
1624 1626 105
1625 1624 90
1626 1624 105
1627 1591 734
1627 1675 157
1628 1590 737
1628 1674 154
1629 1630 7
1630 1629 7
1631 1619 209
1632 1633 42
1633 1632 42
1634 1635 122
1634 1622 144
1634 1650 309
1635 1634 122
1636 1637 10
1637 1636 10
1638 1639 55
1639 1638 55
1639 1642 110
1639 1658 332
1640 1641 73
1641 1640 73
1642 1639 110
1642 1595 1023
1642 1645 212
1642 1664 334
1643 1644 63
1644 1643 63
1645 1642 212
1646 1572 1649
1646 1647 13
1646 1672 1861
1647 1646 13
1647 1677 1863
1647 1731 3002
1648 1555 4616
1649 1119 9648
1649 1651 1454
1649 1654 629
1649 1775 1681
1650 1619 1697
1650 1618 872
1650 1634 309
1650 1658 451
1651 1068 10210
1651 1649 1454
1651 1652 11
1651 1770 1548
1652 1653 10462
1652 1651 11
1652 1655 549
1652 1769 1544
1653 1652 10462
1653 1049 133
1653 1041 125
1654 1649 629
1654 1656 473
1654 1669 266
1655 1652 549
1656 1654 473
1656 1657 91
1656 1659 298
1656 1665 434
1657 1656 91
1658 1650 451
1658 1639 332
1658 1664 115
1659 1656 298
1659 1660 77
1659 1661 174
1659 1665 131
1660 1659 77
1661 1659 174
1661 1662 104
1661 1663 93
1661 1666 133
1662 1661 104
1663 1661 93
1664 1658 115
1664 1642 334
1664 1689 1908
1665 1656 434
1665 1659 131
1665 1666 172
1665 1671 104
1666 1665 172
1666 1661 133
1666 1667 375
1666 1678 127
1667 1666 375
1668 1669 154
1669 1668 154
1669 1654 266
1669 1670 224
1669 1696 579
1670 1669 224
1671 1665 104
1672 1646 1861
1672 1583 1736
1672 1677 14
1672 1679 732
1673 1674 577
1673 1681 272
1673 1683 290
1674 1673 577
1674 1628 154
1675 1676 576
1675 1627 157
1676 1675 576
1676 1682 258
1676 1685 290
1677 1647 1863
1677 1672 14
1677 1680 736
1677 1731 948
1678 1666 127
1679 1672 732
1679 1680 20
1679 1687 649
1680 1677 736
1680 1679 20
1680 1688 643
1680 1844 1927
1681 1673 272
1681 1687 122
1682 1676 258
1682 1693 175
1683 1684 138
1683 1673 290
1683 1690 152
1684 1683 138
1684 13485 137
1685 1676 290
1685 1686 116
1685 1691 153
1686 1685 116
1686 13486 154
1687 1679 649
1687 1681 122
1687 13485 111
1688 1680 643
1688 13487 112
1688 1712 176
1689 1664 1908
1689 1702 373
1689 1773 3570
1690 1683 152
1690 1692 84
1690 1711 298
1691 1685 153
1691 1695 124
1691 1713 300
1692 1690 84
1692 13487 166
1693 1694 493
1693 13486 120
1693 1682 175
1694 1693 493
1694 1699 158
1695 1691 124
1695 13488 135
1696 1669 579
1697 1698 493
1697 1704 158
1698 1697 493
1698 13488 121
1698 1714 133
1699 1700 528
1699 1694 158
1700 1699 528
1700 1701 327
1700 1703 15
1700 1718 391
1701 1700 327
1702 1689 373
1702 1705 59
1702 1760 444
1703 1704 524
1703 1700 15
1703 1720 392
1703 1723 197
1704 1703 524
1704 1697 158
1705 1702 59
1705 1706 99
1705 1707 56
1705 1716 66
1706 1705 99
1707 1705 56
1707 1708 178
1707 1709 60
1707 1719 102
1708 1707 178
1709 1707 60
1709 1710 120
1709 1715 51
1709 1717 78
1710 1709 120
1711 1712 266
1711 1690 298
1711 1842 1368
1712 1711 266
1712 1688 176
1713 1691 300
1713 1714 287
1713 1843 1366
1714 1713 287
1714 1698 133
1715 1709 51
1716 1705 66
1717 1709 78
1718 1700 391
1718 1720 16
1718 1757 736
1719 1707 102
1720 1703 392
1720 1718 16
1720 1742 188
1720 1759 735
1721 1722 428
1722 1721 428
1722 1788 670
1722 1830 2108
1723 1703 197
1723 1724 18
1723 1742 443
1724 1723 18
1725 1726 2897
1725 1615 41
1726 1725 2897
1726 1737 53
1727 1728 2888
1727 1740 53
1728 1727 2888
1728 1616 42
1729 1730 134
1730 1729 134
1731 1647 3002
1731 1677 948
1731 1845 1484
1732 1733 1344
1732 1736 49
1732 1741 30
1733 1732 1344
1734 1735 46
1735 1734 46
1736 1732 49
1736 1741 35
1736 1755 212
1737 1738 74
1737 1726 53
1738 1737 74
1738 1755 415
1738 1768 304
1739 1740 69
1739 1771 306
1739 1756 713
1740 1739 69
1740 1727 53
1741 1736 35
1741 1732 30
1741 1743 12
1741 1745 7
1742 1723 443
1742 1720 188
1742 1767 191
1743 1741 12
1743 1744 1380
1743 1747 7
1744 1743 1380
1745 1746 32
1745 1741 7
1745 1747 12
1745 1748 32
1746 1745 32
1746 1748 47
1746 1756 207
1747 1745 12
1747 1743 7
1747 1781 376
1748 1746 47
1748 1745 32
1748 1780 344
1749 1750 55
1750 1749 55
1750 1751 46
1750 1752 207
1750 1762 100
1751 1750 46
1752 1750 207
1752 1753 54
1752 1754 187
1752 1764 99
1753 1752 54
1754 1752 187
1755 1736 212
1755 1738 415
1755 1776 650
1756 1746 207
1756 1739 713
1756 1783 302
1757 1718 736
1757 1758 148
1757 1759 16
1757 1761 108
1758 1757 148
1759 1720 735
1759 1757 16
1759 1766 116
1759 1774 180
1760 1702 444
1761 1757 108
1762 1763 443
1762 1750 100
1762 1764 206
1762 1772 83
1763 1762 443
1764 1762 206
1764 1752 99
1764 1765 160
1764 1773 92
1765 1764 160
1766 1759 116
1767 1742 191
1768 1738 304
1768 1782 76
1769 1652 1544
1769 1770 16
1769 1773 305
1769 1958 1918
1770 1769 16
1770 1651 1548
1770 1775 1452
1770 1952 1863
1771 1739 306
1771 1779 75
1772 1762 83
1773 1764 92
1773 1769 305
1773 1689 3570
1774 1759 180
1775 1770 1452
1775 1649 1681
1775 1824 5941
1775 2033 2005
1776 1755 650
1776 1778 75
1777 1778 78
1777 1779 76
1777 1799 457
1778 1777 78
1778 1776 75
1779 1777 76
1779 1771 75
1780 1748 344
1780 1817 53
1781 1747 376
1781 1813 53
1782 1783 170
1782 1768 76
1783 1782 170
1783 1756 302
1783 1797 360
1784 1785 26
1785 1784 26
1786 1609 3732
1786 1789 172
1786 1798 126
1787 1788 90
1788 1787 90
1788 1722 670
1788 1791 18
1788 1964 2936
1789 1786 172
1789 1790 250
1789 1793 84
1789 1802 128
1790 1789 250
1791 1792 88
1791 1788 18
1791 1879 991
1791 1963 2911
1792 1791 88
1793 1789 84
1794 1795 251
1795 1794 251
1795 1796 361
1795 1798 185
1795 1803 106
1796 1795 361
1797 1783 360
1797 1808 87
1798 1795 185
1798 1786 126
1798 1802 173
1798 1894 1080
1799 1777 457
1799 1820 87
1799 1835 85
1800 1801 58
1800 1831 292
1800 1824 655
1801 1800 58
1801 1816 2428
1801 1831 423
1802 1798 173
1802 1789 128
1802 1847 2140
1803 1795 106
1804 1805 270
1804 1836 88
1805 1804 270
1805 1823 101
1806 1807 741
1806 1825 39
1807 1806 741
1807 1864 162
1808 1809 407
1808 1797 87
1809 1808 407
1809 1812 542
1809 1818 229
1810 1811 737
1810 1867 161
1811 1810 737
1811 1829 38
1812 1809 542
1812 1837 88
1813 1814 367
1813 1781 53
1814 1813 367
1814 1815 1655
1814 1816 12
1815 1814 1655
1816 1817 374
1816 1814 12
1816 1801 2428
1817 1816 374
1817 1780 53
1818 1809 229
1818 1821 51
1819 1820 646
1819 1827 49
1820 1819 646
1820 1799 87
1821 1822 170
1821 1818 51
1822 1821 170
1822 1823 156
1822 1825 1399
1823 1822 156
1823 1805 101
1824 1775 5941
1824 1800 655
1825 1822 1399
1825 1806 39
1826 1827 190
1826 1828 188
1826 1829 1387
1827 1826 190
1827 1819 49
1828 1826 188
1828 1839 60
1829 1826 1387
1829 1811 38
1830 1722 2108
1831 1800 292
1831 1801 423
1831 1832 46
1831 1833 286
1832 1831 46
1833 1831 286
1834 1835 457
1834 1836 406
1834 1840 129
1835 1834 457
1835 1799 85
1836 1834 406
1836 1804 88
1837 1838 401
1837 1812 88
1838 1837 401
1838 1839 634
1838 1841 137
1839 1838 634
1839 1828 60
1840 1834 129
1840 13489 55
1841 1838 137
1841 2344 184
1842 1711 1368
1842 1849 108
1842 1851 80
1843 1713 1366
1843 1852 80
1843 1855 113
1844 1680 1927
1844 1845 7
1844 1849 374
1845 1731 1484
1845 1844 7
1845 1846 7
1846 1845 7
1846 1850 376
1846 2127 1809
1847 1802 2140
1847 1848 573
1847 1860 110
1848 1847 573
1849 1844 374
1849 1842 108
1849 1851 73
1850 1846 376
1850 1853 71
1850 1861 107
1851 1849 73
1851 1842 80
1851 1852 13
1851 1853 11
1852 1851 13
1852 1843 80
1852 1854 11
1852 1855 72
1853 1850 71
1853 1851 11
1853 1854 14
1853 1861 78
1854 1853 14
1854 1852 11
1854 1856 73
1854 1862 77
1855 1852 72
1855 1843 113
1855 1857 85
1856 1854 73
1856 1858 85
1856 1862 110
1857 1855 85
1857 1858 12
1857 1872 1057
1858 1856 85
1858 1857 12
1858 1874 1058
1858 2359 1616
1859 1860 173
1860 1859 173
1860 1847 110
1860 1863 330
1860 1869 101
1861 1850 107
1861 1853 78
1861 1897 415
1862 1854 77
1862 1856 110
1862 1890 324
1863 1860 330
1864 1865 2953
1864 1807 162
1865 1864 2953
1865 1880 49
1866 1867 2938
1866 1886 50
1867 1866 2938
1867 1810 161
1868 1869 182
1869 1868 182
1869 1860 101
1869 1875 336
1869 1883 102
1870 1871 198
1870 1889 258
1870 1904 365
1871 1870 198
1872 1857 1057
1872 1873 117
1872 1874 13
1872 1876 259
1873 1872 117
1874 1858 1058
1874 1872 13
1874 1878 259
1875 1869 336
1876 1872 259
1876 1877 299
1876 1878 13
1876 1884 171
1877 1876 299
1878 1874 259
1878 1876 13
1878 1887 171
1878 1922 446
1879 1791 991
1880 1881 87
1880 1865 49
1881 1880 87
1881 1939 491
1882 1883 94
1883 1882 94
1883 1869 102
1883 1888 341
1883 2338 1404
1884 1876 171
1885 1886 90
1885 1927 489
1886 1885 90
1886 1866 50
1887 1878 171
1888 1883 341
1889 1870 258
1890 1862 324
1890 1891 158
1890 1907 162
1891 1890 158
1891 13493 425
1892 1893 473
1892 1899 81
1892 1904 118
1893 1892 473
1894 1798 1080
1894 1903 418
1894 2143 1642
1895 1896 292
1896 1895 292
1897 1898 238
1897 1861 415
1897 1905 65
1898 1897 238
1898 13490 462
1899 1892 81
1899 1900 7
1899 1909 151
1900 1899 7
1900 1906 107
1900 1936 686
1901 1902 26
1902 1901 26
1903 1894 418
1904 1892 118
1904 1870 365
1904 1908 43
1905 1897 65
1905 1928 265
1906 1900 107
1906 1914 123
1906 1917 184
1907 1890 162
1907 1987 623
1908 1904 43
1908 1909 94
1908 1920 149
1909 1899 151
1909 1908 94
1909 1917 108
1909 1924 131
1910 1911 268
1911 1910 268
1911 1931 581
1911 1965 385
1912 1913 176
1912 1915 30
1912 1942 299
1913 1912 176
1914 1906 123
1914 1925 120
1914 1929 165
1915 1916 148
1915 1912 30
1915 1934 169
1916 1915 148
1917 1906 184
1917 1909 108
1917 1929 109
1917 1932 143
1918 1919 66
1918 1921 13
1918 1931 184
1919 1918 66
1920 1908 149
1920 1924 17
1920 1945 194
1921 1918 13
1921 1930 100
1921 1933 97
1922 1878 446
1922 1923 548
1922 3363 2713
1923 1922 548
1924 1909 131
1924 1920 17
1924 1932 104
1925 1914 120
1925 1935 135
1925 1937 189
1926 1927 22
1926 1956 237
1926 2089 552
1927 1926 22
1927 1885 489
1928 1905 265
1928 1939 447
1928 2089 644
1929 1914 165
1929 1917 109
1929 1935 108
1929 1940 152
1930 1921 100
1930 1933 60
1930 1944 152
1931 1911 581
1931 1918 184
1931 1950 120
1932 1917 143
1932 1924 104
1932 1940 100
1932 1945 130
1933 1921 97
1933 1930 60
1933 1950 218
1933 1951 126
1934 1915 169
1935 1925 135
1935 1929 108
1935 1954 163
1936 1900 686
1936 1938 60
1936 1949 169
1937 1925 189
1937 1938 34
1937 1943 26
1938 1936 60
1938 1937 34
1938 1943 41
1939 1928 447
1939 1955 258
1939 1881 491
1940 1929 152
1940 1932 100
1940 1954 107
1940 1961 161
1941 1942 67
1942 1941 67
1942 1912 299
1943 1938 41
1943 1937 26
1943 1983 306
1944 1930 152
1944 1949 91
1944 1951 136
1945 1932 130
1945 1920 194
1945 1961 103
1945 1972 156
1946 1947 153
1947 1946 153
1947 1948 30
1947 1960 109
1947 2007 303
1948 1947 30
1948 1968 65
1949 1936 169
1949 1944 91
1949 1977 123
1950 1931 120
1950 1933 218
1950 1953 98
1950 1957 60
1951 1933 126
1951 1944 136
1951 1957 222
1951 1981 115
1952 1770 1863
1952 2030 243
1952 2744 1313
1953 1950 98
1953 1957 108
1953 1996 345
1954 1935 163
1954 1940 107
1954 1983 126
1954 2003 193
1955 1939 258
1955 2154 152
1956 1926 237
1956 2092 149
1957 1953 108
1957 1950 60
1957 1951 222
1957 1990 71
1958 1769 1918
1958 2044 217
1958 2754 1273
1959 1960 612
1960 1959 612
1960 1947 109
1960 1971 50
1961 1940 161
1961 1945 103
1961 2003 114
1961 2005 156
1962 1963 1929
1963 1962 1929
1963 1791 2911
1963 1964 16
1963 1969 18
1964 1963 16
1964 1788 2936
1964 1966 14
1965 1911 385
1965 1980 49
1965 1980 49
1965 1982 45
1965 1982 45
1966 1964 14
1966 1969 19
1967 1968 386
1967 2007 148
1967 2047 291
1968 1967 386
1968 1948 65
1969 1963 18
1969 1966 19
1969 1970 1902
1970 1969 1902
1971 1960 50
1972 1945 156
1972 2005 97
1972 2009 129
1973 1974 64
1974 1973 64
1975 1976 288
1976 1975 288
1977 1949 123
1977 1978 77
1977 1978 77
1977 1981 176
1977 1981 176
1977 2004 66
1977 2004 66
1978 1977 77
1978 1977 77
1978 1995 53
1978 2017 482
1979 1980 19
1979 1982 31
1979 2147 356
1980 1979 19
1980 1965 49
1980 1965 49
1980 1988 65
1981 1951 115
1981 1977 176
1981 1977 176
1981 1990 245
1981 1990 245
1981 2008 80
1982 1965 45
1982 1965 45
1982 1979 31
1982 2091 292
1983 1943 306
1983 1954 126
1983 2017 108
1983 2018 162
1984 1985 43
1985 1984 43
1985 1986 110
1985 2006 184
1985 2013 96
1986 1985 110
1987 1907 623
1987 2092 532
1987 2153 419
1988 1980 65
1988 1989 260
1988 1996 123
1988 2148 378
1989 1988 260
1990 1957 71
1990 1981 245
1990 1981 245
1990 1996 241
1990 1996 241
1990 2014 97
1991 1992 47
1992 1991 47
1992 1999 197
1992 2115 462
1992 2124 271
1993 1994 14
1994 1993 14
1995 1978 53
1995 2027 116
1996 1953 345
1996 1990 241
1996 1990 241
1996 1988 123
1996 2031 123
1997 1998 2
1997 2001 7
1997 2002 45
1998 1997 2
1999 2000 149
1999 1992 197
1999 2010 943
1999 2137 270
2000 1999 149
2001 1997 7
2002 1997 45
2002 2012 134
2002 2024 79
2003 1954 193
2003 1961 114
2003 2019 58
2003 2046 157
2004 1977 66
2004 1977 66
2004 2008 146
2004 2027 64
2004 2027 64
2005 1961 156
2005 1972 97
2005 2037 96
2005 2046 109
2006 1985 184
2006 2036 178
2006 2094 173
2007 1947 303
2007 1967 148
2007 2049 164
2007 2123 290
2008 1981 80
2008 2004 146
2008 2014 262
2008 2041 78
2009 1972 129
2009 2037 90
2009 2037 90
2009 2045 153
2010 1999 943
2010 2011 115
2010 2251 428
2011 2010 115
2012 2002 134
2012 2052 109
2012 2112 789
2013 1985 96
2013 2021 182
2013 2021 182
2013 2071 117
2014 1990 97
2014 2008 262
2014 2031 184
2014 2054 96
2015 2016 42
2016 2015 42
2016 2020 11
2016 2058 179
2017 1978 482
2017 1983 108
2017 2018 115
2018 2017 115
2018 1983 162
2018 2019 68
2019 2018 68
2019 2003 58
2019 2028 17
2019 2046 149
2020 2016 11
2021 2013 182
2021 2013 182
2021 2022 78
2021 2023 20
2021 2023 20
2022 2021 78
2023 2021 20
2023 2021 20
2023 2024 20
2023 2024 20
2023 2088 121
2024 2023 20
2024 2023 20
2024 2002 79
2024 2032 20
2024 2032 20
2025 2026 44
2025 2067 161
2026 2025 44
2026 2033 484
2026 2099 228
2027 2004 64
2027 2004 64
2027 1995 116
2027 2040 31
2028 2029 298
2028 2029 298
2028 2019 17
2028 2050 68
2028 2068 219
2028 2068 219
2029 2028 298
2029 2028 298
2029 2042 548
2029 2042 548
2029 2151 274
2030 1952 243
2030 2239 719
2030 2254 399
2031 1996 123
2031 2014 184
2031 2076 109
2032 2024 20
2032 2024 20
2032 2052 110
2032 2052 110
2033 1775 2005
2033 2026 484
2033 2217 319
2034 2035 267
2034 2064 81
2035 2034 267
2036 2006 178
2036 2043 64
2036 2108 157
2037 2005 96
2037 2009 90
2037 2009 90
2037 2057 72
2037 2057 72
2038 2039 254
2038 2051 56
2038 2063 245
2039 2038 254
2040 2027 31
2040 2041 114
2040 2042 9
2040 2085 122
2041 2008 78
2041 2040 114
2041 2054 241
2041 2085 78
2042 2040 9
2042 2029 548
2042 2029 548
2042 2087 126
2042 2087 126
2042 2227 344
2043 2036 64
2043 2053 98
2043 2120 121
2044 1958 217
2044 2247 353
2044 2326 578
2045 2009 153
2046 2019 149
2046 2003 157
2046 2005 109
2046 2057 76
2047 1967 291
2047 2048 385
2047 2123 152
2047 2129 151
2047 2173 264
2048 2047 385
2048 2096 276
2049 2007 164
2050 2028 68
2050 2110 85
2050 2128 201
2051 2038 56
2051 2070 42
2051 2081 66
2052 2032 110
2052 2032 110
2052 2012 109
2052 2105 119
2052 2105 119
2053 2043 98
2053 2063 124
2053 2130 103
2054 2014 96
2054 2041 241
2054 2076 176
2054 2125 104
2055 2056 53
2056 2055 53
2057 2046 76
2057 2037 72
2057 2037 72
2057 2060 8
2057 2068 21
2058 2016 179
2058 2059 18
2058 2062 4
2059 2058 18
2060 2057 8
2060 2061 158
2060 2075 20
2060 2191 340
2060 2191 340
2061 2060 158
2061 2135 385
2062 2058 4
2063 2038 245
2063 2053 124
2063 2095 41
2064 2034 81
2065 2066 133
2066 2065 133
2066 2115 721
2066 3021 1397
2067 2025 161
2067 2181 416
2067 2203 702
2068 2028 219
2068 2028 219
2068 2057 21
2068 2075 9
2068 2075 9
2068 2086 22
2069 2070 183
2070 2069 183
2070 2051 42
2070 2121 105
2070 2152 189
2071 2013 117
2071 2074 25
2071 2082 57
2072 2073 453
2072 2077 407
2072 13494 78
2073 2072 453
2073 2077 79
2073 2090 48
2074 2071 25
2074 2080 65
2074 2103 37
2075 2068 9
2075 2068 9
2075 2060 20
2075 2086 24
2075 2197 340
2075 2197 340
2076 2031 109
2076 2054 176
2076 2141 105
2077 2072 407
2077 2073 79
2077 2295 343
2078 2079 87
2078 2079 87
2078 2132 77
2078 2133 77
2078 2134 136
2079 2078 87
2079 2078 87
2079 2100 126
2079 2100 241
2079 2100 241
2080 2074 65
2080 2088 78
2080 2111 37
2081 2051 66
2081 2083 81
2081 2106 51
2082 2071 57
2082 2094 110
2082 2162 143
2083 2081 81
2083 2084 33
2083 2106 35
2083 2114 71
2084 2083 33
2085 2041 78
2085 2040 122
2085 2087 7
2085 2093 32
2086 2068 22
2086 2075 24
2086 2128 71
2087 2085 7
2087 2042 126
2087 2042 126
2087 2107 53
2087 2107 53
2088 2080 78
2088 2023 121
2088 2160 224
2088 2213 211
2089 1926 552
2089 1928 644
2089 2167 172
2090 2073 48
2090 2116 81
2090 2159 136
2091 1982 292
2091 2122 120
2091 2243 326
2092 1987 532
2092 1956 149
2093 2085 32
2093 2107 23
2093 2125 189
2094 2006 173
2094 2082 110
2094 2108 108
2095 2063 41
2095 2114 104
2095 2144 71
2096 2048 276
2096 2097 91
2096 2104 7
2096 2173 310
2097 2096 91
2097 2098 177
2097 2174 367
2098 2097 177
2099 2026 228
2099 2207 440
2099 2202 788
2100 2079 126
2100 2079 241
2100 2079 241
2100 2134 56
2100 2134 56
2101 2102 654
2102 2101 654
2102 2118 22
2102 2395 1170
2103 2074 37
2103 2111 66
2103 2155 102
2104 2096 7
2104 2179 307
2104 2256 622
2104 2304 310
2105 2052 119
2105 2052 119
2105 2112 28
2105 2112 28
2105 2160 135
2106 2081 51
2106 2083 35
2106 2121 47
2106 2126 44
2107 2093 23
2107 2087 53
2107 2087 53
2107 2170 172
2108 2036 157
2108 2094 108
2108 2109 8
2109 2108 8
2109 2117 90
2110 2050 85
2110 2156 111
2110 2185 240
2111 2103 66
2111 2080 37
2111 2113 54
2112 2105 28
2112 2105 28
2112 2012 789
2112 2161 112
2113 2111 54
2114 2083 71
2114 2095 104
2114 2136 39
2115 1992 462
2115 2066 721
2115 2124 188
2115 2188 136
2116 2090 81
2116 2142 80
2116 2165 121
2117 2109 90
2117 2120 20
2117 2303 291
2118 2119 651
2118 2102 22
2118 2178 120
2119 2118 651
2120 2043 121
2120 2117 20
2120 2130 89
2121 2070 105
2121 2106 47
2121 2139 67
2121 2140 55
2122 2091 120
2122 2147 175
2122 2229 191
2123 2007 290
2123 2047 152
2123 2129 10
2123 2176 160
2124 1992 271
2124 2115 188
2124 2137 199
2124 2198 135
2125 2054 104
2125 2093 189
2125 2141 171
2125 2170 115
2126 2106 44
2126 2136 21
2126 2140 38
2127 1846 1809
2127 2138 35
2127 2446 523
2128 2050 201
2128 2086 71
2128 2185 118
2129 2123 10
2129 2047 151
2129 2180 161
2130 2053 103
2130 2120 89
2130 2144 127
2130 2305 276
2131 2132 183
2132 2131 183
2132 2078 77
2132 2133 0
2132 2135 5
2133 2132 0
2133 2078 77
2133 2135 5
2133 2166 170
2134 2078 136
2134 2100 56
2134 2100 56
2134 2145 41
2135 2061 385
2135 2132 5
2135 2133 5
2135 2171 171
2136 2126 21
2136 2114 39
2136 2150 71
2137 1999 270
2137 2124 199
2137 2209 135
2138 2127 35
2138 2149 89
2138 2219 160
2139 2121 67
2140 2121 55
2140 2126 38
2140 2152 81
2141 2076 105
2141 2125 171
2141 2148 97
2141 2257 235
2142 2116 80
2142 2192 105
2142 2196 167
2143 1894 1642
2143 2146 118
2143 2211 119
2144 2095 71
2144 2130 127
2144 2150 90
2144 2299 240
2145 2134 41
2145 2166 59
2145 2166 59
2145 2223 462
2145 2223 462
2146 2143 118
2146 2218 119
2146 2321 890
2147 2122 175
2147 1979 356
2147 2418 390
2148 1988 378
2148 2141 97
2148 2342 330
2149 2138 89
2149 2200 185
2149 2238 166
2150 2136 71
2150 2144 90
2150 2201 103
2151 2029 274
2151 2205 239
2151 2227 209
2152 2070 189
2152 2140 81
2152 2201 115
2153 1987 419
2153 2154 514
2153 2172 40
2154 2153 514
2154 1955 152
2155 2103 102
2156 2110 111
2156 2205 102
2156 2296 333
2157 2158 215
2157 2183 65
2157 2200 72
2158 2157 215
2159 2090 136
2159 2165 75
2159 2194 49
2160 2088 224
2160 2105 135
2160 2212 122
2161 2112 112
2161 2164 9
2161 2169 29
2162 2082 143
2162 2163 60
2162 2233 105
2163 2162 60
2164 2161 9
2164 2169 24
2164 2236 126
2165 2159 75
2165 2116 121
2165 2192 72
2166 2133 170
2166 2145 59
2166 2145 59
2166 2168 5
2166 2168 5
2166 2275 287
2167 2089 172
2167 2939 97
2168 2166 5
2168 2166 5
2168 2171 4
2168 2171 4
2169 2161 29
2169 2164 24
2169 2212 60
2170 2125 115
2170 2107 172
2170 2257 168
2171 2135 171
2171 2168 4
2171 2168 4
2171 2285 287
2171 2294 187
2171 2294 187
2172 2153 40
2172 2945 98
2173 2047 264
2173 2096 310
2173 2179 8
2173 2363 396
2174 2097 367
2174 2264 199
2174 2264 199
2175 2176 208
2176 2175 208
2176 2123 160
2176 2180 5
2176 2182 7
2177 2178 49
2178 2177 49
2178 2118 120
2178 2476 383
2179 2173 8
2179 2104 307
2179 2369 398
2180 2176 5
2180 2129 161
2180 2363 254
2180 2569 746
2181 2067 416
2181 2193 239
2181 2251 1564
2182 2176 7
2182 2564 742
2183 2157 65
2183 2184 143
2183 2216 55
2183 2221 104
2184 2183 143
2185 2110 240
2185 2128 118
2185 2296 153
2185 2335 321
2186 2187 7
2186 2195 302
2186 2222 59
2186 2234 188
2187 2186 7
2187 2190 310
2187 2190 310
2187 2230 185
2187 2230 185
2188 2115 136
2188 2189 206
2188 2198 186
2188 2224 56
2189 2188 206
2190 2187 310
2190 2187 310
2190 2195 9
2190 2199 121
2190 2199 121
2191 2060 340
2191 2060 340
2191 2197 11
2191 2294 250
2191 2294 250
2192 2165 72
2192 2142 105
2192 2250 154
2193 2181 239
2193 2208 64
2194 2159 49
2194 2270 118
2194 2318 235
2195 2186 302
2195 2190 9
2195 2206 124
2195 2259 120
2196 2142 167
2196 2237 126
2196 2250 119
2197 2075 340
2197 2075 340
2197 2191 11
2197 2308 259
2197 2308 259
2197 2335 223
2198 2124 135
2198 2188 186
2198 2209 195
2198 2242 72
2199 2190 121
2199 2190 121
2199 2206 7
2199 2417 549
2199 2417 549
2200 2149 185
2200 2157 72
2200 2384 279
2201 2152 115
2201 2150 103
2201 2276 147
2202 2203 443
2202 2260 1352
2202 2099 788
2203 2202 443
2203 2204 6
2203 2067 702
2204 2203 6
2204 2226 60
2205 2151 239
2205 2156 102
2205 2220 33
2206 2195 124
2206 2199 7
2206 2291 123
2206 2424 545
2207 2099 440
2207 2208 374
2207 2217 314
2208 2207 374
2208 2193 64
2209 2137 135
2209 2198 195
2209 2248 72
2210 2211 121
2211 2210 121
2211 2143 119
2211 2218 118
2211 2268 94
2212 2160 122
2212 2169 60
2212 2255 135
2212 2277 126
2213 2088 211
2213 2214 83
2213 2215 20
2214 2213 83
2214 2232 140
2214 2261 85
2215 2213 20
2215 2265 86
2215 2277 188
2216 2183 55
2217 2033 319
2217 2207 314
2217 2225 18
2217 2235 559
2218 2211 118
2218 2146 119
2218 2228 134
2218 2287 96
2219 2138 160
2220 2205 33
2220 2288 95
2220 2414 426
2221 2183 104
2221 2359 1238
2221 2433 295
2222 2186 59
2223 2145 462
2223 2145 462
2223 2231 120
2223 2231 120
2223 2329 151
2224 2188 56
2225 2217 18
2225 2226 692
2225 2244 555
2225 3378 1944
2226 2225 692
2226 2204 60
2227 2042 344
2227 2151 209
2227 2324 134
2228 2218 134
2229 2122 191
2229 2404 289
2229 2418 462
2230 2187 185
2230 2187 185
2230 2234 7
2230 2271 225
2230 2271 225
2231 2223 120
2231 2223 120
2231 2284 192
2231 2284 192
2231 2367 228
2232 2214 140
2232 2233 10
2232 2302 94
2233 2162 105
2233 2232 10
2233 2249 223
2234 2230 7
2234 2186 188
2234 2278 226
2234 2386 187
2235 2217 559
2235 2241 81
2236 2164 126
2236 2255 37
2236 2331 238
2237 2196 126
2237 2327 173
2237 2328 228
2238 2149 166
2239 2030 719
2239 2266 426
2239 13495 108
2240 2241 85
2240 13495 132
2241 2240 85
2241 2235 81
2242 2198 72
2243 2091 326
2243 2258 55
2243 2393 198
2244 2225 555
2244 2245 79
2245 2246 91
2245 2244 79
2246 2245 91
2246 13496 133
2247 2044 353
2247 2281 328
2247 2325 89
2248 2209 72
2249 2233 223
2249 2303 93
2249 2312 82
2249 2317 288
2249 2320 88
2250 2192 154
2250 2196 119
2250 2323 132
2250 2360 151
2251 2181 1564
2251 2010 428
2251 2260 11
2251 2373 2022
2252 2253 21
2253 2252 21
2254 2030 399
2254 2266 327
2254 2334 96
2255 2212 135
2255 2236 37
2255 2368 137
2256 2104 622
2256 2274 32
2256 2311 63
2257 2141 235
2257 2170 168
2257 2342 109
2258 2243 55
2258 2319 138
2259 2195 120
2259 2291 165
2259 2380 156
2260 2202 1352
2260 2251 11
2260 2387 2024
2260 2522 328
2261 2214 85
2261 2265 84
2261 2302 111
2261 2336 87
2262 2263 874
2263 2262 874
2264 2174 199
2264 2174 199
2264 2274 10
2264 2271 276
2264 2271 276
2265 2261 84
2265 2215 86
2265 2339 89
2266 2254 327
2266 2239 426
2266 2267 11
2267 2266 11
2267 2282 73
2268 2269 110
2268 2211 94
2268 2287 117
2268 2343 92
2269 2268 110
2270 2194 118
2270 2316 97
2270 2432 223
2271 2230 225
2271 2230 225
2271 2264 276
2271 2264 276
2271 2278 7
2272 2273 63
2272 13496 107
2273 2272 63
2273 2307 346
2273 2553 512
2274 2256 32
2274 2264 10
2274 2286 46
2274 2311 42
2275 2166 287
2275 2283 11
2275 2285 10
2276 2201 147
2276 2299 101
2276 2351 106
2277 2215 188
2277 2212 126
2277 2368 183
2278 2271 7
2278 2234 226
2278 2286 234
2278 2821 695
2279 2280 434
2279 2353 71
2280 2279 434
2280 13495 108
2281 2247 328
2281 2282 24
2281 2326 351
2282 2281 24
2282 2267 73
2283 2275 11
2283 2292 10
2283 2293 10
2283 2329 109
2284 2231 192
2284 2231 192
2284 2367 114
2284 2467 328
2284 2467 328
2285 2171 287
2285 2275 10
2285 2292 11
2285 2452 238
2286 2274 46
2286 2278 234
2286 2311 73
2287 2268 117
2287 2218 96
2287 2306 140
2287 2396 134
2288 2220 95
2288 2324 316
2288 2324 316
2288 2545 524
2288 2545 524
2289 2290 650
2290 2289 650
2291 2259 165
2291 2206 123
2291 2388 117
2292 2285 11
2292 2283 10
2292 2293 0
2292 2456 240
2293 2292 0
2293 2283 10
2293 2333 110
2293 2456 240
2294 2191 250
2294 2191 250
2294 2171 187
2294 2171 187
2294 2452 296
2294 2452 296
2295 2077 343
2295 2340 216
2295 2432 160
2296 2156 333
2296 2185 153
2296 2414 141
2297 2298 47
2297 2366 897
2298 2297 47
2298 2376 1084
2299 2276 101
2299 2144 240
2299 2305 132
2299 2313 107
2300 2301 429
2300 13496 107
2301 2300 429
2301 2382 75
2302 2232 94
2302 2261 111
2302 2348 164
2302 2358 81
2303 2117 291
2303 2249 93
2303 2305 110
2304 2104 310
2304 2310 99
2304 2337 108
2305 2299 132
2305 2130 276
2305 2303 110
2306 2287 140
2307 2273 346
2307 2309 19
2307 2334 327
2308 2197 259
2308 2197 259
2308 2364 84
2308 2435 217
2308 2463 286
2309 2307 19
2309 2314 73
2310 2304 99
2310 2365 187
2310 2419 241
2311 2256 63
2311 2274 42
2311 2286 73
2311 2458 198
2312 2249 82
2312 2356 81
2312 2357 72
2313 2299 107
2313 2322 45
2313 2416 123
2314 2315 8
2314 2309 73
2315 2314 8
2315 2374 474
2315 2325 327
2316 2270 97
2316 2318 14
2316 2347 53
2317 2249 288
2317 13887 138
2318 2316 14
2318 2194 235
2318 2443 235
2319 2258 138
2319 2328 133
2319 2350 57
2320 2249 88
2320 2330 24
2320 2357 74
2321 2146 890
2321 2338 132
2321 2560 352
2322 2313 45
2322 2330 110
2322 2346 42
2323 2250 132
2323 2327 227
2323 2438 153
2324 2227 134
2324 2288 316
2324 2288 316
2324 2500 248
2325 2247 89
2325 2315 327
2325 2571 344
2326 2044 578
2326 2281 351
2326 2352 159
2327 2323 227
2327 2237 173
2327 2332 15
2328 2237 228
2328 2319 133
2328 2341 101
2329 2283 109
2329 2223 151
2329 2333 10
2329 2349 66
2330 2322 110
2330 2320 24
2330 2381 74
2331 2236 238
2331 2434 148
2331 2466 174
2332 2327 15
2332 2341 152
2332 2506 286
2333 2293 110
2333 2329 10
2333 2440 282
2334 2254 96
2334 2307 327
2334 2553 300
2335 2185 321
2335 2197 223
2335 2524 275
2336 2261 87
2336 2339 64
2336 2358 83
2337 2304 108
2337 2375 53
2337 2428 154
2338 2321 132
2338 1883 1404
2338 2378 122
2338 2436 111
2339 2336 64
2339 2265 89
2339 2400 67
2340 2295 216
2341 2332 152
2341 2328 101
2341 2350 39
2342 2148 330
2342 2257 109
2342 2514 408
2343 2268 92
2344 2345 3274
2344 1841 184
2345 2344 3274
2345 2471 163
2346 2322 42
2346 2381 72
2346 2422 77
2347 2316 53
2347 2541 266
2348 2302 164
2348 2356 10
2349 2329 66
2349 2439 216
2350 2341 39
2350 2319 57
2350 2377 100
2351 2276 106
2351 2410 72
2351 2412 73
2352 2326 159
2352 2353 534
2352 2394 237
2353 2352 534
2353 2279 71
2354 2355 908
2354 2362 48
2355 2354 908
2355 2479 64
2356 2312 81
2356 2348 10
2356 2403 68
2356 2425 98
2357 2320 74
2357 2312 72
2357 2403 75
2357 2415 76
2358 2302 81
2358 2336 83
2358 2420 74
2358 2425 142
2359 2221 1238
2359 1858 1616
2359 2791 621
2360 2250 151
2361 2362 1091
2361 2538 279
2362 2361 1091
2362 2354 48
2363 2180 254
2363 2173 396
2363 2369 7
2363 2555 379
2364 2308 84
2364 2430 139
2364 2515 219
2365 2310 187
2365 2419 62
2365 2458 196
2366 2297 897
2366 2491 63
2367 2231 228
2367 2284 114
2367 2439 93
2368 2277 183
2368 2255 137
2368 2434 168
2368 2577 301
2369 2363 7
2369 2179 398
2369 2528 232
2369 2588 433
2370 2371 57
2370 2372 56
2370 2384 53
2370 2489 161
2371 2370 57
2372 2370 56
2373 2251 2022
2373 2390 33
2374 2315 474
2374 2383 139
2374 2571 708
2375 2337 53
2376 2298 1084
2376 2547 279
2377 2350 100
2377 2389 45
2377 2473 168
2378 2338 122
2378 2379 30
2378 2537 300
2379 2378 30
2380 2259 156
2380 2385 167
2380 2388 216
2380 2673 392
2381 2346 72
2381 2330 74
2381 2415 77
2381 2429 60
2382 2383 619
2382 2301 75
2383 2382 619
2383 2374 139
2383 2407 152
2384 2370 53
2384 2200 279
2384 2398 69
2384 2499 156
2385 2380 167
2385 2386 161
2385 2731 479
2386 2234 187
2386 2385 161
2386 2770 527
2387 2260 2024
2387 2402 32
2388 2380 216
2388 2291 117
2388 2539 375
2389 2377 45
2389 2393 17
2389 2423 49
2390 2391 865
2390 2373 33
2391 2390 865
2391 2392 3778
2391 2405 813
2392 2391 3778
2392 13489 124
2393 2389 17
2393 2243 198
2393 2397 33
2394 2352 237
2394 2595 113
2395 2102 1170
2396 2287 134
2397 2393 33
2397 2423 26
2397 2514 555
2398 2384 69
2398 2399 99
2398 2433 108
2398 2510 148
2399 2398 99
2400 2339 67
2400 2420 119
2400 2431 65
2401 2402 684
2401 2427 991
2401 2471 668
2402 2401 684
2402 2387 32
2403 2357 75
2403 2356 68
2403 2441 67
2403 2448 91
2404 2229 289
2405 2391 813
2405 2406 122
2405 2427 20
2405 3091 3736
2406 2405 122
2407 2383 152
2407 2611 112
2408 2409 420
2409 2408 420
2409 2417 13
2409 2421 13
2410 2411 184
2410 2351 72
2410 2412 2
2410 2413 1
2411 2410 184
2411 13884 388
2412 2410 2
2412 2351 73
2412 2413 2
2412 2416 96
2412 2449 64
2413 2410 1
2413 2412 2
2413 2451 64
2413 2508 203
2414 2220 426
2414 2296 141
2414 2524 197
2415 2381 77
2415 2357 76
2415 2441 69
2415 2453 70
2416 2412 96
2416 2313 123
2416 2422 57
2417 2199 549
2417 2199 549
2417 2409 13
2417 2421 5
2417 2421 5
2417 2424 7
2417 2424 7
2418 2147 390
2418 2229 462
2418 2514 131
2419 2310 241
2419 2365 62
2419 2590 268
2420 2358 74
2420 2400 119
2420 2472 115
2420 2523 160
2421 2417 5
2421 2417 5
2421 2409 13
2421 2426 7
2421 2775 716
2421 2775 716
2422 2416 57
2422 2346 77
2422 2429 29
2423 2389 49
2423 2397 26
2423 2548 212
2424 2206 545
2424 2417 7
2424 2417 7
2424 2426 5
2424 2539 242
2424 2539 242
2425 2356 98
2425 2358 142
2425 2448 61
2425 2472 95
2426 2424 5
2426 2421 7
2426 2542 242
2426 2784 718
2427 2401 991
2427 2405 20
2427 2760 966
2427 3096 3723
2428 2337 154
2428 2528 367
2428 2593 253
2429 2422 29
2429 2381 60
2429 2453 74
2429 2485 95
2430 2364 139
2430 2437 12
2430 2450 74
2431 2400 65
2431 2505 132
2431 2535 167
2432 2295 160
2432 2270 223
2432 2455 67
2432 2455 67
2432 2460 67
2433 2398 108
2433 2221 295
2433 2518 142
2434 2368 168
2434 2331 148
2434 2444 34
2434 2454 64
2435 2308 217
2435 2450 37
2435 2464 68
2436 2338 111
2437 2430 12
2437 2554 254
2438 2323 153
2438 2442 23
2438 2506 329
2439 2349 216
2439 2367 93
2439 2440 8
2439 2530 309
2440 2333 282
2440 2439 8
2440 2544 308
2441 2415 69
2441 2403 67
2441 2483 85
2441 2486 69
2442 2438 23
2442 2443 92
2442 2521 346
2443 2318 235
2443 2442 92
2443 2484 56
2444 2445 18
2444 2434 34
2444 2454 65
2444 2507 80
2445 2444 18
2445 2503 271
2445 2503 79
2446 2447 467
2446 2127 523
2446 2489 302
2446 2646 329
2447 2446 467
2448 2403 91
2448 2425 61
2448 2483 62
2448 2502 96
2449 2412 64
2449 2451 2
2449 2540 146
2450 2430 74
2450 2435 37
2450 2457 10
2451 2413 64
2451 2449 2
2451 2531 154
2451 2540 145
2452 2294 296
2452 2294 296
2452 2285 238
2452 2456 9
2452 2456 9
2452 2463 15
2453 2429 74
2453 2415 70
2453 2486 72
2453 2511 83
2454 2444 65
2454 2434 64
2454 2492 66
2455 2432 67
2455 2432 67
2455 2459 7
2455 2459 7
2455 2460 7
2456 2452 9
2456 2452 9
2456 2292 240
2456 2293 240
2456 2468 15
2456 2468 15
2456 2763 729
2457 2450 10
2457 2536 126
2458 2365 196
2458 2311 198
2458 2574 173
2459 2455 7
2459 2455 7
2459 2465 7
2459 2533 167
2459 2533 167
2460 2455 7
2460 2432 67
2460 2465 8
2460 2582 244
2461 2462 455
2462 2461 455
2463 2308 286
2463 2452 15
2463 2464 0
2463 2468 12
2464 2435 68
2464 2463 0
2464 2468 12
2464 2558 154
2465 2459 7
2465 2460 8
2465 2533 167
2465 2582 246
2466 2331 174
2466 2492 70
2466 2631 234
2467 2284 328
2467 2284 328
2467 2469 9
2467 2469 9
2467 2530 109
2468 2464 12
2468 2463 12
2468 2456 15
2468 2456 15
2468 2501 59
2468 2871 578
2468 2871 578
2469 2467 9
2469 2467 9
2469 2470 252
2469 2470 252
2469 2534 107
2470 2469 252
2470 2469 252
2471 2401 668
2471 2345 163
2472 2425 95
2472 2420 115
2472 2502 55
2472 2523 165
2473 2377 168
2473 2527 113
2473 2601 273
2474 2475 26
2475 2474 26
2475 2504 126
2475 2618 220
2476 2178 383
2477 2478 19
2478 2477 19
2479 2480 597
2479 2355 64
2480 2479 597
2480 2603 104
2481 2482 67
2482 2481 67
2483 2441 85
2483 2448 62
2483 2519 62
2483 2526 103
2484 2443 56
2484 2541 150
2484 2541 196
2485 2429 95
2485 2511 79
2485 2540 89
2486 2453 72
2486 2441 69
2486 2519 77
2486 2525 71
2487 2488 30
2487 2488 30
2488 2487 30
2488 2487 30
2488 2509 70
2489 2446 302
2489 2370 161
2489 2499 56
2490 2491 618
2490 2623 98
2491 2490 618
2491 2366 63
2492 2454 66
2492 2466 70
2492 2615 186
2493 2494 26
2494 2493 26
2495 2496 339
2496 2495 339
2497 2498 35
2498 2497 35
2499 2489 56
2499 2384 156
2499 2510 71
2500 2324 248
2501 2468 59
2501 2780 669
2501 2913 588
2502 2448 96
2502 2472 55
2502 2526 54
2503 2445 271
2503 2445 79
2503 2507 17
2504 2475 126
2505 2431 132
2505 2563 95
2505 2577 153
2506 2438 329
2506 2332 286
2506 2521 31
2507 2503 17
2507 2444 80
2507 2616 166
2508 2413 203
2508 2512 12
2508 2531 102
2509 2488 70
2510 2499 71
2510 2398 148
2510 2518 72
2511 2485 79
2511 2453 83
2511 2525 67
2511 2556 83
2512 2513 54
2512 2513 54
2512 2508 12
2512 2532 43
2513 2512 54
2513 2512 54
2513 2520 239
2513 2520 239
2513 2635 212
2514 2397 555
2514 2418 131
2514 2342 408
2514 2548 486
2515 2364 219
2515 2516 7
2516 2517 167
2516 2515 7
2516 2572 88
2517 2516 167
2518 2510 72
2518 2433 142
2518 2936 571
2519 2486 77
2519 2483 62
2519 2552 58
2519 2562 111
2520 2513 239
2520 2513 239
2521 2506 31
2521 2527 82
2521 2442 346
2522 2260 328
2523 2472 165
2523 2420 160
2523 2529 39
2524 2414 197
2524 2335 275
2524 2704 271
2525 2511 67
2525 2486 71
2525 2552 81
2525 2576 77
2526 2483 103
2526 2502 54
2526 2562 59
2526 2587 231
2527 2521 82
2527 2473 113
2527 2667 258
2528 2369 232
2528 2428 367
2528 2696 237
2529 2523 39
2529 2535 26
2529 2587 92
2530 2439 309
2530 2467 109
2530 2534 14
2530 2544 14
2531 2508 102
2531 2451 154
2531 2550 43
2532 2512 43
2533 2459 167
2533 2459 167
2533 2465 167
2533 2557 30
2533 2559 47
2533 2559 47
2534 2530 14
2534 2469 107
2534 2549 16
2534 2599 457
2535 2529 26
2535 2431 167
2535 2563 86
2536 2457 126
2536 2558 62
2536 2554 115
2537 2378 300
2537 2538 1015
2537 2546 11
2537 2560 568
2538 2537 1015
2538 2361 279
2539 2388 375
2539 2424 242
2539 2424 242
2539 2542 6
2539 2543 6
2539 2681 256
2539 2681 256
2540 2451 145
2540 2449 146
2540 2485 89
2540 2556 67
2540 2570 83
2540 2583 72
2541 2347 266
2541 2484 150
2541 2484 196
2541 2551 71
2542 2539 6
2542 2426 242
2542 2543 1
2543 2539 6
2543 2542 1
2543 2705 311
2543 2959 775
2544 2440 308
2544 2530 14
2544 2549 14
2544 2763 330
2545 2288 524
2545 2288 524
2545 2704 352
2545 2704 352
2545 2937 1334
2546 2537 11
2546 2547 1011
2546 2573 579
2546 3481 1870
2547 2546 1011
2547 2376 279
2548 2423 212
2548 2514 486
2548 2601 135
2548 3255 1078
2549 2544 14
2549 2534 16
2549 2568 55
2549 2774 331
2550 2531 43
2550 2570 64
2550 2596 87
2551 2541 71
2551 2683 103
2552 2525 81
2552 2519 58
2552 2580 107
2552 2591 66
2553 2334 300
2553 2273 512
2553 2744 274
2554 2437 254
2554 2536 115
2554 2581 49
2555 2363 379
2555 2602 88
2556 2540 67
2556 2511 83
2556 2576 73
2557 2533 30
2557 2559 32
2557 2653 112
2557 2661 215
2558 2536 62
2558 2464 154
2558 2840 381
2559 2533 47
2559 2533 47
2559 2557 32
2559 2584 158
2559 2584 158
2560 2321 352
2560 2537 568
2560 2561 2723
2560 2573 15
2561 2560 2723
2561 2888 4014
2562 2519 111
2562 2526 59
2562 2580 37
2562 2665 236
2563 2535 86
2563 2505 95
2563 2598 132
2563 2625 86
2564 2565 244
2564 2182 742
2564 2569 10
2564 2628 84
2565 2564 244
2566 2567 98
2566 2673 226
2566 2681 234
2567 2566 98
2568 2549 55
2568 2609 402
2568 2613 402
2569 2564 10
2569 2180 746
2569 2630 80
2570 2550 64
2570 2540 83
2570 2596 114
2571 2374 708
2571 2325 344
2571 2754 275
2572 2516 88
2572 2642 113
2573 2560 15
2573 2546 579
2573 2575 3911
2573 2592 41
2574 2458 173
2574 2585 167
2574 2813 322
2575 2573 3911
2575 2658 6890
2576 2556 73
2576 2525 77
2576 2591 91
2576 2608 57
2577 2505 153
2577 2368 301
2577 2589 53
2577 2598 43
2578 2579 43
2579 2578 43
2580 2552 107
2580 2562 37
2580 2620 54
2581 2554 49
2581 2650 122
2582 2465 246
2582 2460 244
2582 2624 91
2583 2540 72
2583 2641 67
2583 2706 215
2584 2559 158
2584 2559 158
2584 2586 7
2584 2586 7
2584 2680 117
2585 2574 167
2585 2590 45
2585 2800 264
2586 2584 7
2586 2584 7
2587 2526 231
2587 2529 92
2587 2625 119
2587 2665 94
2588 2369 433
2588 2610 38
2588 2672 98
2589 2577 53
2589 2616 103
2589 2657 71
2590 2419 268
2590 2585 45
2590 2607 153
2591 2576 91
2591 2552 66
2591 2620 89
2592 2573 41
2593 2428 253
2593 2597 117
2593 2607 182
2593 2743 192
2594 2595 1746
2594 2606 47
2595 2594 1746
2595 2394 113
2596 2550 87
2596 2570 114
2596 2635 55
2597 2593 117
2598 2563 132
2598 2577 43
2598 2666 72
2599 2534 457
2599 2600 144
2599 2609 6
2599 2614 151
2600 2599 144
2601 2473 273
2601 2548 135
2601 2667 101
2601 2878 554
2602 2555 88
2602 2610 6
2602 2637 50
2603 2604 1381
2603 2480 104
2604 2603 1381
2604 2605 78
2605 2606 942
2605 2604 78
2606 2605 942
2606 2594 47
2607 2593 182
2607 2590 153
2607 2766 207
2608 2576 57
2608 2619 16
2608 2641 44
2609 2568 402
2609 2599 6
2609 2613 3
2609 2621 208
2610 2602 6
2610 2588 38
2610 2639 39
2610 2651 31
2611 2612 1747
2611 2407 112
2612 2611 1747
2612 2626 47
2613 2568 402
2613 2609 3
2613 2629 208
2613 2716 168
2614 2599 151
2614 2618 54
2615 2492 186
2615 2631 23
2615 2677 80
2616 2589 103
2616 2507 166
2616 2617 8
2617 2616 8
2617 2654 84
2617 2695 101
2618 2614 54
2618 2475 220
2618 2621 3
2618 2628 176
2619 2608 16
2619 2676 161
2619 2703 130
2620 2591 89
2620 2580 54
2620 2676 95
2620 2676 95
2620 2702 161
2621 2609 208
2621 2618 3
2621 2629 5
2621 2634 176
2622 2623 1382
2622 2627 77
2623 2622 1382
2623 2490 98
2624 2582 91
2624 2679 151
2624 2730 171
2625 2587 119
2625 2563 86
2625 2660 88
2625 2669 51
2626 2627 947
2626 2612 47
2627 2626 947
2627 2622 77
2628 2618 176
2628 2564 84
2628 2630 12
2628 2634 4
2629 2613 208
2629 2621 5
2629 2640 145
2630 2628 12
2630 2569 80
2630 2636 4
2630 2637 274
2631 2615 23
2631 2466 234
2631 2687 195
2632 2633 145
2632 2649 73
2632 2649 43
2633 2632 145
2634 2621 176
2634 2628 4
2634 2636 12
2634 2645 7
2635 2513 212
2635 2596 55
2635 2685 111
2636 2634 12
2636 2630 4
2636 2638 24
2636 2643 7
2637 2602 50
2637 2639 9
2637 2630 274
2638 2636 24
2639 2637 9
2639 2610 39
2639 2651 27
2639 2655 41
2640 2629 145
2640 2645 32
2640 2664 39
2641 2583 67
2641 2608 44
2641 2668 37
2641 2706 146
2642 2572 113
2642 2650 9
2643 2636 7
2643 2644 22
2643 2645 11
2643 2662 24
2644 2643 22
2644 2655 224
2644 2662 37
2645 2640 32
2645 2634 7
2645 2643 11
2645 2664 27
2646 2446 329
2646 2936 675
2646 2971 1249
2647 2648 189
2647 2648 189
2647 2656 25
2647 2656 25
2647 2711 114
2648 2647 189
2648 2647 189
2649 2632 73
2649 2632 43
2649 2674 195
2650 2642 9
2650 2581 122
2650 2738 156
2651 2639 27
2651 2610 31
2651 2652 2
2651 2663 23
2652 2651 2
2652 2672 39
2653 2557 112
2653 2661 110
2653 2680 134
2654 2617 84
2654 2677 143
2654 2701 83
2655 2644 224
2655 2639 41
2655 2663 66
2656 2647 25
2656 2647 25
2656 2686 209
2656 2686 209
2656 2715 114
2657 2589 71
2657 2675 42
2657 2684 45
2658 2659 2013
2658 2575 6890
2659 2658 2013
2659 2717 50
2660 2625 88
2660 2666 38
2660 2669 88
2661 2653 110
2661 2557 215
2661 2682 152
2662 2643 24
2662 2644 37
2662 2699 66
2663 2655 66
2663 2651 23
2663 2712 93
2664 2640 39
2664 2645 27
2664 2700 63
2665 2562 236
2665 2587 94
2665 2678 44
2665 2690 51
2666 2660 38
2666 2598 72
2666 2675 109
2666 2697 62
2667 2527 258
2667 2601 101
2667 2878 287
2668 2641 37
2668 2714 102
2668 2706 185
2669 2625 51
2669 2660 88
2669 2678 116
2669 2724 114
2670 2671 91
2670 2776 413
2670 2798 298
2671 2670 91
2672 2652 39
2672 2588 98
2672 2713 78
2673 2380 392
2673 2566 226
2673 2721 83
2674 2649 195
2675 2666 109
2675 2657 42
2675 2684 38
2675 2733 96
2676 2619 161
2676 2620 95
2676 2620 95
2676 2703 75
2676 2703 75
2676 2759 137
2677 2654 143
2677 2615 80
2677 2723 77
2678 2665 44
2678 2669 116
2678 2690 65
2678 2768 177
2679 2624 151
2679 2726 84
2679 2786 165
2680 2584 117
2680 2653 134
2680 2711 214
2680 2745 101
2681 2566 234
2681 2539 256
2681 2539 256
2681 2746 140
2681 2746 140
2682 2661 152
2682 2683 83
2682 2735 109
2682 2740 115
2683 2682 83
2683 2551 103
2684 2675 38
2684 2657 45
2684 2695 88
2684 2819 166
2685 2635 111
2685 2753 771
2685 2783 199
2686 2656 209
2686 2656 209
2686 2698 111
2686 2698 111
2686 2762 113
2687 2631 195
2687 2691 89
2687 2789 135
2688 2689 130
2688 2691 129
2688 2727 65
2689 2688 130
2689 2698 98
2689 2707 52
2690 2665 51
2690 2678 65
2690 2692 19
2691 2688 129
2691 2687 89
2691 2749 88
2692 2690 19
2692 2702 84
2692 2859 203
2693 2694 226
2693 13497 14
2694 2693 226
2695 2684 88
2695 2617 101
2695 2701 67
2695 2772 104
2696 2528 237
2696 2719 73
2696 2720 51
2697 2666 62
2697 2724 56
2697 2733 118
2698 2689 98
2698 2686 111
2698 2686 111
2698 2707 105
2698 2806 116
2699 2662 66
2699 2700 11
2699 2792 109
2700 2664 63
2700 2699 11
2700 2716 445
2700 2817 131
2701 2695 67
2701 2654 83
2701 2708 55
2701 2732 52
2702 2620 161
2702 2692 84
2702 2739 86
2702 2954 339
2703 2619 130
2703 2676 75
2703 2676 75
2703 2714 49
2703 2714 49
2703 2808 130
2704 2545 352
2704 2545 352
2704 2524 271
2704 2893 252
2704 2893 252
2705 2543 311
2705 2748 83
2705 2910 537
2706 2583 215
2706 2641 146
2706 2668 185
2707 2689 52
2707 2698 105
2707 2727 121
2707 2828 124
2708 2701 55
2708 2723 61
2708 2732 61
2709 2710 1205
2709 2757 419
2710 2709 1205
2710 2887 49
2711 2647 114
2711 2680 214
2711 2715 24
2711 2811 99
2712 2663 93
2712 2779 71
2712 2804 127
2713 2672 78
2713 2761 114
2713 2773 67
2714 2668 102
2714 2703 49
2714 2703 49
2714 2822 121
2715 2656 114
2715 2711 24
2715 2762 220
2715 2814 98
2716 2613 168
2716 2700 445
2716 2884 219
2717 2718 1211
2717 2659 50
2718 2717 1211
2718 2777 420
2719 2696 73
2719 2720 69
2719 2761 342
2720 2719 69
2720 2696 51
2720 2736 19
2720 2743 218
2721 2673 83
2721 2722 56
2721 2742 119
2722 2721 56
2722 2728 40
2722 2729 14
2723 2708 61
2723 2677 77
2723 2782 196
2724 2669 114
2724 2697 56
2724 2768 71
2724 2818 126
2725 2726 121
2725 2730 56
2725 2816 104
2726 2725 121
2726 2679 84
2726 2786 143
2726 2852 140
2727 2688 65
2727 2707 121
2727 2749 131
2727 2829 100
2728 2722 40
2728 2731 43
2728 2734 13
2729 2722 14
2729 2734 23
2729 2747 22
2729 2769 228
2730 2624 171
2730 2725 56
2730 2735 19
2731 2385 479
2731 2728 43
2731 2770 230
2732 2701 52
2732 2708 61
2732 2772 70
2732 3114 491
2733 2697 118
2733 2675 96
2733 2818 82
2733 2834 147
2734 2728 13
2734 2729 23
2734 2747 15
2734 2809 372
2735 2682 109
2735 2730 19
2735 2740 139
2735 2820 125
2736 2720 19
2736 2741 56
2736 2787 444
2736 2805 58
2737 2738 180
2738 2737 180
2738 2650 156
2738 2840 176
2739 2702 86
2739 2759 47
2739 2947 267
2740 2682 115
2740 2745 288
2740 2735 139
2740 2801 64
2741 2736 56
2741 2755 153
2741 2805 70
2742 2721 119
2742 2746 134
2742 2802 100
2743 2720 218
2743 2593 192
2743 2755 18
2743 2766 178
2744 1952 1313
2744 2553 274
2744 4647 2869
2745 2680 101
2745 2740 288
2745 2807 190
2745 2963 273
2746 2681 140
2746 2681 140
2746 2742 134
2746 2781 43
2746 2781 43
2747 2734 15
2747 2729 22
2747 2892 218
2748 2705 83
2748 2802 63
2748 2824 77
2749 2691 88
2749 2727 131
2749 2789 135
2750 2751 162
2751 2750 162
2751 2752 85
2751 2758 52
2751 2875 138
2752 2751 85
2753 2685 771
2754 2571 275
2754 1958 1273
2754 4648 2854
2755 2741 153
2755 2743 18
2755 2767 58
2756 2757 266
2757 2756 266
2757 2709 419
2758 2751 52
2758 2765 255
2758 2765 40
2758 2890 159
2759 2676 137
2759 2739 47
2759 2795 52
2760 2427 966
2760 2764 188
2760 2873 127
2761 2713 114
2761 2719 342
2761 2773 77
2762 2686 113
2762 2715 220
2762 2806 119
2762 2858 101
2763 2456 729
2763 2544 330
2763 2774 17
2763 2780 13
2764 2760 188
2764 2881 137
2764 2926 277
2765 2758 255
2765 2758 40
2765 2771 73
2765 2891 154
2766 2743 178
2766 2607 207
2766 2788 18
2766 2800 157
2767 2755 58
2767 2788 120
2767 2905 169
2768 2678 177
2768 2724 71
2768 2846 108
2768 2861 134
2769 2729 228
2769 2802 54
2769 2841 79
2770 2386 527
2770 2731 230
2770 2793 93
2771 2765 73
2772 2695 104
2772 2732 70
2772 2819 60
2772 3068 391
2773 2713 67
2773 2761 77
2773 2779 8
2773 2796 14
2774 2763 17
2774 2549 331
2774 2794 13
2774 2884 438
2775 2421 716
2775 2421 716
2775 2784 6
2775 2785 6
2775 2928 300
2775 2928 300
2776 2670 413
2776 2797 191
2776 2885 155
2777 2778 260
2777 2718 420
2778 2777 260
2779 2712 71
2779 2773 8
2779 2803 14
2779 2804 100
2780 2501 669
2780 2763 13
2780 2794 16
2780 3097 473
2781 2746 43
2781 2746 43
2781 2802 17
2782 2723 196
2782 2789 18
2782 2812 28
2783 2685 199
2784 2426 718
2784 2775 6
2784 2785 0
2784 2959 251
2785 2784 0
2785 2775 6
2785 2934 301
2785 2959 251
2786 2726 143
2786 2679 165
2786 2948 229
2787 2736 444
2787 2796 45
2787 2836 65
2788 2767 120
2788 2766 18
2788 2815 155
2788 2914 167
2789 2782 18
2789 2687 135
2789 2749 135
2789 2812 18
2789 2812 18
2789 2833 67
2789 2833 67
2790 2791 797
2791 2790 797
2791 2359 621
2791 2907 450
2791 3050 424
2792 2699 109
2792 2831 74
2792 2842 56
2793 2770 93
2793 2809 10
2793 2821 154
2794 2780 16
2794 2774 13
2794 2832 95
2794 3104 472
2795 2759 52
2795 2808 22
2795 2898 168
2796 2773 14
2796 2787 45
2796 2803 11
2796 2836 49
2797 2776 191
2798 2799 225
2798 2670 298
2798 2885 257
2798 3022 438
2799 2798 225
2800 2766 157
2800 2585 264
2800 2813 108
2800 2815 18
2801 2740 64
2801 2952 207
2802 2769 54
2802 2742 100
2802 2781 17
2802 2748 63
2802 2824 66
2802 2837 83
2802 2841 66
2802 2844 65
2803 2779 14
2803 2796 11
2803 2810 55
2803 2838 46
2804 2712 127
2804 2779 100
2804 2831 242
2805 2736 58
2805 2741 70
2805 2883 124
2806 2698 116
2806 2762 119
2806 2828 120
2806 2876 99
2807 2745 190
2807 2811 26
2807 2853 65
2808 2703 130
2808 2795 22
2808 2822 50
2809 2793 10
2809 2734 372
2809 2825 161
2809 2925 167
2810 2803 55
2810 2838 77
2810 2848 298
2811 2711 99
2811 2807 26
2811 2814 24
2812 2782 28
2812 2789 18
2812 2789 18
2812 2835 32
2812 2835 32
2813 2800 108
2813 2574 322
2813 2826 18
2813 2839 258
2814 2715 98
2814 2811 24
2814 2823 30
2815 2788 155
2815 2800 18
2815 2826 105
2816 2725 104
2816 2820 17
2816 2852 139
2817 2700 131
2817 2843 35
2817 2851 79
2818 2724 126
2818 2733 82
2818 2861 80
2818 2882 135
2819 2684 166
2819 2772 60
2819 2827 14
2819 2827 14
2820 2735 125
2820 2816 17
2820 2906 182
2820 2906 424
2821 2278 695
2821 2793 154
2821 2825 11
2821 2839 266
2822 2714 121
2822 2808 50
2822 2931 206
2823 2814 30
2823 2857 182
2823 2864 65
2824 2802 66
2824 2748 77
2824 3106 818
2825 2821 11
2825 2809 161
2825 2845 186
2825 2950 184
2826 2815 105
2826 2813 18
2826 2847 207
2827 2819 14
2827 2819 14
2827 2834 11
2827 2932 146
2828 2707 124
2828 2806 120
2828 2829 112
2828 2829 112
2828 2897 103
2829 2727 100
2829 2828 112
2829 2828 112
2829 2830 173
2829 2830 173
2829 2903 108
2830 2829 173
2830 2829 173
2830 2833 40
2830 2833 40
2830 2904 106
2831 2792 74
2831 2804 242
2831 2842 68
2832 2794 95
2832 2899 338
2832 3126 408
2833 2789 67
2833 2789 67
2833 2830 40
2833 2830 40
2833 2835 49
2834 2733 147
2834 2827 11
2834 2882 93
2835 2812 32
2835 2812 32
2835 2833 49
2835 2908 108
2836 2796 49
2836 2787 65
2836 2944 154
2837 2802 83
2837 2844 110
2837 2962 351
2838 2810 77
2838 2803 46
2838 2951 157
2839 2813 258
2839 2821 266
2839 2850 12
2840 2738 176
2840 2558 381
2840 3055 338
2841 2769 79
2841 2802 66
2841 2991 287
2842 2792 56
2842 2831 68
2842 2843 10
2842 2854 18
2843 2817 35
2843 2842 10
2843 2851 58
2843 2856 17
2844 2802 65
2844 2837 110
2844 3000 287
2845 2825 186
2845 2850 73
2845 2879 61
2846 2768 108
2846 2872 61
2846 2909 128
2847 2826 207
2847 2849 40
2847 2877 66
2848 2810 298
2848 2854 64
2848 2886 105
2849 2847 40
2849 2850 19
2850 2849 19
2850 2839 12
2850 2845 73
2850 2868 47
2850 2877 47
2851 2817 79
2851 2843 58
2851 2863 109
2852 2816 139
2852 2726 140
2852 2972 198
2853 2807 65
2853 2855 11
2853 2864 80
2854 2842 18
2854 2848 64
2854 2856 9
2854 2886 59
2855 2853 11
2855 2864 99
2855 2957 273
2856 2843 17
2856 2854 9
2856 2860 59
2856 2880 44
2857 2823 182
2857 2858 19
2857 2989 195
2858 2762 101
2858 2857 19
2858 2862 18
2859 2692 203
2859 2872 60
2859 2954 125
2860 2856 59
2860 2870 107
2860 2880 61
2861 2768 134
2861 2818 80
2861 2909 120
2861 2943 144
2862 2858 18
2862 2876 115
2862 2997 191
2863 2851 109
2863 2870 16
2863 2884 345
2864 2823 65
2864 2853 80
2864 2855 99
2864 2915 97
2864 2920 78
2865 2866 1
2865 2867 255
2865 2875 135
2865 2998 179
2866 2865 1
2867 2865 255
2868 2850 47
2868 2869 2
2868 2877 58
2869 2868 2
2869 2879 21
2869 3198 546
2870 2863 16
2870 2860 107
2870 2899 354
2870 3178 458
2871 2468 578
2871 2468 578
2871 2913 145
2871 3057 291
2871 3057 291
2872 2859 60
2872 2846 61
2872 2953 113
2873 2760 127
2873 2874 194
2873 2881 177
2873 2911 57
2874 2873 194
2875 2751 138
2875 2865 135
2875 3007 179
2876 2806 99
2876 2862 115
2876 2897 123
2876 3010 178
2877 2847 66
2877 2850 47
2877 2868 58
2877 3118 463
2878 2667 287
2878 2601 554
2878 2889 112
2878 3255 805
2879 2869 21
2879 2845 61
2879 2933 103
2880 2860 61
2880 2856 44
2880 3224 506
2881 2764 137
2881 2873 177
2881 2921 54
2882 2818 135
2882 2834 93
2882 2932 93
2882 2943 88
2883 2805 124
2883 2905 192
2883 2927 331
2883 2988 153
2884 2716 219
2884 2863 345
2884 2774 438
2884 2899 22
2885 2798 257
2885 2776 155
2885 2889 11
2886 2854 59
2886 2848 105
2886 3064 250
2887 2888 6288
2887 2710 49
2888 2887 6288
2888 2561 4014
2889 2885 11
2889 2878 112
2889 3033 222
2889 3033 222
2890 2758 159
2891 2765 154
2892 2747 218
2892 2922 196
2892 2991 226
2892 2999 168
2893 2704 252
2893 2704 252
2893 2919 29
2893 2919 29
2893 2937 167
2893 2937 167
2894 2895 52
2895 2894 52
2895 2896 231
2895 2900 78
2895 3396 756
2896 2895 231
2897 2828 103
2897 2876 123
2897 2903 109
2897 2975 116
2898 2795 168
2898 2931 43
2898 2947 114
2899 2884 22
2899 2870 354
2899 2832 338
2899 3133 352
2900 2895 78
2900 2901 244
2900 2902 39
2900 3017 152
2901 2900 244
2902 2900 39
2903 2829 108
2903 2897 109
2903 2904 175
2903 2977 111
2904 2830 106
2904 2903 175
2904 2908 86
2904 2980 111
2905 2883 192
2905 2767 169
2905 2914 120
2905 3067 229
2906 2820 182
2906 2820 424
2906 3011 181
2907 2791 450
2908 2835 108
2908 2904 86
2908 2984 149
2909 2846 128
2909 2861 120
2909 2953 88
2909 2966 97
2910 2705 537
2911 2873 57
2911 2912 116
2911 2921 173
2911 2995 110
2912 2911 116
2913 2871 145
2913 2501 588
2913 3108 337
2914 2905 120
2914 2788 167
2914 3118 415
2915 2864 97
2915 2920 71
2915 2958 42
2916 2917 43
2917 2916 43
2917 2918 110
2917 2923 41
2917 2968 80
2918 2917 110
2919 2893 29
2919 2893 29
2919 2983 182
2919 2983 182
2919 3036 167
2919 3036 167
2920 2915 71
2920 2864 78
2920 2967 70
2921 2881 54
2921 2911 173
2921 2926 104
2922 2892 196
2922 2925 26
2922 3002 108
2923 2917 41
2923 2924 72
2923 2929 39
2923 2973 80
2924 2923 72
2925 2809 167
2925 2922 26
2925 2942 78
2926 2764 277
2926 2921 104
2926 3043 657
2926 3194 385
2927 2883 331
2927 2944 158
2927 3130 282
2928 2775 300
2928 2775 300
2928 2934 9
2928 2934 9
2928 2935 9
2928 3075 387
2928 3075 387
2929 2923 39
2929 2930 69
2929 2940 49
2929 2976 80
2930 2929 69
2931 2822 206
2931 2898 43
2931 2996 133
2932 2882 93
2932 2827 146
2932 3025 135
2933 2879 103
2933 3004 139
2933 3196 399
2934 2785 301
2934 2928 9
2934 2928 9
2934 2935 0
2934 3079 225
2934 3079 225
2934 3080 225
2935 2934 0
2935 2928 9
2935 3081 225
2935 3086 384
2936 2646 675
2936 2518 571
2936 3204 625
2937 2545 1334
2937 2893 167
2937 2893 167
2937 3089 229
2937 3089 229
2938 2939 1054
2938 3029 91
2939 2938 1054
2939 2167 97
2940 2929 49
2940 2941 73
2940 2949 61
2940 2990 80
2941 2940 73
2942 2925 78
2942 2950 37
2942 3002 183
2943 2861 144
2943 2882 88
2943 2966 125
2943 3025 184
2943 3052 204
2944 2836 154
2944 2927 158
2944 2951 16
2944 3049 160
2945 2946 1057
2945 2172 98
2946 2945 1057
2946 3034 83
2947 2898 114
2947 2739 267
2947 2954 97
2947 3045 161
2948 2786 229
2948 2972 120
2948 3042 178
2949 2940 61
2950 2825 184
2950 2942 37
2950 3004 131
2951 2838 157
2951 2944 16
2951 3051 161
2952 2801 207
2952 2970 71
2952 3011 116
2953 2872 113
2953 2909 88
2953 2954 82
2954 2947 97
2954 2702 339
2954 2859 125
2954 2953 82
2954 3031 192
2955 2956 178
2955 2964 80
2955 2994 66
2956 2955 178
2957 2855 273
2957 2963 17
2957 2978 54
2958 2915 42
2958 2989 120
2958 3111 239
2959 2543 775
2959 2784 251
2959 2785 251
2959 3079 329
2959 3106 251
2959 3106 251
2960 2961 1428
2960 2994 326
2960 3091 706
2961 2960 1428
2962 2837 351
2962 3008 134
2962 3163 362
2963 2957 17
2963 2745 273
2963 2970 63
2963 3001 64
2964 2955 80
2964 2965 121
2964 3009 66
2965 2964 121
2966 2909 97
2966 2943 125
2966 3003 64
2967 2920 70
2967 2974 21
2967 3148 405
2968 2969 51
2968 2917 80
2968 2973 41
2968 3044 102
2969 2968 51
2970 2963 63
2970 2952 71
2970 3001 43
2971 2646 1249
2971 3185 1720
2971 3283 513
2972 2852 198
2972 2948 120
2972 3016 122
2972 3098 171
2973 2968 41
2973 2923 80
2973 2976 39
2973 3023 64
2974 2967 21
2974 2987 36
2974 3128 200
2975 2897 116
2975 2977 99
2975 3010 132
2975 3065 117
2976 2973 39
2976 2929 80
2976 2990 51
2976 3012 30
2977 2903 111
2977 2975 99
2977 2979 140
2977 3046 92
2978 2957 54
2978 3001 43
2978 3030 70
2979 2977 140
2979 2980 35
2979 3048 106
2980 2904 111
2980 2979 35
2980 2981 37
2981 2980 37
2981 2982 79
2981 3151 232
2982 2981 79
2982 2984 55
2982 3165 259
2983 2919 182
2983 2919 182
2983 3036 218
2983 3055 201
2983 3056 201
2984 2908 149
2984 2982 55
2984 3208 321
2985 2986 21
2985 13887 1455
2986 2985 21
2986 3062 132
2986 3135 262
2987 2974 36
2987 3018 134
2987 3131 189
2988 2883 153
2988 3067 147
2988 3078 202
2989 2857 195
2989 2958 120
2989 2997 42
2989 3105 159
2990 2976 51
2990 2940 80
2990 3006 67
2990 3013 22
2991 2892 226
2991 2841 287
2991 3000 10
2991 3072 150
2992 2993 123
2992 2998 65
2992 3083 128
2993 2992 123
2994 2960 326
2994 2955 66
2994 3009 77
2994 3020 33
2995 2911 110
2996 2931 133
2996 3005 12
2996 3005 582
2996 3005 582
2997 2862 191
2997 2989 42
2997 3010 131
2997 3107 159
2998 2865 179
2998 2992 65
2998 3007 125
2998 3087 127
2999 2892 168
2999 3002 91
2999 3072 214
2999 3183 293
3000 2991 10
3000 2844 287
3000 3076 151
3001 2978 43
3001 2963 64
3001 2970 43
3001 3030 84
3001 3077 124
3001 3077 124
3002 2922 108
3002 2999 91
3002 2942 183
3003 2966 64
3003 3031 55
3003 3058 116
3004 2933 139
3004 2950 131
3004 3216 459
3005 2996 12
3005 3045 100
3005 2996 582
3005 2996 582
3006 2990 67
3007 2875 179
3007 2998 125
3007 3014 139
3007 3090 123
3008 2962 134
3008 3032 48
3008 3113 317
3009 2994 77
3009 2964 66
3009 3015 44
3009 3149 203
3010 2975 132
3010 2876 178
3010 2997 131
3010 3088 121
3011 2952 116
3011 2906 181
3011 3210 301
3012 2976 30
3013 2990 22
3014 3007 139
3015 3009 44
3015 3041 48
3015 3044 149
3016 2972 122
3016 3019 22
3016 3098 185
3017 2900 152
3018 2987 134
3018 3184 295
3019 3016 22
3019 3206 355
3020 2994 33
3021 2066 1397
3021 3024 136
3021 3116 151
3022 2798 438
3023 2973 64
3024 3021 136
3024 3043 340
3024 3092 94
3025 2943 184
3025 2932 135
3025 3068 79
3026 3027 14
3026 3027 229
3026 3069 107
3027 3026 14
3027 3026 229
3027 3073 101
3028 3029 81
3028 3167 24
3029 3028 81
3029 2938 91
3030 2978 70
3030 3001 84
3030 3148 179
3031 2954 192
3031 3003 55
3031 3119 150
3032 3008 48
3032 3047 68
3032 3059 49
3033 2889 222
3033 2889 222
3033 3063 52
3033 3063 52
3033 3277 772
3034 3035 87
3034 2946 83
3035 3034 87
3035 3168 24
3036 2919 167
3036 2919 167
3036 2983 218
3036 3141 251
3036 3141 251
3037 3038 385
3037 3161 440
3037 3251 462
3038 3037 385
3039 3040 363
3040 3039 363
3041 3015 48
3042 2948 178
3042 3095 91
3042 3145 156
3043 3024 340
3043 2926 657
3043 3110 90
3044 3015 149
3044 2968 102
3044 3185 205
3045 3005 100
3045 2947 161
3045 3074 54
3046 2977 92
3046 3048 95
3046 3065 80
3046 3134 114
3047 3032 68
3047 3059 81
3047 3218 350
3048 2979 106
3048 3046 95
3048 3152 133
3049 2944 160
3049 3051 17
3049 3156 139
3050 2791 424
3050 3071 88
3050 3084 48
3051 2951 161
3051 3049 17
3051 3070 159
3051 3159 141
3052 2943 204
3052 3123 147
3052 3154 175
3053 3054 59
3053 3060 70
3053 3109 72
3054 3053 59
3055 2983 201
3055 2840 338
3055 3056 0
3055 3057 2
3056 2983 201
3056 3055 0
3056 3057 1
3056 3142 114
3057 3056 1
3057 3055 2
3057 2871 291
3057 2871 291
3057 3082 36
3057 3082 36
3058 3003 116
3058 3123 111
3058 3136 120
3059 3032 49
3059 3047 81
3059 3258 441
3060 3061 57
3060 3053 70
3060 3066 65
3060 3117 74
3061 3060 57
3062 2986 132
3062 13499 591
3063 3033 52
3063 3033 52
3063 3145 114
3063 3145 114
3063 3171 215
3064 2886 250
3064 3070 407
3064 3228 250
3065 3046 80
3065 2975 117
3065 3088 181
3065 3147 104
3066 3060 65
3066 3117 545
3066 3122 69
3067 2988 147
3067 2905 229
3067 3164 212
3067 3213 287
3068 3025 79
3068 2772 391
3068 3114 88
3069 3026 107
3069 3073 13
3069 3075 60
3070 3051 159
3070 3064 407
3070 3300 345
3071 3050 88
3071 3099 151
3071 3252 286
3072 2999 214
3072 2991 150
3072 3076 11
3072 3183 210
3073 3069 13
3073 3027 101
3073 3115 61
3074 3045 54
3074 3094 40
3074 3119 85
3074 3138 91
3075 2928 387
3075 2928 387
3075 3069 60
3075 3086 10
3075 3115 87
3075 3115 87
3076 3072 11
3076 3000 151
3076 3188 210
3077 3001 124
3077 3001 124
3077 3127 96
3077 3236 270
3077 3236 270
3078 2988 202
3078 3130 174
3078 3164 148
3079 2959 329
3079 2934 225
3079 2934 225
3079 3080 1
3079 3100 32
3080 3079 1
3080 2934 225
3080 3081 1
3080 3100 32
3081 3080 1
3081 2935 225
3081 3124 58
3081 3281 637
3082 3057 36
3082 3057 36
3082 3108 83
3082 3144 78
3082 3144 78
3083 2992 128
3083 3087 66
3083 3132 58
3083 3096 1058
3084 3085 806
3084 3050 48
3084 3101 31
3085 3084 806
3086 2935 384
3086 3075 10
3086 3125 88
3087 2998 127
3087 3083 66
3087 3090 127
3087 3120 43
3088 3065 181
3088 3010 121
3088 3107 127
3088 3160 125
3089 2937 229
3089 2937 229
3089 3257 332
3089 3257 332
3089 3401 587
3090 3007 123
3090 3087 127
3090 3157 87
3091 2405 3736
3091 2960 706
3091 3096 21
3091 3501 924
3092 3093 82
3092 3024 94
3092 3110 340
3092 3137 51
3093 3092 82
3094 3074 40
3094 3205 244
3094 3336 603
3095 3042 91
3095 3102 10
3095 3153 93
3096 2427 3723
3096 3091 21
3096 3083 1058
3096 3523 938
3097 2780 473
3097 3104 14
3097 3400 475
3098 3016 185
3098 2972 171
3098 3150 115
3099 3071 151
3099 3112 55
3099 3275 283
3100 3079 32
3100 3080 32
3100 3124 25
3101 3084 31
3101 3226 223
3101 3239 221
3102 3103 122
3102 3095 10
3102 3150 73
3103 3102 122
3104 3097 14
3104 2794 472
3104 3126 263
3104 3291 295
3105 2989 159
3105 3107 38
3105 3111 16
3106 2824 818
3106 2959 251
3106 2959 251
3106 3113 10
3106 3113 10
3106 3225 361
3107 3088 127
3107 2997 159
3107 3105 38
3107 3140 45
3108 3082 83
3108 2913 337
3108 3146 77
3109 3053 72
3110 3092 340
3110 3043 90
3110 3162 69
3111 3105 16
3111 2958 239
3111 3140 39
3112 3099 55
3112 3129 52
3112 3287 283
3113 3008 317
3113 3106 10
3113 3106 10
3113 3121 6
3113 3121 6
3113 3234 360
3114 3068 88
3114 2732 491
3114 3135 20
3115 3075 87
3115 3075 87
3115 3073 61
3115 3125 9
3115 3199 225
3115 3199 225
3116 3021 151
3116 3137 171
3116 3672 967
3117 3060 74
3117 3066 545
3117 3122 62
3118 2914 415
3118 2877 463
3118 3213 219
3118 3263 311
3119 3074 85
3119 3031 150
3119 3138 24
3119 3155 71
3120 3087 43
3121 3113 6
3121 3113 6
3121 3408 507
3122 3066 69
3122 3117 62
3123 3058 111
3123 3052 147
3123 3136 144
3124 3100 25
3124 3081 58
3124 3225 176
3125 3086 88
3125 3115 9
3125 3200 223
3126 3104 263
3126 2832 408
3126 3133 183
3127 3077 96
3127 3148 172
3127 3230 414
3128 2974 200
3128 3131 35
3128 3195 113
3129 3112 52
3129 3139 56
3129 3299 282
3130 2927 282
3130 3078 174
3130 3156 159
3130 3243 195
3131 3128 35
3131 2987 189
3131 3174 66
3132 3083 58
3133 3126 183
3133 2899 352
3133 3178 360
3134 3046 114
3134 3147 98
3134 3152 90
3134 3207 127
3135 2986 262
3135 3114 20
3135 3154 30
3135 3182 110
3136 3058 120
3136 3123 144
3136 3170 80
3136 3209 126
3137 3116 171
3137 3092 51
3137 3162 341
3138 3074 91
3138 3119 24
3138 3217 187
3139 3129 56
3139 3308 282
3139 3316 334
3140 3107 45
3140 3111 39
3140 3176 90
3140 3180 102
3141 3036 251
3141 3036 251
3141 3142 132
3141 3143 132
3142 3141 132
3142 3056 114
3142 3143 0
3142 3144 1
3143 3141 132
3143 3142 0
3143 3144 2
3143 3289 271
3144 3143 2
3144 3142 1
3144 3082 78
3144 3082 78
3144 3284 262
3144 3284 262
3145 3042 156
3145 3063 114
3145 3063 114
3145 3179 56
3145 3179 56
3146 3108 77
3146 3322 296
3146 3332 463
3147 3134 98
3147 3065 104
3147 3158 112
3147 3181 62
3148 2967 405
3148 3030 179
3148 3127 172
3148 3214 156
3149 3009 203
3150 3098 115
3150 3102 73
3150 3186 74
3151 2981 232
3151 3152 88
3151 3165 44
3152 3151 88
3152 3048 133
3152 3134 90
3153 3095 93
3153 3177 50
3153 3186 198
3154 3052 175
3154 3135 30
3154 3249 186
3155 3119 71
3155 3170 32
3156 3049 139
3156 3130 159
3156 3159 18
3156 3262 184
3157 3090 87
3158 3147 112
3158 3160 54
3158 3235 135
3159 3051 141
3159 3156 18
3159 3264 182
3160 3158 54
3160 3088 125
3160 3201 90
3161 3037 440
3162 3137 341
3162 3110 69
3162 3194 496
3163 2962 362
3163 3218 148
3163 3314 254
3164 3078 148
3164 3067 212
3164 3243 255
3164 3276 290
3165 2982 259
3165 3151 44
3165 3191 69
3165 3211 83
3166 3167 247
3166 3190 27
3167 3166 247
3167 3028 24
3168 3169 241
3168 3035 24
3169 3168 241
3169 3192 32
3170 3155 32
3170 3136 80
3170 3215 109
3171 3063 215
3172 3173 19
3172 3242 177
3172 3323 363
3173 3172 19
3173 13884 1783
3174 3131 66
3174 3175 254
3174 3187 31
3175 3174 254
3176 3140 90
3176 3201 83
3176 3232 98
3177 3153 50
3177 3179 31
3177 3280 202
3178 3133 360
3178 2870 458
3178 3224 224
3178 3547 602
3179 3177 31
3179 3145 56
3179 3145 56
3179 3295 193
3179 3295 193
3180 3140 102
3180 3219 100
3180 3232 150
3180 3241 108
3181 3147 62
3181 3207 151
3181 3250 122
3182 3135 110
3182 13499 349
3183 2999 293
3183 3072 210
3183 3188 14
3183 3216 70
3184 3018 295
3184 3187 24
3184 3202 37
3185 3044 205
3185 2971 1720
3185 3694 692
3186 3150 74
3186 3206 47
3186 3153 198
3187 3174 31
3187 3184 24
3187 3195 38
3188 3183 14
3188 3076 210
3188 3223 72
3189 3190 42
3189 3417 20
3190 3189 42
3190 3166 27
3191 3165 69
3191 3197 30
3191 3212 33
3192 3193 43
3192 3169 32
3193 3192 43
3193 3424 20
3194 3162 496
3194 2926 385
3194 3247 1145
3195 3128 113
3195 3187 38
3195 3219 44
3196 2933 399
3196 3198 3
3197 3191 30
3197 3208 24
3197 3212 41
3198 2869 546
3198 3196 3
3198 3263 172
3198 3433 466
3199 3115 225
3199 3115 225
3199 3200 6
3199 3200 6
3199 3203 69
3199 3203 69
3199 3229 53
3200 3125 223
3200 3199 6
3200 3199 6
3200 3231 49
3200 3231 49
3201 3160 90
3201 3176 83
3201 3235 87
3202 3184 37
3202 3214 15
3202 3219 90
3203 3199 69
3203 3199 69
3203 3229 75
3203 3229 75
3203 3420 575
3204 2936 625
3204 3337 415
3204 3449 458
3205 3094 244
3206 3019 355
3206 3186 47
3206 3280 185
3207 3134 127
3207 3181 151
3207 3211 153
3207 3244 127
3207 3282 131
3208 2984 321
3208 3197 24
3208 3227 33
3209 3136 126
3209 3215 10
3209 3260 152
3210 3011 301
3210 3236 55
3210 3318 708
3211 3165 83
3211 3207 153
3211 3212 67
3212 3197 41
3212 3191 33
3212 3211 67
3212 3222 19
3213 3067 287
3213 3118 219
3213 3240 84
3213 3367 353
3214 3202 15
3214 3148 156
3214 3230 72
3214 3265 119
3215 3170 109
3215 3209 10
3215 3321 285
3216 3004 459
3216 3183 70
3216 3223 14
3216 3433 424
3217 3138 187
3217 3245 61
3217 3323 273
3218 3163 148
3218 3047 350
3218 3258 126
3219 3180 100
3219 3195 44
3219 3202 90
3219 3241 100
3219 3265 77
3220 3221 352
3221 3220 352
3222 3212 19
3222 3233 25
3222 3253 118
3223 3216 14
3223 3188 72
3223 3442 422
3224 3178 224
3224 2880 506
3224 3228 14
3224 3530 418
3225 3106 361
3225 3124 176
3225 3234 11
3225 3382 479
3226 3101 223
3226 3239 80
3226 3337 218
3227 3208 33
3227 3233 27
3227 3333 195
3228 3224 14
3228 3064 250
3228 3272 155
3228 3531 411
3229 3199 53
3229 3203 75
3229 3203 75
3229 3231 5
3229 3231 5
3230 3214 72
3230 3127 414
3230 3248 400
3231 3200 49
3231 3200 49
3231 3229 5
3231 3229 5
3231 3281 146
3232 3176 98
3232 3180 150
3232 3271 114
3233 3227 27
3233 3222 25
3233 3311 142
3234 3113 360
3234 3225 11
3234 3391 476
3235 3158 135
3235 3201 87
3235 3238 16
3235 3271 92
3236 3077 270
3236 3077 270
3236 3210 55
3236 3237 173
3236 3248 18
3236 3592 601
3237 3236 173
3237 3356 377
3238 3235 16
3238 3261 59
3238 3312 110
3239 3226 80
3239 3101 221
3239 3252 100
3239 3376 231
3240 3213 84
3240 3276 112
3240 3279 80
3241 3180 108
3241 3219 100
3241 3288 137
3241 3325 124
3242 3172 177
3242 13498 356
3243 3130 195
3243 3164 255
3243 3262 160
3243 3387 270
3244 3207 127
3244 3268 86
3244 3327 124
3245 3217 61
3245 13498 394
3246 3247 1091
3247 3246 1091
3247 3194 1145
3247 4563 1991
3248 3230 400
3248 3236 18
3248 3254 11
3249 3154 186
3249 3266 76
3249 3307 91
3250 3181 122
3250 3261 39
3250 3268 31
3251 3037 462
3252 3239 100
3252 3071 286
3252 3269 102
3252 3399 232
3253 3222 118
3253 3282 98
3253 3311 94
3254 3248 11
3254 3528 472
3254 3542 382
3255 2878 805
3255 2548 1078
3255 3256 82
3255 3256 82
3255 3502 361
3255 3505 400
3255 3505 400
3256 3255 82
3256 3255 82
3257 3089 332
3257 3089 332
3257 3289 107
3257 3290 107
3258 3218 126
3258 3259 217
3258 3059 441
3258 3330 108
3259 3258 217
3260 3209 152
3261 3250 39
3261 3238 59
3261 3274 41
3262 3156 184
3262 3243 160
3262 3264 20
3262 3489 331
3263 3118 311
3263 3198 172
3263 3367 223
3263 3513 485
3264 3159 182
3264 3262 20
3264 3278 84
3264 3496 331
3265 3219 77
3265 3214 119
3265 3334 120
3266 3249 76
3266 3267 127
3266 3273 88
3267 3266 127
3268 3244 86
3268 3250 31
3268 3274 11
3269 3252 102
3269 3270 117
3269 3275 49
3269 3421 233
3270 3269 117
3271 3235 92
3271 3232 114
3271 3313 57
3272 3228 155
3272 3302 152
3272 3534 358
3273 3266 88
3274 3268 11
3274 3261 41
3274 3309 44
3275 3269 49
3275 3099 283
3275 3287 52
3275 3429 234
3276 3164 290
3276 3240 112
3276 3328 80
3276 3343 211
3277 3033 772
3277 3295 112
3277 3471 362
3278 3264 84
3278 3300 113
3278 3511 302
3279 3240 80
3279 3328 109
3279 3368 218
3280 3206 185
3280 3177 202
3280 3324 54
3281 3081 637
3281 3231 146
3281 3379 280
3281 3569 520
3282 3253 98
3282 3207 131
3282 3327 126
3282 3351 125
3283 2971 513
3283 3297 74
3283 3353 185
3284 3144 262
3284 3144 262
3284 3292 10
3284 3296 47
3285 3286 47
3285 3542 586
3286 3285 47
3286 3301 30
3287 3275 52
3287 3112 283
3287 3299 53
3287 3444 234
3288 3241 137
3288 3315 61
3288 3320 43
3289 3257 107
3289 3143 271
3289 3290 0
3289 3292 9
3290 3257 107
3290 3289 0
3290 3292 9
3290 3317 40
3291 3104 295
3291 3293 27
3291 3406 179
3292 3290 9
3292 3289 9
3292 3284 10
3292 3317 40
3293 3291 27
3293 3294 195
3293 3342 190
3294 3293 195
3295 3179 193
3295 3179 193
3295 3277 112
3295 3319 47
3295 3340 126
3295 3340 126
3296 3284 47
3296 3322 134
3296 3344 98
3297 3283 74
3297 3298 53
3297 3305 72
3297 3353 110
3298 3297 53
3299 3287 53
3299 3129 282
3299 3308 57
3299 3457 235
3300 3070 345
3300 3278 113
3300 3304 44
3301 3286 30
3302 3272 152
3302 3303 292
3302 3304 162
3302 3518 282
3303 3302 292
3304 3302 162
3304 3300 44
3304 3515 275
3305 3297 72
3305 3306 17
3305 3310 36
3305 3365 111
3306 3305 17
3307 3249 91
3307 3321 21
3307 3326 29
3308 3299 57
3308 3139 282
3308 3316 51
3308 3470 236
3309 3274 44
3309 3312 79
3309 3345 75
3310 3305 36
3311 3233 142
3311 3253 94
3311 3333 86
3311 3351 130
3312 3309 79
3312 3238 110
3312 3313 83
3312 3346 73
3313 3312 83
3313 3271 57
3313 3315 27
3313 3347 76
3314 3163 254
3314 3362 87
3314 3408 559
3315 3313 27
3315 3288 61
3315 3320 46
3316 3308 51
3316 3139 334
3316 3363 360
3316 3470 286
3317 3290 40
3317 3292 40
3317 3701 607
3318 3210 708
3318 3331 38
3318 3477 251
3319 3295 47
3319 3324 108
3319 3355 96
3320 3315 46
3320 3288 43
3320 3325 86
3320 3350 73
3321 3215 285
3321 3307 21
3321 3326 24
3321 3329 20
3322 3296 134
3322 3146 296
3322 3339 171
3323 3217 273
3323 3172 363
3323 3329 43
3324 3280 54
3324 3319 108
3324 3331 20
3325 3320 86
3325 3241 124
3325 3334 104
3325 3364 84
3326 3321 24
3326 3307 29
3326 3372 310
3327 3282 126
3327 3244 124
3327 3345 115
3327 3414 144
3328 3276 80
3328 3279 109
3328 3354 103
3328 3394 132
3329 3323 43
3329 3321 20
3329 3336 23
3330 3258 108
3331 3318 38
3331 3324 20
3331 3383 115
3331 3459 181
3332 3146 463
3332 3339 24
3332 3360 225
3333 3227 195
3333 3311 86
3333 3335 4
3333 3427 194
3334 3325 104
3334 3265 120
3334 3380 78
3334 3381 98
3335 3333 4
3335 3373 27
3336 3094 603
3336 3329 23
3336 3338 57
3336 3405 111
3337 3204 415
3337 3226 218
3337 3376 154
3337 3621 450
3338 3336 57
3338 3372 306
3338 3452 160
3339 3322 171
3339 3332 24
3339 3352 90
3339 3415 110
3340 3295 126
3340 3295 126
3340 3355 73
3340 3418 124
3340 3418 124
3341 3342 63
3342 3341 63
3342 3293 190
3342 3375 517
3343 3276 211
3343 3369 48
3343 3387 115
3344 3296 98
3344 3443 184
3344 3608 358
3345 3327 115
3345 3309 75
3345 3346 77
3345 3384 55
3346 3345 77
3346 3312 73
3346 3347 83
3346 3386 55
3347 3346 83
3347 3313 76
3347 3350 70
3347 3392 57
3348 3349 260
3348 3356 41
3348 3477 172
3349 3348 260
3350 3347 70
3350 3320 73
3350 3364 92
3350 3397 57
3351 3311 130
3351 3282 125
3351 3414 133
3351 3427 96
3352 3339 90
3352 3377 103
3352 3441 108
3353 3283 185
3353 3297 110
3353 3365 72
3353 3395 51
3354 3328 103
3354 3366 105
3354 3419 86
3355 3319 96
3355 3340 73
3355 3383 105
3355 3430 110
3356 3237 377
3356 3348 41
3356 3555 242
3357 3358 133
3358 3357 133
3358 3359 56
3358 3370 174
3358 3407 63
3359 3358 56
3360 3332 225
3360 3361 42
3360 3385 38
3361 3360 42
3362 3314 87
3362 3682 654
3362 3804 947
3363 3316 360
3363 1922 2713
3363 4253 1667
3364 3350 92
3364 3325 84
3364 3380 82
3364 3409 59
3365 3353 72
3365 3305 111
3365 3403 48
3365 3938 809
3366 3354 105
3366 3369 16
3366 3374 16
3367 3213 353
3367 3263 223
3367 3410 77
3367 3483 185
3368 3279 218
3368 3410 71
3368 3462 155
3369 3343 48
3369 3366 16
3369 3374 3
3370 3358 174
3370 3371 41
3370 3395 214
3370 3436 79
3371 3370 41
3372 3326 310
3372 3373 66
3372 3338 306
3372 3702 598
3373 3372 66
3373 3335 27
3374 3369 3
3374 3366 16
3374 3438 96
3374 3507 175
3375 3342 517
3376 3337 154
3376 3239 231
3376 3398 26
3376 3399 101
3377 3352 103
3377 3385 46
3377 3472 112
3378 2225 1944
3378 3396 82
3378 3464 115
3379 3281 280
3379 3382 5
3380 3364 82
3380 3334 78
3380 3428 60
3380 3437 93
3381 3334 98
3381 3412 73
3381 3437 65
3382 3225 479
3382 3379 5
3382 3391 12
3382 3677 603
3383 3331 115
3383 3355 105
3383 3454 97
3383 3468 100
3384 3345 55
3384 3386 77
3384 3431 56
3385 3377 46
3385 3360 38
3385 3435 197
3385 3491 117
3386 3384 77
3386 3346 55
3386 3392 83
3386 3434 56
3387 3243 270
3387 3343 115
3387 3489 225
3388 3389 347
3388 3479 279
3388 3722 468
3388 3722 468
3389 3388 347
3389 3390 115
3389 3432 99
3389 3649 335
3390 3389 115
3391 3234 476
3391 3382 12
3391 3393 5
3391 3662 563
3392 3386 83
3392 3347 57
3392 3397 70
3392 3446 60
3393 3391 5
3393 3566 213
3394 3328 132
3394 3419 116
3394 3462 103
3395 3370 214
3395 3353 51
3395 3403 72
3395 3411 21
3396 3378 82
3396 2895 756
3396 3413 397
3396 3464 86
3397 3392 70
3397 3350 57
3397 3409 82
3397 3451 62
3398 3376 26
3399 3376 101
3399 3252 232
3399 3421 101
3400 3097 475
3400 3435 92
3400 3458 65
3401 3402 577
3401 3089 587
3401 3520 127
3402 3401 577
3403 3395 72
3403 3365 48
3403 3474 83
3404 3405 118
3405 3404 118
3405 3336 111
3405 3426 28
3406 3291 179
3406 3461 63
3406 3480 111
3407 3358 63
3408 3314 559
3408 3121 507
3408 3682 342
3408 3566 1192
3409 3397 82
3409 3364 59
3409 3428 81
3409 3463 59
3410 3368 71
3410 3367 77
3410 3514 156
3410 3553 192
3411 3395 21
3412 3381 73
3412 3469 181
3412 3517 110
3413 3396 397
3413 3644 251
3413 4049 1560
3414 3351 133
3414 3327 144
3414 3490 155
3414 3516 108
3415 3339 110
3415 3441 98
3415 3529 120
3416 3417 721
3416 3536 15
3417 3416 721
3417 3189 20
3418 3340 124
3418 3340 124
3418 3430 75
3418 3467 61
3418 3467 61
3419 3354 86
3419 3394 116
3419 3438 98
3419 3473 68
3420 3203 575
3420 3569 206
3420 3663 467
3421 3399 101
3421 3269 233
3421 3429 51
3422 3423 59
3422 3439 75
3422 3512 151
3422 3616 377
3423 3422 59
3424 3425 727
3424 3193 20
3425 3424 727
3425 3543 15
3426 3405 28
3426 3452 64
3426 3538 146
3427 3333 194
3427 3351 96
3427 3516 136
3428 3409 81
3428 3380 60
3428 3478 55
3429 3421 51
3429 3275 234
3429 3444 53
3429 3456 26
3430 3355 110
3430 3418 75
3430 3454 103
3431 3384 56
3431 3434 76
3431 3445 12
3432 3389 99
3432 3521 167
3432 3685 338
3433 3198 466
3433 3216 424
3433 3442 11
3433 3513 107
3434 3431 76
3434 3386 56
3434 3446 85
3434 3447 8
3435 3385 197
3435 3400 92
3435 3458 74
3435 3562 144
3436 3370 79
3437 3380 93
3437 3381 65
3437 3499 67
3438 3374 96
3438 3419 98
3438 3540 106
3439 3422 75
3439 3440 82
3439 3512 73
3440 3439 82
3441 3415 98
3441 3352 108
3441 3450 38
3442 3433 11
3442 3223 422
3442 3522 110
3443 3344 184
3443 3465 35
3443 3657 300
3444 3429 53
3444 3287 234
3444 3457 51
3445 3431 12
3445 3447 74
3445 3490 49
3446 3434 85
3446 3392 60
3446 3451 69
3446 3453 10
3447 3445 74
3447 3434 8
3447 3453 85
3447 3495 53
3448 3449 368
3449 3448 368
3449 3204 458
3449 3675 441
3449 3679 338
3450 3441 38
3450 3472 88
3450 3567 110
3451 3446 69
3451 3397 62
3451 3460 8
3451 3463 72
3452 3426 64
3452 3338 160
3452 3600 208
3453 3447 85
3453 3446 10
3453 3460 69
3453 3500 48
3454 3383 97
3454 3430 103
3454 3468 85
3454 3504 56
3455 3456 248
3456 3455 248
3456 3429 26
3456 3494 162
3457 3444 51
3457 3299 235
3457 3470 59
3458 3435 74
3458 3400 65
3458 3461 14
3458 3562 99
3459 3331 181
3459 3468 89
3459 3482 46
3460 3453 69
3460 3451 8
3460 3466 70
3460 3503 48
3461 3458 14
3461 3406 63
3461 3480 77
3461 3519 58
3462 3394 103
3462 3368 155
3462 3473 168
3462 3514 68
3463 3451 72
3463 3409 59
3463 3466 8
3463 3478 79
3464 3378 115
3464 3396 86
3464 3622 170
3465 3443 35
3465 3561 107
3465 3693 287
3466 3460 70
3466 3463 8
3466 3488 79
3466 3526 51
3467 3418 61
3467 3418 61
3467 3471 5
3467 3471 5
3467 3504 176
3468 3383 100
3468 3454 85
3468 3459 89
3468 3560 83
3469 3412 181
3470 3457 59
3470 3308 236
3470 3316 286
3470 3494 26
3471 3467 5
3471 3467 5
3471 3277 362
3471 3647 199
3471 3647 199
3472 3450 88
3472 3377 112
3472 3491 69
3472 3580 102
3473 3419 68
3473 3462 168
3473 3579 109
3474 3403 83
3475 3476 97
3475 3481 61
3475 3576 94
3475 4026 1534
3476 3475 97
3477 3348 172
3477 3318 251
3477 3555 137
3478 3463 79
3478 3428 55
3478 3488 11
3478 3499 81
3479 3388 279
3479 3502 186
3479 3652 194
3480 3461 77
3480 3406 111
3480 3519 94
3480 3550 463
3481 2546 1870
3481 3475 61
3481 3486 77
3481 3598 126
3482 3459 46
3482 3574 126
3482 3577 107
3483 3367 185
3483 3553 72
3483 3623 177
3484 3485 203
3484 3521 32
3484 3520 226
3485 3484 203
3486 3487 94
3486 3481 77
3486 3492 59
3486 3603 126
3487 3486 94
3488 3466 79
3488 3478 11
3488 3510 81
3488 3546 50
3489 3262 331
3489 3387 225
3489 3496 17
3489 3575 87
3490 3414 155
3490 3445 49
3490 3495 77
3490 3556 59
3491 3472 69
3491 3385 117
3491 3584 92
3492 3493 96
3492 3486 59
3492 3497 57
3492 3570 65
3493 3492 96
3494 3456 162
3494 3470 26
3495 3490 77
3495 3447 53
3495 3500 81
3495 3565 60
3496 3264 331
3496 3489 17
3496 3511 177
3496 3578 88
3496 3712 273
3497 3498 98
3497 3492 57
3497 3611 123
3497 4678 8863
3498 3497 98
3499 3478 81
3499 3437 67
3499 3510 9
3499 3517 80
3500 3495 81
3500 3453 48
3500 3503 62
3500 3571 62
3501 3091 924
3501 3609 80
3502 3255 361
3502 3479 186
3502 3627 135
3503 3500 62
3503 3460 48
3503 3526 69
3503 3573 60
3504 3454 56
3504 3467 176
3504 3560 116
3504 3688 241
3505 3255 400
3505 3255 400
3505 3527 254
3505 3581 69
3505 3581 69
3506 3507 157
3507 3506 157
3507 3374 175
3507 3540 90
3508 3509 70
3508 3517 82
3508 3552 100
3509 3508 70
3509 3545 208
3509 3557 245
3510 3488 81
3510 3499 9
3510 3589 83
3511 3278 302
3511 3496 177
3511 3515 157
3512 3422 151
3512 3439 73
3512 3532 70
3513 3263 485
3513 3433 107
3513 3522 10
3513 3661 323
3514 3462 68
3514 3410 156
3514 3642 191
3514 3648 210
3515 3304 275
3515 3511 157
3515 3518 162
3516 3427 136
3516 3414 108
3516 3537 21
3516 3617 217
3517 3499 80
3517 3412 110
3517 3508 82
3518 3302 282
3518 3515 162
3518 3534 293
3518 3818 354
3519 3461 58
3519 3480 94
3519 3612 106
3520 3401 127
3520 3484 226
3520 3646 151
3521 3432 167
3521 3484 32
3521 3656 158
3522 3513 10
3522 3442 110
3522 3666 320
3523 3096 938
3523 3631 82
3524 3525 52
3524 3551 169
3524 3557 218
3525 3524 52
3525 3539 34
3525 3564 130
3526 3503 69
3526 3466 51
3526 3546 76
3526 3582 60
3527 3505 254
3528 3254 472
3528 3568 35
3528 3586 78
3529 3415 120
3529 3561 32
3529 3567 150
3530 3224 418
3530 3531 11
3530 3541 271
3530 3669 176
3531 3530 11
3531 3228 411
3531 3534 90
3531 3671 178
3532 3512 70
3532 3533 70
3532 3694 255
3533 3532 70
3534 3531 90
3534 3272 358
3534 3518 293
3534 3665 193
3535 3536 335
3535 3633 100
3536 3535 335
3536 3416 15
3537 3516 21
3537 13888 24
3538 3426 146
3538 3599 101
3538 3600 121
3539 3525 34
3539 3563 57
3539 3757 299
3540 3507 90
3540 3438 106
3540 3579 122
3540 3624 119
3541 3530 271
3541 3547 156
3541 4042 656
3542 3285 586
3542 3254 382
3542 3557 15
3543 3544 333
3543 3425 15
3544 3543 333
3544 3636 100
3545 3509 208
3545 3585 66
3546 3526 76
3546 3488 50
3546 3587 53
3547 3178 602
3547 3541 156
3547 3550 37
3547 3572 43
3548 3549 215
3549 3548 215
3550 3547 37
3550 3480 463
3550 3572 25
3551 3524 169
3551 3554 20
3551 3559 21
3552 3508 100
3552 13504 486
3553 3410 192
3553 3483 72
3553 3648 162
3554 3551 20
3554 3594 67
3555 3356 242
3555 3477 137
3555 3592 46
3556 3490 59
3556 3565 80
3556 3617 81
3557 3509 245
3557 3542 15
3557 3558 49
3557 3524 218
3557 3583 68
3557 3607 88
3557 3787 329
3557 3787 328
3558 3557 49
3558 13502 233
3559 3551 21
3559 3788 49
3560 3468 83
3560 3504 116
3560 3577 56
3560 3601 62
3561 3465 107
3561 3529 32
3561 3786 293
3562 3435 144
3562 3458 99
3562 3591 159
3562 3706 191
3563 3539 57
3563 3589 120
3563 3643 138
3564 3525 130
3564 13505 447
3565 3556 80
3565 3495 60
3565 3571 78
3565 3618 74
3566 3393 213
3566 3408 1192
3566 4053 1129
3567 3529 150
3567 3450 110
3567 3580 87
3568 3528 35
3569 3281 520
3569 3420 206
3569 3677 186
3569 3814 467
3570 3492 65
3571 3565 78
3571 3500 62
3571 3573 59
3572 3550 25
3572 3547 43
3572 3684 241
3573 3571 59
3573 3503 60
3573 3582 64
3574 3482 126
3574 3592 64
3574 3727 305
3575 3489 87
3575 3680 149
3576 3475 94
3577 3482 107
3577 3560 56
3578 3496 88
3578 3681 149
3579 3540 122
3579 3473 109
3579 3642 152
3580 3567 87
3580 3472 102
3580 3595 107
3581 3505 69
3581 3505 69
3581 3588 15
3581 3588 15
3581 3597 138
3582 3573 64
3582 3526 60
3582 3587 72
3583 3557 68
3583 13503 226
3584 3491 92
3584 3591 109
3584 3595 15
3585 3586 132
3585 3545 66
3586 3585 132
3586 3528 78
3586 3590 34
3586 3593 9
3587 3582 72
3587 3546 53
3588 3581 15
3588 3581 15
3588 3678 305
3588 3739 192
3588 3740 192
3589 3510 83
3589 3563 120
3589 3635 57
3590 3586 34
3590 13502 74
3591 3584 109
3591 3562 159
3591 3700 146
3592 3236 601
3592 3555 46
3592 3574 64
3592 3606 31
3593 3594 140
3593 3586 9
3593 3596 26
3593 3882 402
3594 3593 140
3594 3554 67
3595 3580 107
3595 3584 15
3595 3691 130
3596 3593 26
3596 13503 86
3597 3581 138
3597 3602 64
3597 3765 211
3597 3765 211
3598 3481 126
3598 3603 77
3598 3676 92
3599 3538 101
3600 3538 121
3600 3452 208
3600 3674 116
3601 3560 62
3602 3597 64
3602 3627 137
3602 3659 70
3602 3659 70
3603 3486 126
3603 3598 77
3603 3611 117
3603 3673 83
3604 3605 66
3604 13502 63
3605 3604 66
3605 3640 110
3606 3592 31
3606 3615 49
3606 3639 42
3607 3557 88
3607 3629 25
3607 4031 594
3608 3344 358
3608 3657 122
3608 3715 200
3609 3610 104
3609 3501 80
3610 3609 104
3610 3626 25
3610 3628 24
3611 3497 123
3611 3603 117
3611 3634 25
3612 3519 106
3612 3684 386
3612 3876 340
3613 3614 40
3614 3613 40
3614 3625 103
3614 3858 337
3615 3606 49
3615 13506 194
3616 3422 377
3616 3697 221
3616 3719 134
3617 3516 217
3617 3556 81
3617 3618 57
3617 3660 58
3618 3617 57
3618 3565 74
3619 3620 67
3619 3651 110
3620 3619 67
3620 13503 51
3621 3337 450
3621 3679 127
3621 4001 493
3622 3464 170
3622 3644 415
3622 3817 234
3623 3483 177
3623 3661 47
3623 3670 59
3624 3540 119
3624 3638 54
3624 3667 62
3625 3614 103
3625 3639 126
3625 3755 155
3626 3610 25
3626 3748 104
3627 3602 137
3627 3502 135
3627 3652 188
3627 3683 75
3628 3610 24
3628 3762 100
3629 3607 25
3629 3754 184
3629 3832 268
3630 3631 107
3630 3780 101
3631 3630 107
3631 3523 82
3632 3633 245
3632 3690 19
3633 3632 245
3633 3535 100
3634 3611 25
3635 3589 57
3635 3643 70
3635 3664 40
3636 3637 245
3636 3544 100
3637 3636 245
3637 3752 19
3638 3624 54
3638 3721 111
3638 3726 230
3639 3625 126
3639 3606 42
3639 3645 29
3639 3703 91
3640 3641 135
3640 3605 110
3641 3640 135
3641 13506 66
3642 3579 152
3642 3514 191
3642 3726 116
3642 3745 185
3643 3635 70
3643 3563 138
3643 3764 152
3644 3622 415
3644 3413 251
3644 3790 186
3645 3639 29
3645 13507 190
3646 3520 151
3646 3656 258
3646 3737 114
3647 3471 199
3647 3471 199
3647 3705 203
3647 3708 84
3647 3708 84
3648 3514 210
3648 3553 162
3648 3699 228
3648 3745 176
3649 3389 335
3649 3685 101
3649 3728 114
3650 3651 135
3650 13507 66
3651 3650 135
3651 3619 110
3652 3627 188
3652 3479 194
3652 3711 77
3653 3654 65
3653 3655 89
3653 3698 65
3654 3653 65
3654 3660 86
3654 3707 76
3655 3653 89
3655 3658 68
3655 3704 76
3656 3521 158
3656 3646 258
3656 3767 139
3657 3608 122
3657 3443 300
3657 3693 99
3657 3783 184
3658 3655 68
3658 3664 104
3658 3714 70
3659 3602 70
3659 3602 70
3659 3683 160
3659 3776 144
3659 3776 144
3660 3617 58
3660 3654 86
3660 3702 122
3660 3731 91
3661 3623 47
3661 3513 323
3661 3666 11
3661 3670 17
3662 3391 563
3662 3970 516
3662 4053 685
3663 3420 467
3663 3814 252
3663 3933 427
3664 3658 104
3664 3635 40
3664 3718 67
3665 3534 193
3665 3668 109
3665 3815 200
3666 3661 11
3666 3522 320
3666 3804 565
3666 3821 256
3667 3624 62
3667 3712 163
3667 3721 82
3668 3665 109
3668 3671 112
3668 3831 209
3669 3530 176
3669 3671 13
3669 3897 300
3670 3623 59
3670 3661 17
3670 3699 55
3671 3669 13
3671 3531 178
3671 3668 112
3671 3816 177
3672 3116 967
3672 4049 1291
3672 4104 574
3673 3603 83
3674 3600 116
3675 3449 441
3676 3598 92
3677 3382 603
3677 3569 186
3677 3957 469
3678 3588 305
3679 3449 338
3679 3621 127
3679 3867 451
3680 3575 149
3680 13526 487
3681 3578 149
3681 13524 458
3682 3408 342
3682 3362 654
3682 3906 301
3683 3659 160
3683 3627 75
3683 3711 177
3683 3806 147
3684 3572 241
3684 3612 386
3684 3898 285
3685 3649 101
3685 3432 338
3685 3729 96
3685 3772 110
3686 3687 53
3686 13506 263
3687 3686 53
3687 3732 41
3688 3504 241
3688 3692 160
3688 3727 77
3689 3690 237
3689 3888 800
3689 3907 807
3690 3689 237
3690 3632 19
3691 3595 130
3691 3700 85
3691 3841 214
3692 3688 160
3692 3708 71
3692 3782 98
3693 3657 99
3693 3465 287
3693 3900 276
3694 3532 255
3694 3185 692
3694 3896 259
3695 3696 53
3695 3744 41
3696 3695 53
3696 13507 262
3697 3616 221
3697 3719 94
3697 3720 558
3698 3653 65
3698 3704 60
3698 3707 47
3699 3648 228
3699 3670 55
3699 3809 183
3700 3691 85
3700 3591 146
3700 3706 113
3701 3317 607
3701 3725 27
3701 3824 197
3702 3372 598
3702 3660 122
3702 3845 208
3702 3859 251
3703 3639 91
3703 3723 82
3703 3755 156
3704 3698 60
3704 3655 76
3704 3714 90
3704 3766 91
3705 3647 203
3705 3717 48
3705 3724 49
3706 3700 113
3706 3562 191
3706 3982 359
3707 3654 76
3707 3698 47
3707 3731 79
3708 3692 71
3708 3647 84
3708 3647 84
3708 3769 73
3708 3769 73
3709 3710 17
3709 3716 23
3709 3717 8
3710 3709 17
3711 3683 177
3711 3652 77
3711 3722 257
3711 3823 134
3712 3496 273
3712 3667 163
3712 3713 9
3712 4024 606
3713 3712 9
3714 3704 90
3714 3658 70
3714 3718 99
3714 3768 66
3715 3608 200
3715 3774 178
3715 3783 169
3716 3709 23
3717 3705 48
3717 3709 8
3717 3724 9
3717 3734 75
3718 3714 99
3718 3664 67
3718 3751 37
3719 3697 94
3719 3616 134
3719 3784 74
3719 3896 472
3720 3697 558
3721 3667 82
3721 3638 111
3721 3868 246
3722 3711 257
3722 3388 468
3722 3388 468
3722 3728 31
3722 3828 141
3722 3828 141
3723 3703 82
3724 3705 49
3724 3717 9
3724 3733 7
3724 3735 33
3725 3701 27
3725 3774 66
3725 3827 169
3726 3638 230
3726 3642 116
3726 3794 163
3726 3868 214
3727 3574 305
3727 3688 77
3727 3825 180
3728 3722 31
3728 3649 114
3728 3777 107
3729 3685 96
3729 3730 105
3729 3756 31
3730 3729 105
3731 3660 91
3731 3707 79
3731 3773 52
3732 3733 196
3732 3733 196
3732 3687 41
3733 3732 196
3733 3732 196
3733 3724 7
3733 3735 33
3733 3735 33
3733 3746 16
3734 3717 75
3734 3738 33
3734 3739 49
3735 3733 33
3735 3733 33
3735 3724 33
3735 3736 0
3735 3736 0
3735 3736 0
3736 3735 0
3736 3735 0
3736 3735 0
3736 3738 12
3736 3741 41
3737 3646 114
3737 3767 233
3737 3824 135
3738 3736 12
3738 3734 33
3738 3741 29
3739 3734 49
3739 3588 192
3739 3740 0
3739 3770 38
3740 3739 0
3740 3588 192
3740 3765 136
3740 3771 38
3741 3736 41
3741 3738 29
3741 3853 1250
3742 3743 57
3742 3743 57
3742 3750 66
3742 3769 192
3742 3769 192
3743 3742 57
3743 3742 57
3743 3744 188
3743 3746 10
3744 3743 188
3744 3695 41
3745 3642 185
3745 3648 176
3745 3794 78
3745 3820 204
3746 3743 10
3746 3733 16
3746 3747 36
3746 3750 7
3747 3746 36
3747 3758 39
3747 3761 30
3748 3749 140
3748 3626 104
3749 3748 140
3749 3800 33
3750 3742 66
3750 3746 7
3750 3759 6
3750 3761 65
3751 3718 37
3751 3764 71
3751 3781 35
3752 3753 401
3752 3637 19
3753 3752 401
3753 3916 646
3753 3929 652
3754 3629 184
3754 3813 98
3754 3832 163
3755 3625 155
3755 3703 156
3755 3858 182
3756 3729 31
3756 3767 266
3756 3772 145
3756 3843 130
3757 3539 299
3758 3747 39
3758 13518 1193
3759 3760 19
3759 3750 6
3759 3778 25
3760 3759 19
3761 3750 65
3761 3747 30
3761 3770 59
3762 3763 154
3762 3628 100
3763 3762 154
3763 3908 32
3764 3751 71
3764 3643 152
3764 3775 68
3764 3856 140
3765 3740 136
3765 3597 211
3765 3597 211
3765 3776 46
3765 3785 32
3765 3785 32
3766 3704 91
3766 3768 146
3766 3795 105
3767 3756 266
3767 3656 139
3767 3737 233
3767 3849 127
3768 3766 146
3768 3714 66
3768 3781 91
3768 3819 59
3769 3708 73
3769 3708 73
3769 3742 192
3769 3742 192
3769 3782 29
3769 3782 29
3769 3805 46
3769 3805 46
3770 3761 59
3770 3739 38
3770 3771 0
3770 3885 155
3771 3770 0
3771 3740 38
3771 3785 135
3771 3885 155
3772 3685 110
3772 3777 3
3772 3756 145
3773 3731 52
3773 3795 34
3773 3822 61
3774 3725 66
3774 3715 178
3774 3839 131
3775 3764 68
3775 3813 118
3775 3860 131
3776 3765 46
3776 3659 144
3776 3659 144
3776 3789 26
3776 3789 26
3776 3806 215
3777 3728 107
3777 3772 3
3777 3838 96
3778 3759 25
3779 3780 171
3779 3797 33
3780 3779 171
3780 3630 101
3781 3768 91
3781 3751 35
3781 3855 122
3782 3692 98
3782 3769 29
3782 3769 29
3782 3869 322
3782 3869 322
3783 3715 169
3783 3657 184
3783 3850 147
3784 3719 74
3785 3771 135
3785 3765 32
3785 3765 32
3785 3789 46
3786 3561 293
3786 3841 320
3786 3964 241
3787 3557 329
3787 3788 296
3787 3557 328
3787 3892 164
3787 4038 347
3788 3787 296
3788 3559 49
3789 3785 46
3789 3776 26
3789 3776 26
3789 3826 216
3789 3879 122
3789 3879 122
3790 3644 186
3790 3817 400
3790 4072 398
3791 3792 96
3792 3791 96
3792 3793 115
3792 3798 90
3792 3875 114
3793 3792 115
3794 3726 163
3794 3745 78
3794 3836 82
3794 3934 228
3795 3773 34
3795 3766 105
3795 3822 30
3795 3833 64
3796 3797 10
3796 3925 230
3796 4068 562
3797 3796 10
3797 3779 33
3798 3792 90
3798 3799 75
3798 3802 37
3798 3891 124
3799 3798 75
3800 3801 71
3800 3749 33
3801 3800 71
3801 3865 244
3801 3912 662
3802 3798 37
3802 3803 93
3802 3807 48
3802 3894 128
3803 3802 93
3804 3666 565
3804 3362 947
3804 4133 498
3805 3769 46
3805 3769 46
3805 3917 201
3805 3917 201
3805 3980 750
3806 3776 215
3806 3683 147
3806 3823 149
3806 3826 29
3807 3802 48
3807 3808 20
3807 3810 36
3807 3894 178
3808 3807 20
3809 3699 183
3809 3820 15
3809 3821 16
3810 3807 36
3811 3812 97
3812 3811 97
3812 3923 108
3813 3775 118
3813 3754 98
3813 3881 137
3814 3569 467
3814 3663 252
3814 3957 279
3814 4048 388
3815 3665 200
3815 3842 89
3815 3890 139
3816 3671 177
3816 3831 149
3816 3899 124
3817 3622 234
3817 3790 400
3817 3956 203
3818 3518 354
3818 3842 73
3818 4000 283
3819 3768 59
3819 3833 210
3819 3862 76
3820 3745 204
3820 3809 15
3820 3874 110
3821 3809 16
3821 3666 256
3821 3840 68
3821 4133 696
3822 3773 61
3822 3795 30
3822 3999 251
3823 3806 149
3823 3711 134
3823 3834 261
3824 3737 135
3824 3701 197
3824 3837 23
3825 3727 180
3825 3869 115
3825 3940 294
3826 3789 216
3826 3806 29
3826 3846 415
3826 3922 147
3827 3725 169
3827 13517 61
3828 3722 141
3828 3722 141
3828 3834 2
3828 3835 2
3829 3830 72
3829 3885 167
3829 3889 130
3830 3829 72
3831 3816 149
3831 3668 209
3831 3890 137
3831 3928 123
3832 3754 163
3832 3629 268
3832 3950 246
3833 3795 64
3833 3819 210
3833 3871 71
3834 3823 261
3834 3828 2
3834 3835 0
3834 3846 30
3835 3834 0
3835 3828 2
3835 3838 95
3835 3846 30
3836 3794 82
3837 3824 23
3837 3848 53
3837 3864 107
3838 3835 95
3838 3777 96
3838 3843 165
3838 3851 35
3839 3774 131
3839 3870 46
3839 3880 111
3840 3821 68
3840 3884 59
3840 4036 328
3841 3786 320
3841 3691 214
3841 3904 78
3842 3815 89
3842 3818 73
3842 4002 205
3843 3838 165
3843 3756 130
3843 3844 110
3843 3866 27
3844 3843 110
3844 3849 160
3844 3854 60
3845 3702 208
3845 3852 117
3845 3995 189
3846 3826 415
3846 3834 30
3846 3835 30
3846 3847 59
3846 3847 59
3847 3846 59
3847 3846 59
3847 3851 24
3847 3887 37
3847 3887 37
3848 3837 53
3848 3861 40
3848 3870 30
3849 3844 160
3849 3767 127
3849 3857 58
3849 3864 186
3850 3783 147
3850 3900 190
3850 3939 106
3851 3847 24
3851 3838 35
3851 3866 177
3851 3887 34
3852 3845 117
3852 3859 84
3852 4039 259
3853 3854 38
3853 3741 1250
3854 3853 38
3854 3844 60
3854 3857 43
3855 3781 122
3855 3856 71
3855 3862 66
3855 3946 122
3856 3855 71
3856 3764 140
3856 3860 71
3857 3854 43
3857 3849 58
3857 3863 57
3858 3614 337
3858 3755 182
3858 3882 53
3859 3702 251
3859 3852 84
3859 4033 255
3860 3775 131
3860 3856 71
3860 3881 47
3860 3905 47
3861 3848 40
3861 3864 21
3861 3903 47
3862 3819 76
3862 3855 66
3862 3871 160
3863 3857 57
3863 13889 260
3864 3849 186
3864 3837 107
3864 3861 21
3865 3801 244
3865 3965 145
3866 3851 177
3866 3843 27
3866 4017 190
3867 3679 451
3867 4030 217
3867 4292 1016
3868 3721 246
3868 3726 214
3868 3920 207
3868 3934 131
3869 3825 115
3869 3782 322
3869 3782 322
3869 3980 276
3869 3980 276
3870 3848 30
3870 3839 46
3870 3914 48
3871 3833 71
3871 3862 160
3871 3952 119
3872 3873 161
3872 13890 234
3873 3872 161
3873 13518 58
3874 3820 110
3874 13530 451
3875 3792 114
3875 3891 92
3875 4026 197
3876 3612 340
3876 3898 301
3876 4010 173
3877 3878 92
3877 3883 41
3877 3886 92
3878 3877 92
3878 3883 52
3878 13518 99
3879 3789 122
3879 3789 122
3879 3922 161
3879 3986 146
3879 3986 146
3880 3839 111
3880 3941 346
3881 3860 47
3881 3813 137
3881 3905 46
3881 3950 225
3882 3593 402
3882 3858 53
3882 3940 99
3883 3878 52
3883 3877 41
3883 3895 208
3883 3919 62
3884 3840 59
3884 13536 326
3885 3829 167
3885 3770 155
3885 3771 155
3885 3961 108
3885 3961 108
3886 3877 92
3886 13519 97
3887 3847 37
3887 3847 37
3887 3851 34
3887 3978 137
3888 3689 800
3888 3913 14
3889 3829 130
3890 3831 137
3890 3815 139
3890 3951 121
3890 4005 189
3891 3875 92
3891 3798 124
3891 3894 34
3892 3787 164
3892 3893 390
3892 3921 33
3893 3892 390
3894 3891 34
3894 3802 128
3894 3807 178
3895 3883 208
3895 3903 40
3895 3927 38
3896 3719 472
3896 3694 259
3896 4492 878
3897 3669 300
3897 3899 13
3897 4015 153
3898 3876 301
3898 3684 285
3898 3953 245
3898 4238 498
3899 3897 13
3899 3816 124
3899 3928 143
3899 4018 154
3900 3850 190
3900 3693 276
3900 3930 41
3901 3902 83
3901 13889 120
3902 3901 83
3902 3944 270
3903 3895 40
3903 3861 47
3903 3918 24
3903 3927 41
3904 3841 78
3904 3982 310
3904 4043 213
3905 3860 47
3905 3881 46
3905 3926 50
3905 3984 121
3906 3682 301
3907 3689 807
3907 4087 13
3908 3909 248
3908 3763 32
3909 3908 248
3909 4003 63
3910 3911 76
3910 13521 96
3911 3910 76
3911 13891 95
3912 3913 119
3912 3801 662
3912 3981 615
3913 3912 119
3913 3888 14
3914 3870 48
3914 3915 127
3914 3918 43
3914 4070 245
3915 3914 127
3915 13520 109
3916 3753 646
3916 3936 13
3917 3805 201
3917 3805 201
3917 3961 217
3917 4052 218
3918 3903 24
3918 3914 43
3918 3931 40
3918 3935 30
3919 3883 62
3919 3955 102
3919 3967 95
3920 3868 207
3921 3892 33
3921 3974 96
3921 4006 126
3922 3879 161
3922 3826 147
3922 3943 124
3922 4009 128
3923 3924 77
3923 3812 108
3924 3923 77
3925 3796 230
3925 3973 59
3926 3905 50
3926 3932 48
3926 4008 124
3927 3895 38
3927 3903 41
3927 3975 109
3928 3899 143
3928 3831 123
3928 3951 74
3928 4129 295
3929 3753 652
3929 4301 12
3930 3900 41
3930 3942 32
3930 3964 266
3931 3918 40
3931 3935 40
3931 3975 111
3932 3926 48
3932 3946 92
3932 4020 113
3933 3663 427
3933 4048 280
3933 4108 320
3934 3868 131
3934 3794 228
3934 3949 287
3934 4044 213
3935 3931 40
3935 3918 30
3935 4028 129
3936 3937 92
3936 3916 13
3937 3936 92
3937 4099 861
3937 4144 818
3938 3365 809
3938 3993 97
3938 4076 206
3939 3850 106
3939 3992 88
3940 3882 99
3940 3825 294
3940 3974 77
3940 4007 91
3941 3942 41
3941 3880 346
3942 3941 41
3942 3930 32
3942 3985 272
3943 3922 124
3944 3945 35
3944 3902 270
3945 3944 35
3945 3977 178
3946 3855 122
3946 3932 92
3946 3952 152
3946 4066 178
3947 3948 13
3947 3968 57
3947 3983 201
3948 3947 13
3948 13521 174
3949 3934 287
3950 3881 225
3950 3832 246
3950 4031 161
3951 3928 74
3951 3890 121
3951 4005 188
3952 3871 119
3952 3946 152
3952 3999 97
3952 4069 186
3953 3898 245
3953 3954 142
3953 3990 91
3953 4148 264
3954 3953 142
3955 3919 102
3955 3994 58
3955 4017 110
3956 3817 203
3956 3959 99
3956 4089 189
3957 3677 469
3957 3814 279
3957 3958 3
3957 4179 347
3958 3957 3
3958 3970 13
3959 3960 140
3959 3956 99
3959 3962 48
3959 4092 190
3960 3959 140
3960 3962 91
3960 3963 136
3961 3917 217
3961 3885 108
3961 3885 108
3961 3971 68
3961 4052 266
3961 4052 266
3962 3960 91
3962 3959 48
3962 3963 47
3962 4097 191
3963 3960 136
3963 3962 47
3963 4100 192
3963 4111 319
3964 3930 266
3964 3786 241
3964 3979 16
3965 3966 110
3965 3865 145
3966 3965 110
3966 4173 77
3967 3919 95
3967 4022 102
3967 4025 96
3968 3969 63
3968 3947 57
3968 4011 246
3969 3968 63
3969 13520 241
3970 3662 516
3970 3958 13
3970 4053 232
3970 4186 338
3971 3961 68
3971 3986 115
3971 4354 531
3972 3973 48
3972 4012 64
3972 4013 62
3973 3972 48
3973 3925 59
3974 3921 96
3974 3940 77
3974 4006 88
3975 3927 109
3975 3976 18
3975 3931 111
3975 4025 94
3976 3975 18
3976 13891 213
3977 3945 178
3977 4064 202
3978 3887 137
3978 4023 58
3978 4050 216
3979 3964 16
3979 3985 5
3980 3869 276
3980 3869 276
3980 4007 68
3980 4007 68
3980 3805 750
3981 3912 615
3981 4295 378
3982 3904 310
3982 3706 359
3982 4016 36
3983 3947 201
3983 4075 202
3984 3905 121
3984 4008 70
3984 4046 109
3985 3942 272
3985 3979 5
3985 3987 41
3985 4011 32
3986 3971 115
3986 3879 146
3986 3879 146
3986 4009 141
3987 3985 41
3987 4043 188
3988 3989 393
3988 4014 196
3988 4019 223
3988 4034 61
3989 3988 393
3990 3953 91
3990 4042 164
3990 4151 223
3991 3992 19
3991 4110 190
3991 4137 393
3992 3991 19
3992 3939 88
3992 4098 172
3993 3938 97
3993 4082 139
3993 4103 204
3994 3955 58
3994 4022 40
3994 4037 110
3995 3845 189
3995 4039 115
3995 4184 289
3996 3997 137
3996 3998 106
3996 4001 68
3996 4120 165
3997 3996 137
3998 3996 106
3999 3822 251
3999 3952 97
3999 4171 242
4000 3818 283
4000 4002 101
4001 3621 493
4001 3996 68
4001 4030 536
4001 4253 362
4002 3842 205
4002 4000 101
4002 4005 79
4002 4080 124
4003 4004 118
4003 3909 63
4004 4003 118
4004 13547 63
4005 3890 189
4005 4002 79
4005 3951 188
4006 3921 126
4006 3974 88
4006 4038 118
4007 3940 91
4007 3980 68
4007 3980 68
4007 4119 280
4007 4119 280
4008 3926 124
4008 3984 70
4008 4020 64
4008 4057 92
4009 3986 141
4009 3922 128
4009 4035 42
4009 4047 286
4010 3876 173
4010 4079 125
4010 4095 138
4011 3968 246
4011 3985 32
4011 4021 48
4011 4138 197
4012 3972 64
4012 4123 71
4013 3972 62
4013 4144 70
4014 3988 196
4014 4045 63
4015 3897 153
4015 4018 13
4015 4379 506
4016 3982 36
4016 4067 142
4016 4093 132
4017 3866 190
4017 3955 110
4017 4037 60
4017 4050 113
4018 4015 13
4018 3899 154
4018 4377 503
4019 3988 223
4019 4034 164
4019 4054 77
4020 3932 113
4020 4008 64
4020 4063 94
4021 4011 48
4021 4059 181
4022 3994 40
4022 3967 102
4022 4027 15
4023 3978 58
4023 4077 107
4023 4109 163
4024 3712 606
4024 4131 143
4025 3967 96
4025 3975 94
4025 4060 103
4025 4085 129
4026 3475 1534
4026 3875 197
4026 4143 613
4027 4022 15
4027 4060 89
4027 4061 110
4028 3935 129
4028 4029 14
4028 4070 77
4028 4085 143
4029 4028 14
4029 4070 307
4029 13517 307
4030 3867 217
4030 4001 536
4030 4134 144
4031 3950 161
4031 3607 594
4031 4073 122
4032 4033 128
4033 4032 128
4033 3859 255
4033 4039 227
4033 4204 468
4034 4019 164
4034 3988 61
4034 4045 197
4034 4071 75
4035 4009 42
4035 4040 31
4035 4051 94
4036 3840 328
4036 4044 18
4037 4017 60
4037 3994 110
4037 4061 57
4038 3787 347
4038 4006 118
4038 4073 60
4038 4088 86
4039 3852 259
4039 3995 115
4039 4033 227
4039 4204 254
4040 4041 58
4040 4035 31
4040 4051 22
4041 4040 58
4042 3990 164
4042 3541 656
4042 4157 157
4043 3987 188
4043 3904 213
4043 4065 74
4044 3934 213
4044 4036 18
4044 4096 101
4045 4034 197
4045 4014 63
4045 4142 352
4046 3984 109
4046 4057 104
4046 4118 94
4047 4009 286
4047 4185 262
4047 4213 270
4048 3814 388
4048 3933 280
4048 4179 271
4048 4287 369
4049 3413 1560
4049 3672 1291
4049 4072 905
4049 4473 606
4050 3978 216
4050 4017 113
4050 4109 110
4050 4124 100
4051 4040 22
4051 4035 94
4051 4147 118
4052 3917 218
4052 3961 266
4052 3961 266
4052 4172 147
4052 4273 554
4053 3662 685
4053 3970 232
4053 3566 1129
4053 4296 378
4054 4019 77
4054 4071 165
4054 4126 73
4055 4056 30
4056 4055 30
4056 4058 67
4056 4189 236
4057 4008 92
4057 4046 104
4057 4063 64
4058 4056 67
4058 4062 75
4058 4189 164
4059 4021 181
4059 4074 65
4059 4345 452
4060 4027 89
4060 4025 103
4060 4130 110
4060 4146 120
4061 4037 57
4061 4027 110
4061 4130 87
4062 4058 75
4062 4076 114
4062 4188 155
4063 4020 94
4063 4057 64
4063 4066 77
4063 4166 152
4064 4065 197
4064 3977 202
4065 4064 197
4065 4043 74
4065 4078 32
4066 3946 178
4066 4063 77
4066 4069 126
4066 4161 107
4067 4016 142
4067 13554 113
4068 3796 562
4068 4141 12
4069 3952 186
4069 4066 126
4069 4169 112
4070 4028 77
4070 3914 245
4070 4125 46
4070 13519 292
4070 4029 307
4070 13517 307
4071 4054 165
4071 4034 75
4071 4081 55
4071 4142 76
4072 3790 398
4072 4049 905
4072 4089 379
4073 4031 122
4073 4038 60
4073 4088 60
4073 4200 163
4074 4059 65
4074 4075 196
4074 4090 30
4075 4074 196
4075 3983 202
4076 4062 114
4076 3938 206
4076 4082 75
4076 4194 153
4077 4023 107
4077 4154 106
4077 4185 146
4078 4065 32
4078 13554 90
4079 4010 125
4079 13560 190
4080 4002 124
4081 4071 55
4082 4076 75
4082 3993 139
4082 4091 80
4082 4203 152
4083 4084 809
4083 4106 12
4084 4083 809
4084 13547 61
4085 4025 129
4085 4028 143
4085 4146 107
4085 4150 92
4086 4087 950
4086 4107 12
4087 4086 950
4087 3907 13
4088 4073 60
4088 4038 86
4088 4119 30
4089 3956 189
4089 4072 379
4089 4092 107
4089 4270 239
4090 4074 30
4090 13555 93
4091 4082 80
4091 4103 71
4091 4205 151
4092 3959 190
4092 4089 107
4092 4097 46
4093 4094 96
4093 4016 132
4093 4225 195
4094 4093 96
4094 13556 110
4095 4010 138
4095 4112 87
4095 4227 198
4096 4044 101
4096 4206 198
4096 4272 425
4097 3962 191
4097 4092 46
4097 4100 49
4098 3992 172
4098 4110 28
4098 4115 263
4098 4249 214
4099 3937 861
4099 4158 12
4100 3963 192
4100 4097 49
4100 4111 127
4101 4102 130
4102 4101 130
4102 4104 194
4102 4163 73
4103 4091 71
4103 3993 204
4103 4210 157
4104 4102 194
4104 3672 574
4104 4126 334
4104 4167 75
4105 4106 52
4105 4107 51
4105 4140 219
4106 4105 52
4106 4083 12
4107 4105 51
4107 4086 12
4108 3933 320
4108 4180 145
4108 4287 347
4109 4023 163
4109 4050 110
4109 4154 102
4109 4170 95
4110 3991 190
4110 4098 28
4110 4137 102
4110 4261 240
4111 3963 319
4111 4100 127
4111 4117 70
4112 4095 87
4112 13558 128
4113 4114 129
4113 13547 9
4114 4113 129
4114 4299 59
4115 4098 263
4115 4116 174
4115 4245 224
4116 4115 174
4117 4111 70
4117 4121 114
4117 4242 193
4118 4046 94
4118 4166 122
4118 4231 192
4119 4088 30
4119 4007 280
4119 4007 280
4119 4177 107
4119 4183 109
4119 4183 109
4120 3996 165
4121 4117 114
4121 4139 564
4121 4322 289
4122 4123 136
4122 4330 60
4123 4122 136
4123 4012 71
4124 4050 100
4124 4176 108
4124 4178 103
4125 4070 46
4125 4150 71
4125 4202 115
4126 4104 334
4126 4054 73
4126 4142 166
4127 4128 53
4127 4173 691
4127 4294 727
4128 4127 53
4128 4174 12
4129 3928 295
4130 4061 87
4130 4060 110
4130 4178 109
4130 4190 124
4131 4024 143
4131 4132 140
4131 4303 286
4132 4131 140
4132 4135 108
4132 4306 256
4133 3821 696
4133 3804 498
4133 4272 408
4134 4030 144
4134 4155 103
4134 4193 269
4134 4229 155
4135 4136 118
4135 4132 108
4135 4145 14
4136 4135 118
4137 3991 393
4137 4110 102
4137 4202 169
4137 4284 199
4138 4011 197
4138 4280 225
4138 4286 310
4139 4121 564
4140 4141 278
4140 4105 219
4140 4149 46
4141 4140 278
4141 4068 12
4142 4126 166
4142 4071 76
4142 4045 352
4142 4219 121
4143 4026 613
4143 4706 7416
4144 3937 818
4144 4013 70
4145 4135 14
4145 4152 125
4145 4355 280
4146 4060 120
4146 4085 107
4146 4190 107
4146 4192 92
4147 4051 118
4148 3953 264
4148 4151 95
4148 4241 146
4149 4140 46
4149 4384 161
4150 4085 92
4150 4125 71
4150 4192 107
4151 4148 95
4151 3990 223
4151 4157 137
4152 4153 109
4152 4145 125
4152 4187 59
4153 4152 109
4154 4077 106
4154 4109 102
4154 4185 94
4154 4207 109
4155 4134 103
4155 4156 56
4155 4160 24
4155 4252 154
4156 4155 56
4157 4151 137
4157 4042 157
4157 4234 129
4158 4159 314
4158 4099 12
4159 4158 314
4159 4222 162
4160 4155 24
4161 4066 107
4161 4164 27
4161 4165 1
4162 4163 131
4163 4162 131
4163 4102 73
4163 4167 192
4163 4244 132
4164 4161 27
4164 4165 28
4164 4169 83
4165 4164 28
4165 4161 1
4165 4166 158
4165 4226 113
4166 4165 158
4166 4063 152
4166 4118 122
4166 4232 124
4167 4163 192
4167 4104 75
4167 4168 158
4167 4482 484
4168 4167 158
4169 4069 112
4169 4164 83
4169 4171 104
4169 4226 175
4170 4109 95
4170 4176 9
4170 4207 103
4171 3999 242
4171 4169 104
4171 4291 465
4172 4052 147
4172 4248 142
4172 4250 134
4173 4127 691
4173 3966 77
4174 4175 313
4174 4128 12
4175 4174 313
4175 4224 157
4176 4170 9
4176 4124 108
4176 4218 102
4177 4119 107
4177 4183 92
4177 4209 75
4178 4124 103
4178 4130 109
4178 4218 113
4179 3957 347
4179 4048 271
4179 4186 12
4179 4439 406
4180 4108 145
4181 4182 40
4181 4182 119
4181 4264 196
4182 4181 40
4182 4181 119
4182 4191 16
4183 4119 109
4183 4119 109
4183 4177 92
4183 4200 100
4183 4267 119
4183 4267 119
4184 3995 289
4184 4204 99
4184 4236 90
4185 4047 262
4185 4077 146
4185 4154 94
4185 4201 77
4185 4243 119
4186 3970 338
4186 4179 12
4186 4296 234
4186 4444 407
4187 4152 59
4187 4191 205
4187 4256 103
4188 4062 155
4188 4189 74
4188 4194 118
4188 4420 309
4189 4058 164
4189 4188 74
4189 4056 236
4190 4130 124
4190 4146 107
4190 4221 71
4190 4293 183
4191 4182 16
4191 4187 205
4191 4265 100
4192 4146 92
4192 4150 107
4192 4240 95
4193 4134 269
4194 4188 118
4194 4076 153
4194 4203 75
4195 4196 153
4195 4197 224
4195 4206 95
4196 4195 153
4197 4195 224
4198 4199 32
4199 4198 32
4200 4073 163
4200 4183 100
4200 4217 51
4201 4185 77
4201 4208 98
4201 4357 247
4202 4125 115
4202 4137 169
4202 4240 102
4202 4308 157
4203 4194 75
4203 4082 152
4203 4205 82
4204 4033 468
4204 4039 254
4204 4184 99
4205 4203 82
4205 4091 151
4205 4210 98
4205 4285 100
4206 4195 95
4206 4096 198
4206 4307 156
4206 4372 393
4207 4154 109
4207 4170 103
4207 4243 93
4207 4269 109
4208 4201 98
4208 4228 124
4208 4352 185
4209 4177 75
4209 4267 134
4209 4278 108
4209 4298 448
4210 4205 98
4210 4103 157
4210 4292 113
4211 4212 23
4212 4211 23
4213 4047 270
4213 4228 48
4213 4319 163
4214 4215 101
4215 4214 101
4215 4216 129
4215 4229 167
4215 4304 127
4216 4215 129
4217 4200 51
4217 4235 63
4217 4290 95
4218 4176 102
4218 4178 113
4218 4269 96
4219 4142 121
4219 4486 400
4220 4221 48
4221 4220 48
4221 4190 71
4221 4230 23
4221 4347 247
4222 4223 330
4222 4159 162
4223 4222 330
4223 4224 325
4223 4390 983
4224 4223 325
4224 4175 157
4225 4093 195
4225 4239 53
4225 4326 135
4226 4169 175
4226 4165 113
4226 4233 121
4226 4291 190
4227 4095 198
4227 4275 71
4227 4340 143
4228 4213 48
4228 4208 124
4228 4325 151
4229 4215 167
4229 4134 155
4229 4252 106
4229 4350 146
4230 4221 23
4230 4333 159
4231 4118 192
4231 4232 131
4231 4288 67
4232 4166 124
4232 4231 131
4232 4233 55
4232 4283 47
4233 4226 121
4233 4232 55
4233 4283 78
4234 4157 129
4235 4217 63
4235 4288 102
4235 4323 123
4236 4184 90
4236 4289 128
4236 4320 136
4237 4238 39
4237 13560 102
4238 4237 39
4238 3898 498
4238 4246 12
4238 4254 363
4239 4225 53
4239 13557 158
4240 4192 95
4240 4202 102
4240 4293 110
4240 4308 120
4241 4148 146
4242 4117 193
4242 4259 251
4242 4332 110
4243 4185 119
4243 4207 93
4243 4305 110
4243 4362 204
4244 4163 132
4245 4115 224
4245 4249 150
4245 4280 196
4245 4422 225
4246 4247 41
4246 4238 12
4246 4257 12
4246 4266 319
4247 4246 41
4247 13561 105
4248 4172 142
4248 4250 56
4248 4358 280
4249 4098 214
4249 4245 150
4249 4255 65
4250 4248 56
4250 4172 134
4250 4251 94
4250 4386 167
4251 4250 94
4252 4229 106
4252 4155 154
4252 4302 501
4252 4339 111
4253 4001 362
4253 3363 1667
4253 4302 93
4254 4238 363
4254 13535 1543
4255 4249 65
4255 4261 17
4255 4399 265
4256 4187 103
4256 4258 141
4256 4389 160
4257 4246 12
4257 4279 198
4257 4572 480
4258 4256 141
4258 4265 68
4258 4395 162
4259 4242 251
4259 4260 109
4259 4270 186
4259 4353 109
4260 4259 109
4261 4110 240
4261 4255 17
4261 4284 57
4262 4263 145
4263 4262 145
4263 4264 68
4263 4400 166
4264 4263 68
4264 4181 196
4264 4265 76
4264 4398 164
4265 4264 76
4265 4191 100
4265 4258 68
4265 4396 163
4266 4246 319
4266 4268 43
4266 4279 122
4267 4183 119
4267 4183 119
4267 4209 134
4267 4290 140
4267 4346 110
4267 4346 110
4268 4266 43
4268 13546 1544
4269 4207 109
4269 4218 96
4269 4305 95
4269 4347 126
4270 4259 186
4270 4089 239
4270 4271 239
4270 4557 450
4271 4270 239
4272 4096 425
4272 4133 408
4272 4277 3
4273 4274 93
4273 4052 554
4273 4313 75
4274 4273 93
4275 4227 71
4275 13559 151
4276 4277 156
4276 13552 426
4277 4276 156
4277 4272 3
4277 4281 13
4277 5087 3692
4278 4209 108
4278 4309 95
4278 4338 114
4279 4257 198
4279 4266 122
4279 4570 459
4280 4245 196
4280 4138 225
4280 4314 198
4280 4423 222
4281 4282 150
4281 4277 13
4281 4372 198
4281 4784 1546
4282 4281 150
4282 13553 435
4283 4233 78
4283 4232 47
4283 4297 36
4284 4137 199
4284 4261 57
4284 4308 147
4285 4205 100
4286 4138 310
4286 4345 102
4286 4537 509
4287 4048 369
4287 4108 347
4287 4439 291
4287 4458 374
4288 4231 67
4288 4235 102
4288 4334 79
4288 4336 70
4289 4236 128
4289 4310 243
4289 4337 68
4290 4217 95
4290 4267 140
4290 4374 123
4291 4226 190
4291 4171 465
4291 4315 46
4292 4210 113
4292 3867 1016
4292 4446 216
4292 4552 943
4293 4190 183
4293 4240 110
4293 4333 71
4293 4376 121
4294 4127 727
4294 4295 313
4294 4328 53
4295 4294 313
4295 3981 378
4296 4053 378
4296 4186 234
4296 4408 179
4296 4498 406
4297 4283 36
4297 4334 114
4297 4375 90
4298 4209 448
4298 4313 42
4298 4391 192
4299 4300 301
4299 4114 59
4300 4299 301
4300 4301 741
4300 4331 36
4301 4300 741
4301 3929 12
4302 4252 501
4302 4253 93
4302 4687 1204
4303 4131 286
4303 4306 103
4303 4409 128
4304 4215 127
4304 4350 156
4304 4397 103
4305 4243 110
4305 4269 95
4305 4363 106
4305 4393 122
4306 4132 256
4306 4303 103
4306 4382 84
4307 4206 156
4307 4371 165
4307 4403 101
4307 4417 348
4308 4240 120
4308 4202 157
4308 4284 147
4308 4376 113
4308 4484 271
4309 4278 95
4309 4346 68
4309 4385 109
4310 4289 243
4311 4312 109
4311 4407 271
4311 4451 188
4312 4311 109
4313 4298 42
4313 4273 75
4313 4358 105
4314 4280 198
4315 4291 46
4315 4351 104
4315 4375 110
4316 4317 105
4316 4318 87
4316 4503 315
4317 4316 105
4317 13545 386
4318 4316 87
4318 13550 322
4319 4213 163
4319 4324 344
4319 4325 36
4320 4236 136
4320 4380 209
4320 4432 191
4321 4322 164
4322 4321 164
4322 4121 289
4322 4332 115
4322 4402 88
4323 4235 123
4323 4349 65
4323 4387 91
4324 4319 344
4324 4354 91
4324 4410 105
4325 4319 36
4325 4228 151
4325 4348 159
4325 4412 114
4325 4433 228
4326 4327 91
4326 4225 135
4326 4416 113
4327 4326 91
4327 13555 211
4328 4294 53
4328 4500 39
4329 4330 321
4329 4501 39
4330 4329 321
4330 4122 60
4331 4300 36
4331 4494 38
4332 4322 115
4332 4242 110
4332 4353 249
4332 4530 321
4333 4230 159
4333 4293 71
4333 4411 122
4333 4415 167
4334 4297 114
4334 4288 79
4334 4335 4
4335 4334 4
4335 4373 58
4335 4462 215
4336 4288 70
4336 4349 54
4336 4437 152
4337 4289 68
4338 4278 114
4338 4381 69
4338 4391 82
4339 4252 111
4340 4227 143
4340 4341 74
4340 4407 80
4341 4340 74
4341 13561 201
4342 4343 105
4342 13549 323
4343 4342 105
4343 4344 109
4343 4371 126
4343 4475 233
4344 4343 109
4344 13544 408
4345 4286 102
4345 4059 452
4345 4414 99
4346 4267 110
4346 4267 110
4346 4309 68
4346 4374 126
4346 4421 109
4346 4421 109
4347 4269 126
4347 4221 247
4347 4393 94
4347 4445 182
4348 4325 159
4348 4352 22
4348 4406 73
4349 4336 54
4349 4323 65
4349 4413 106
4350 4304 156
4350 4229 146
4350 4687 809
4351 4315 104
4351 4380 56
4351 4430 168
4352 4348 22
4352 4208 185
4352 4356 53
4353 4332 249
4353 4259 109
4353 4544 322
4354 3971 531
4354 4324 91
4354 4367 87
4354 4425 121
4355 4145 280
4355 4382 113
4355 4389 110
4355 4467 200
4356 4352 53
4356 4357 13
4356 4404 58
4357 4356 13
4357 4201 247
4357 4359 34
4358 4313 105
4358 4248 280
4358 4419 176
4358 4438 246
4359 4357 34
4359 4362 51
4359 4405 53
4360 4361 228
4360 4369 93
4360 4448 125
4361 4360 228
4362 4359 51
4362 4243 204
4362 4364 11
4363 4305 106
4363 4378 43
4363 4394 41
4364 4362 11
4364 4378 58
4364 4401 35
4365 4366 269
4365 4458 362
4365 4569 349
4366 4365 269
4367 4368 282
4367 4354 87
4367 4386 72
4368 4367 282
4369 4370 191
4369 4360 93
4369 4377 203
4369 4449 123
4370 4369 191
4371 4343 126
4371 4307 165
4371 4403 116
4371 4479 202
4372 4206 393
4372 4281 198
4372 4417 95
4373 4335 58
4373 4375 26
4373 4388 29
4374 4290 123
4374 4346 126
4374 4387 49
4374 4436 110
4375 4315 110
4375 4297 90
4375 4373 26
4375 4388 19
4376 4293 121
4376 4308 113
4376 4411 71
4377 4018 503
4377 4369 203
4377 4379 7
4377 4454 124
4378 4364 58
4378 4363 43
4378 4394 24
4379 4015 506
4379 4377 7
4379 4455 124
4380 4320 209
4380 4351 56
4380 4645 849
4381 4338 69
4381 4385 42
4381 4426 79
4382 4355 113
4382 4306 84
4382 4409 87
4383 4384 1318
4383 4521 96
4384 4383 1318
4384 4149 161
4385 4309 109
4385 4381 42
4385 4421 88
4386 4250 167
4386 4367 72
4386 4419 182
4386 4440 193
4387 4323 91
4387 4374 49
4387 4413 60
4387 4434 85
4388 4375 19
4388 4373 29
4388 4430 98
4389 4256 160
4389 4355 110
4389 4392 101
4390 4223 983
4390 4523 96
4391 4338 82
4391 4298 192
4391 4426 98
4391 4438 108
4392 4389 101
4392 4395 35
4392 4476 162
4393 4305 122
4393 4347 94
4393 4447 120
4393 4457 178
4394 4378 24
4394 4363 41
4394 4418 61
4395 4258 162
4395 4392 35
4395 4396 69
4396 4265 163
4396 4395 69
4396 4398 76
4396 4443 78
4397 4304 103
4398 4264 164
4398 4396 76
4398 4400 65
4399 4255 265
4400 4263 166
4400 4398 65
4400 4547 275
4401 4364 35
4401 4405 67
4401 4418 41
4402 4322 88
4403 4371 116
4403 4307 101
4403 4417 314
4403 4480 167
4404 4356 58
4404 4405 34
4404 4406 73
4405 4404 34
4405 4359 53
4405 4401 67
4405 4435 75
4406 4348 73
4406 4404 73
4406 4412 120
4407 4340 80
4407 4311 271
4407 4452 84
4408 4296 179
4409 4382 87
4409 4303 128
4409 4503 333
4410 4324 105
4410 4425 64
4410 4471 131
4411 4333 122
4411 4376 71
4411 4450 117
4411 4484 196
4412 4325 114
4412 4406 120
4412 4469 184
4412 4470 161
4413 4349 106
4413 4387 60
4413 4437 71
4413 4456 101
4414 4345 99
4414 4416 216
4414 4585 300
4415 4333 167
4415 4445 80
4415 4460 120
4416 4414 216
4416 4326 113
4416 4580 291
4417 4307 348
4417 4372 95
4417 4403 314
4418 4401 41
4418 4394 61
4418 4435 61
4419 4358 176
4419 4386 182
4419 4424 27
4419 4424 27
4419 4453 269
4420 4188 309
4421 4346 109
4421 4346 109
4421 4385 88
4421 4427 61
4421 4461 90
4421 4461 90
4422 4245 225
4422 4428 36
4422 4496 180
4423 4280 222
4423 4442 36
4423 4529 195
4424 4419 27
4424 4419 27
4424 4459 135
4424 4459 135
4424 4489 133
4425 4354 121
4425 4410 64
4425 4440 40
4426 4381 79
4426 4391 98
4426 4429 13
4427 4421 61
4427 4436 59
4427 4464 83
4428 4422 36
4428 4442 74
4428 4506 165
4429 4426 13
4429 4461 128
4429 4466 93
4430 4351 168
4430 4388 98
4430 4477 163
4431 4432 86
4432 4431 86
4432 4320 191
4432 4490 128
4433 4325 228
4433 4469 107
4433 4485 166
4434 4387 85
4434 4436 65
4434 4456 34
4435 4405 75
4435 4418 61
4435 4465 82
4435 4470 183
4436 4434 65
4436 4374 110
4436 4427 59
4436 4478 103
4437 4336 152
4437 4413 71
4437 4462 74
4437 4472 135
4438 4391 108
4438 4358 246
4438 4453 116
4438 4466 136
4439 4179 406
4439 4287 291
4439 4441 4
4439 4539 228
4440 4386 193
4440 4425 40
4440 4471 138
4440 4488 137
4441 4439 4
4441 4444 7
4442 4428 74
4442 4423 36
4442 4515 162
4443 4396 78
4444 4186 407
4444 4441 7
4444 4498 166
4444 4543 225
4445 4347 182
4445 4415 80
4445 4463 93
4445 4483 120
4446 4292 216
4447 4393 120
4447 4463 61
4447 4502 178
4448 4360 125
4448 4449 94
4448 4554 190
4449 4369 123
4449 4448 94
4449 4454 202
4449 4556 191
4450 4411 117
4450 4460 50
4450 4555 243
4451 4311 188
4451 4452 207
4451 4576 222
4452 4407 84
4452 4451 207
4452 4578 225
4453 4438 116
4453 4419 269
4453 4468 47
4454 4377 124
4454 4449 202
4454 4455 7
4454 4559 189
4455 4379 124
4455 4454 7
4455 4560 189
4456 4413 101
4456 4434 34
4456 4472 50
4457 4393 178
4457 4465 125
4458 4287 374
4458 4365 362
4458 4539 380
4458 4569 420
4459 4424 135
4459 4424 135
4459 4488 137
4459 4488 137
4459 4514 116
4460 4415 120
4460 4450 50
4460 4474 48
4461 4421 90
4461 4421 90
4461 4429 128
4461 4464 79
4461 4509 89
4461 4509 89
4462 4335 215
4462 4437 74
4462 4477 94
4462 4527 218
4463 4447 61
4463 4445 93
4463 4493 63
4463 4532 176
4464 4427 83
4464 4461 79
4464 4487 45
4465 4435 82
4465 4457 125
4465 4528 164
4465 4546 162
4466 4429 93
4466 4438 136
4466 4509 155
4466 4510 86
4467 4355 200
4468 4453 47
4468 4489 270
4468 4497 52
4468 4508 202
4469 4433 107
4469 4412 184
4469 4519 112
4469 4533 164
4470 4412 161
4470 4435 183
4470 4519 182
4470 4528 124
4471 4440 138
4471 4410 131
4471 4485 41
4472 4437 135
4472 4456 50
4472 4478 63
4473 4049 606
4473 4482 1073
4473 4557 1292
4473 4660 451
4474 4460 48
4474 4483 29
4474 4535 131
4475 4343 233
4475 4479 162
4475 4507 69
4476 4392 162
4477 4430 163
4477 4462 94
4477 4571 290
4478 4472 63
4478 4436 103
4478 4487 67
4478 4527 75
4479 4475 162
4479 4371 202
4479 4480 133
4480 4479 133
4480 4403 167
4480 4481 453
4481 4480 453
4482 4473 1073
4482 4167 484
4482 4486 443
4482 4643 388
4483 4445 120
4483 4474 29
4483 4522 94
4484 4411 196
4484 4308 271
4484 4505 46
4484 4525 63
4485 4471 41
4485 4433 166
4485 4533 108
4485 4553 158
4486 4482 443
4486 4219 400
4486 4542 1086
4486 4616 275
4487 4478 67
4487 4464 45
4487 4504 34
4487 4540 117
4488 4459 137
4488 4459 137
4488 4440 137
4488 4553 153
4488 4553 153
4488 4561 139
4489 4468 270
4489 4424 133
4489 4514 98
4490 4432 128
4490 4517 117
4490 4558 536
4491 4492 50
4492 4491 50
4492 3896 878
4492 4599 197
4493 4463 63
4493 4522 61
4493 4567 177
4494 4495 284
4494 4331 38
4495 4494 284
4495 4603 253
4496 4422 180
4496 4505 298
4496 4506 74
4497 4468 52
4497 4536 334
4497 4541 70
4497 4545 178
4498 4296 406
4498 4444 166
4498 4565 135
4499 4500 313
4499 4501 302
4499 4604 239
4500 4499 313
4500 4328 39
4501 4499 302
4501 4329 39
4502 4447 178
4502 4532 61
4502 4546 110
4503 4409 333
4503 4316 315
4503 4507 15
4503 4623 332
4504 4487 34
4505 4484 46
4505 4496 298
4505 4525 43
4505 4589 169
4506 4496 74
4506 4428 165
4506 4515 49
4506 4641 468
4507 4503 15
4507 4475 69
4507 4624 326
4508 4468 202
4508 4510 12
4508 4545 64
4509 4461 89
4509 4461 89
4509 4466 155
4509 4538 52
4509 4538 52
4510 4466 86
4510 4508 12
4510 4516 14
4511 4512 28
4512 4511 28
4512 4513 65
4512 4526 141
4512 4534 38
4513 4512 65
4514 4489 98
4514 4459 116
4514 4536 45
4514 4561 108
4515 4506 49
4515 4442 162
4515 4529 113
4516 4510 14
4516 4548 63
4516 4568 148
4517 4490 117
4517 4518 164
4517 4581 240
4517 4595 569
4518 4517 164
4519 4469 112
4519 4470 182
4519 4582 146
4519 4586 163
4520 4521 565
4520 4831 64
4521 4520 565
4521 4383 96
4522 4493 61
4522 4483 94
4522 4588 130
4522 4591 176
4523 4524 562
4523 4390 96
4524 4523 562
4524 4917 65
4525 4484 63
4525 4505 43
4525 4555 73
4526 4512 141
4527 4462 218
4527 4478 75
4527 4566 157
4527 4571 77
4528 4470 124
4528 4465 164
4528 4582 172
4528 4593 147
4529 4515 113
4529 4423 195
4529 4537 118
4529 4686 501
4530 4531 867
4530 4332 321
4530 4544 242
4530 4620 231
4531 4530 867
4532 4502 61
4532 4463 176
4532 4567 61
4532 4579 116
4533 4485 108
4533 4469 164
4533 4586 113
4533 4594 160
4534 4512 38
4534 4549 186
4534 4596 111
4534 4599 422
4535 4474 131
4535 4588 133
4535 4590 113
4536 4497 334
4536 4514 45
4536 4577 91
4536 4584 87
4537 4529 118
4537 4286 509
4537 4585 347
4538 4509 52
4538 4509 52
4538 4540 23
4538 4568 71
4539 4439 228
4539 4458 380
4539 4543 12
4539 4631 753
4540 4487 117
4540 4538 23
4540 4566 40
4541 4497 70
4541 4584 270
4541 4587 154
4541 4602 134
4542 4486 1086
4542 4563 520
4542 4688 479
4543 4444 225
4543 4539 12
4543 4609 280
4543 4634 765
4544 4530 242
4544 4353 322
4544 4557 269
4544 4629 230
4545 4508 64
4545 4497 178
4545 4548 26
4545 4587 80
4546 4465 162
4546 4502 110
4546 4579 61
4546 4593 149
4547 4400 275
4547 4554 114
4547 4573 331
4547 4689 455
4548 4516 63
4548 4545 26
4548 4583 100
4548 4592 81
4549 4534 186
4549 4550 89
4549 4564 101
4549 4655 303
4550 4549 89
4551 4552 957
4552 4551 957
4552 4292 943
4552 4562 36
4552 4680 497
4553 4488 153
4553 4488 153
4553 4485 158
4553 4594 108
4553 4594 108
4553 4601 171
4554 4448 190
4554 4547 114
4554 4556 94
4555 4450 243
4555 4525 73
4555 4590 96
4555 4607 166
4556 4449 191
4556 4554 94
4556 4559 199
4556 4695 454
4557 4544 269
4557 4270 450
4557 4473 1292
4557 4633 228
4558 4490 536
4559 4454 189
4559 4556 199
4559 4560 7
4559 4705 457
4560 4455 189
4560 4559 7
4560 4570 448
4560 4704 457
4561 4514 108
4561 4488 139
4561 4601 129
4562 4552 36
4562 4608 586
4562 4685 429
4563 4542 520
4563 3247 1991
4563 4714 501
4564 4549 101
4565 4498 135
4566 4527 157
4566 4540 40
4566 4571 212
4567 4532 61
4567 4493 177
4567 4591 61
4567 4598 118
4568 4538 71
4568 4516 148
4568 4575 15
4569 4458 420
4569 4365 349
4569 4631 200
4569 4642 567
4570 4279 459
4570 4560 448
4570 4572 226
4570 4708 454
4571 4477 290
4571 4527 77
4571 4566 212
4572 4257 480
4572 4570 226
4572 4576 134
4572 4709 447
4573 4547 331
4573 4574 146
4573 4623 429
4574 4573 146
4575 4568 15
4575 4583 68
4575 4645 341
4576 4451 222
4576 4572 134
4576 4578 207
4577 4536 91
4578 4452 225
4578 4576 207
4578 4580 18
4578 4712 446
4579 4546 61
4579 4532 116
4579 4598 64
4580 4416 291
4580 4578 18
4580 4585 209
4580 4711 444
4581 4517 240
4582 4519 146
4582 4528 172
4582 4613 165
4582 4615 154
4583 4575 68
4583 4548 100
4583 4597 105
4584 4541 270
4584 4536 87
4584 4612 108
4585 4537 347
4585 4414 300
4585 4580 209
4586 4533 113
4586 4519 163
4586 4613 134
4586 4614 163
4587 4545 80
4587 4541 154
4587 4592 25
4587 4640 294
4588 4522 130
4588 4535 133
4588 4617 122
4589 4505 169
4590 4535 113
4590 4555 96
4590 4617 172
4590 4619 172
4591 4567 61
4591 4522 176
4591 4611 121
4591 4638 243
4592 4548 81
4592 4587 25
4592 4597 36
4592 4600 52
4593 4528 147
4593 4546 149
4593 4615 157
4593 4618 139
4594 4553 108
4594 4553 108
4594 4533 160
4594 4614 106
4594 4614 106
4595 4517 569
4596 4534 111
4597 4583 105
4597 4592 36
4597 4600 61
4598 4579 64
4598 4567 118
4598 4611 57
4598 4618 136
4599 4492 197
4599 4534 422
4599 4668 290
4600 4597 61
4600 4592 52
4600 4656 318
4601 4561 129
4601 4553 171
4601 4626 171
4601 4756 646
4602 4541 134
4602 4610 166
4602 4640 152
4603 4495 253
4603 4772 115
4604 4499 239
4604 4778 118
4605 4606 11
4606 4605 11
4606 4607 12
4606 4641 173
4607 4555 166
4607 4606 12
4607 4619 91
4608 4562 586
4608 4655 968
4608 4657 177
4609 4543 280
4610 4602 166
4610 4612 16
4610 4646 163
4611 4598 57
4611 4591 121
4611 4625 87
4612 4610 16
4612 4584 108
4612 4628 99
4613 4586 134
4613 4582 165
4613 4635 138
4613 4639 167
4614 4594 106
4614 4594 106
4614 4586 163
4614 4639 142
4614 4639 142
4615 4582 154
4615 4593 157
4615 4635 171
4615 4637 136
4616 4486 275
4616 4621 224
4616 4662 173
4617 4588 122
4617 4590 172
4617 4638 137
4617 4666 197
4618 4593 139
4618 4598 136
4618 4637 146
4618 4649 145
4619 4590 172
4619 4607 91
4619 4651 131
4619 4666 244
4620 4530 231
4620 4629 215
4620 4723 356
4621 4616 224
4621 4622 72
4621 4627 148
4621 4667 169
4622 4621 72
4623 4573 429
4623 4503 332
4623 4624 21
4623 4683 230
4624 4623 21
4624 4507 326
4624 4718 336
4625 4611 87
4625 4649 125
4625 4661 156
4626 4601 171
4626 4628 76
4626 4674 212
4627 4621 148
4628 4612 99
4628 4626 76
4628 4652 134
4629 4620 215
4629 4544 230
4629 4630 120
4629 4636 34
4630 4629 120
4630 4632 110
4630 4670 176
4631 4539 753
4631 4569 200
4631 4634 12
4631 4715 471
4632 4630 110
4632 4633 81
4632 4671 173
4633 4632 81
4633 4557 228
4633 4660 1286
4633 4672 172
4634 4543 765
4634 4631 12
4634 4715 465
4635 4613 138
4635 4615 171
4635 4659 141
4636 4629 34
4637 4615 136
4637 4618 146
4637 4659 140
4637 4665 166
4638 4591 243
4638 4617 137
4638 4661 127
4638 4677 161
4639 4614 142
4639 4614 142
4639 4613 167
4639 4710 274
4639 4710 274
4640 4587 294
4640 4602 152
4640 4646 60
4641 4606 173
4641 4506 468
4641 4651 37
4641 4663 123
4642 4569 567
4642 4650 22
4642 4715 276
4643 4644 296
4643 4482 388
4643 4662 421
4643 4752 379
4644 4643 296
4645 4380 849
4645 4575 341
4645 4679 184
4646 4640 60
4646 4610 163
4646 4652 49
4646 4656 27
4647 2744 2869
4647 4700 99
4648 2754 2854
4648 4703 99
4649 4618 145
4649 4625 125
4649 4665 106
4649 4675 160
4650 4642 22
4650 4715 276
4650 4724 628
4651 4619 131
4651 4641 37
4651 4673 155
4651 4690 284
4652 4646 49
4652 4628 134
4652 4656 69
4653 4654 18
4654 4653 18
4654 4657 91
4654 4795 536
4655 4549 303
4655 4608 968
4655 4668 511
4656 4600 318
4656 4646 27
4656 4652 69
4657 4608 177
4657 4654 91
4657 4658 53
4657 4669 82
4658 4657 53
4659 4635 141
4659 4637 140
4659 4681 190
4659 4710 248
4660 4633 1286
4660 4473 451
4660 4745 298
4661 4625 156
4661 4638 127
4661 4675 110
4661 4697 129
4662 4643 421
4662 4616 173
4662 4667 223
4662 4754 334
4663 4641 123
4663 4664 61
4663 4676 60
4664 4663 61
4665 4637 166
4665 4649 106
4665 4681 123
4665 4696 179
4666 4617 197
4666 4619 244
4666 4677 136
4666 4690 99
4667 4662 223
4667 4621 169
4667 4688 804
4667 4691 89
4668 4599 290
4668 4655 511
4668 4978 761
4669 4657 82
4670 4630 176
4670 4671 110
4670 4728 169
4671 4670 110
4671 4632 173
4671 4672 98
4672 4671 98
4672 4633 172
4672 4730 173
4673 4651 155
4673 4676 42
4673 4741 353
4674 4626 212
4675 4649 160
4675 4661 110
4675 4696 74
4675 4697 121
4676 4673 42
4676 4663 60
4676 4682 269
4677 4638 161
4677 4666 136
4677 4697 137
4678 3497 8863
4678 5400 14949
4678 5829 10854
4679 4645 184
4680 4552 497
4680 4684 25
4680 4753 425
4681 4659 190
4681 4665 123
4681 4717 208
4681 4719 173
4682 4676 269
4682 4686 180
4682 4742 204
4683 4623 230
4683 4689 686
4683 4721 119
4684 4680 25
4685 4562 429
4685 4693 150
4685 4731 288
4685 4740 165
4686 4682 180
4686 4529 501
4686 4711 546
4686 4770 307
4687 4350 809
4687 4302 1204
4687 5178 1921
4688 4667 804
4688 4542 479
4688 4714 541
4688 4767 286
4689 4547 455
4689 4683 686
4689 4695 208
4689 4892 547
4690 4666 99
4690 4651 284
4690 4729 125
4691 4692 168
4691 4667 89
4691 4707 225
4691 4757 231
4692 4691 168
4693 4694 39
4693 4685 150
4693 4698 82
4693 4744 166
4694 4693 39
4695 4556 454
4695 4689 208
4695 4705 201
4695 4776 301
4696 4665 179
4696 4675 74
4696 4717 91
4696 4732 211
4697 4661 129
4697 4677 137
4697 4675 121
4697 4732 126
4698 4699 72
4698 4693 82
4698 4747 171
4699 4698 72
4700 4701 87
4700 4647 99
4701 4700 87
4701 4800 82
4702 4703 85
4702 4859 81
4703 4702 85
4703 4648 99
4704 4560 457
4704 4705 6
4704 4708 449
4704 4811 376
4705 4704 6
4705 4559 457
4705 4695 201
4705 4812 376
4706 4143 7416
4706 4713 83
4706 4843 444
4707 4691 225
4708 4570 454
4708 4704 449
4708 4709 249
4708 4842 422
4709 4572 447
4709 4708 249
4709 4712 342
4709 4862 497
4710 4639 274
4710 4639 274
4710 4659 248
4710 4719 217
4710 4755 204
4710 4755 204
4710 4756 303
4711 4686 546
4711 4580 444
4711 4712 16
4711 4720 55
4712 4711 16
4712 4578 446
4712 4709 342
4712 4739 115
4713 4706 83
4713 4716 294
4713 4829 419
4714 4688 541
4714 4563 501
4714 4826 367
4715 4634 465
4715 4631 471
4715 4642 276
4715 4650 276
4715 4766 487
4715 4768 490
4715 4966 760
4715 4968 751
4716 4713 294
4716 4722 156
4717 4681 208
4717 4696 91
4717 4736 85
4717 4793 375
4718 4624 336
4718 4771 237
4719 4710 217
4719 4681 173
4719 4736 266
4719 4755 204
4720 4711 55
4720 4738 59
4720 4803 282
4721 4683 119
4721 4769 223
4722 4723 700
4722 4716 156
4723 4722 700
4723 4620 356
4723 4728 344
4724 4650 628
4724 4794 268
4724 4866 643
4725 4726 38
4725 4727 25
4725 4746 75
4726 4725 38
4727 4725 25
4728 4723 344
4728 4670 169
4728 4730 225
4729 4690 125
4729 4741 37
4729 4760 324
4730 4728 225
4730 4672 173
4730 4733 315
4730 4785 208
4731 4685 288
4731 4740 127
4731 4753 87
4732 4696 211
4732 4697 126
4732 4760 110
4733 4730 315
4733 4737 311
4733 4799 227
4734 4735 12
4735 4734 12
4736 4719 266
4736 4717 85
4736 4793 340
4736 4841 397
4737 4733 311
4737 4743 342
4737 4813 249
4738 4720 59
4738 13574 352
4739 4712 115
4739 13575 351
4740 4685 165
4740 4731 127
4740 4744 150
4740 4759 87
4741 4729 37
4741 4673 353
4741 4758 98
4742 4682 204
4742 4798 208
4742 4806 408
4743 4737 342
4743 4745 280
4743 4840 275
4744 4693 166
4744 4740 150
4744 4747 81
4744 4761 87
4745 4743 280
4745 4660 298
4745 4752 1031
4745 4850 295
4746 4725 75
4747 4698 171
4747 4744 81
4747 4762 87
4748 4749 27
4749 4748 27
4750 4751 11
4751 4750 11
4752 4745 1031
4752 4643 379
4752 4754 398
4753 4731 87
4753 4680 425
4753 4759 127
4753 4774 87
4754 4752 398
4754 4662 334
4754 4757 219
4755 4710 204
4755 4710 204
4755 4719 204
4755 4872 294
4755 4872 294
4756 4601 646
4756 4710 303
4756 5024 780
4757 4754 219
4757 4691 231
4757 4767 785
4758 4741 98
4758 4823 451
4758 4807 58
4759 4740 87
4759 4753 127
4759 4761 150
4759 4781 85
4760 4732 110
4760 4729 324
4760 4793 113
4761 4744 87
4761 4759 150
4761 4762 81
4761 4786 87
4762 4747 87
4762 4761 81
4762 4792 89
4763 4764 91
4763 4765 72
4763 4818 127
4764 4763 91
4764 4816 212
4764 4817 128
4765 4763 72
4766 4715 487
4766 4768 11
4766 4794 230
4767 4757 785
4767 4688 286
4767 4826 546
4768 4715 490
4768 4766 11
4768 4802 232
4768 4922 372
4769 4721 223
4769 4809 95
4769 4897 324
4770 4686 307
4770 4798 265
4770 4803 539
4770 5015 455
4771 4718 237
4771 4787 42
4771 4797 474
4772 4773 636
4772 4603 115
4773 4772 636
4773 13597 804
4774 4753 87
4774 4775 85
4774 4781 128
4774 4839 129
4775 4774 85
4776 4695 301
4776 4814 156
4776 4820 95
4777 4778 639
4777 13598 806
4778 4777 639
4778 4604 118
4779 4780 32
4780 4779 32
4781 4759 85
4781 4774 128
4781 4786 150
4781 4847 139
4782 4783 145
4783 4782 145
4784 4281 1546
4784 4822 291
4784 5003 450
4785 4730 208
4785 4799 285
4785 4926 277
4786 4761 87
4786 4781 150
4786 4792 104
4786 4898 230
4787 4771 42
4787 4863 149
4788 4789 102
4788 4827 344
4788 4886 2739
4789 4788 102
4789 4804 55
4789 4810 39
4790 4791 29
4791 4790 29
4792 4762 89
4792 4786 104
4792 5158 786
4793 4736 340
4793 4717 375
4793 4760 113
4793 4823 52
4794 4766 230
4794 4724 268
4794 4802 11
4794 4866 443
4795 4654 536
4795 4796 170
4795 4828 142
4796 4795 170
4797 4771 474
4797 4969 391
4797 4970 707
4798 4742 208
4798 4770 265
4798 4933 253
4799 4785 285
4799 4733 227
4799 4813 310
4799 4942 262
4800 4801 276
4800 4701 82
4801 4800 276
4801 4960 611
4801 5104 575
4802 4768 232
4802 4794 11
4802 4874 445
4802 4985 374
4803 4770 539
4803 4720 282
4803 4808 34
4803 4861 256
4804 4789 55
4804 4805 36
4804 4824 34
4804 4825 121
4805 4804 36
4805 4825 121
4806 4807 132
4806 4742 408
4806 4821 23
4807 4806 132
4807 4758 58
4808 4803 34
4808 4862 220
4809 4769 95
4809 4855 82
4810 4789 39
4810 4824 48
4810 4873 128
4811 4704 376
4811 4812 5
4811 4883 145
4812 4811 5
4812 4705 376
4812 4814 138
4812 4884 145
4813 4799 310
4813 4737 249
4813 4840 347
4813 4956 258
4814 4812 138
4814 4776 156
4814 4820 64
4815 4816 40
4816 4815 40
4816 4764 212
4816 4817 83
4816 4851 67
4817 4816 83
4817 4764 128
4817 4818 90
4817 4852 67
4818 4817 90
4818 4763 127
4818 4819 23
4818 4853 67
4819 4818 23
4820 4814 64
4820 4776 95
4820 4887 141
4821 4806 23
4821 4845 130
4821 4885 155
4822 4784 291
4822 4849 281
4822 4870 102
4823 4793 52
4823 4758 451
4823 4864 90
4824 4810 48
4824 4804 34
4824 4844 44
4824 4858 280
4825 4804 121
4825 4805 121
4825 4858 130
4826 4767 546
4826 4714 367
4826 4935 1696
4826 5116 3701
4827 4788 344
4827 4858 65
4827 5070 1340
4828 4795 142
4828 4833 110
4828 4902 154
4829 4713 419
4829 4859 550
4829 4875 218
4830 4831 1278
4830 4848 46
4830 4944 239
4831 4830 1278
4831 4520 64
4832 4833 95
4833 4832 95
4833 4828 110
4833 4835 74
4833 4903 153
4834 4835 135
4835 4834 135
4835 4833 74
4835 4836 77
4835 4909 153
4836 4837 126
4836 4835 77
4836 4838 49
4836 4910 150
4837 4836 126
4838 4836 49
4839 4774 129
4840 4813 347
4840 4743 275
4840 4850 277
4841 4736 397
4841 4872 86
4841 4881 142
4842 4708 422
4842 4869 57
4842 4871 72
4843 4706 444
4843 4878 194
4843 5117 620
4844 4824 44
4844 4857 90
4844 4907 258
4845 4821 130
4845 4846 80
4846 4845 80
4846 13566 343
4847 4781 139
4848 4830 46
4848 4865 212
4848 4919 157
4849 4822 281
4849 4900 545
4849 4938 162
4850 4840 277
4850 4745 295
4850 4979 249
4851 4816 67
4851 4852 82
4851 4904 167
4851 4906 111
4852 4851 82
4852 4817 67
4852 4853 89
4852 4908 112
4853 4852 89
4853 4818 67
4853 4854 80
4853 4911 113
4854 4853 80
4855 4856 97
4855 4809 82
4855 4941 156
4856 4855 97
4856 4923 217
4857 4844 90
4858 4825 130
4858 4827 65
4858 4824 280
4859 4829 550
4859 5117 893
4859 4702 81
4860 4861 90
4860 13567 282
4861 4860 90
4861 4803 256
4862 4808 220
4862 4709 497
4862 4882 85
4863 4787 149
4863 4934 129
4863 4973 265
4864 4823 90
4864 4961 183
4864 4987 246
4865 4848 212
4865 4935 225
4866 4794 443
4866 4724 643
4866 4874 12
4866 4914 252
4867 4868 85
4867 13572 369
4868 4867 85
4868 4885 46
4868 4930 223
4869 4842 57
4869 4871 41
4869 4889 43
4870 4822 102
4870 4947 291
4870 4974 204
4871 4869 41
4871 4842 72
4871 4880 390
4871 4888 49
4872 4755 294
4872 4755 294
4872 4841 86
4872 5001 424
4872 13587 424
4872 5001 424
4872 13587 424
4873 4810 128
4874 4802 445
4874 4866 12
4874 4914 249
4874 5052 334
4875 4829 218
4875 5105 91
4876 4877 124
4876 5016 236
4876 5018 341
4877 4876 124
4877 13571 286
4878 4843 194
4878 4960 92
4879 4880 132
4879 13575 877
4880 4879 132
4880 4871 390
4880 4883 57
4881 4841 142
4881 4899 105
4881 4901 157
4881 4925 127
4882 4862 85
4882 5010 284
4883 4880 57
4883 4811 145
4883 4884 7
4883 4894 18
4884 4883 7
4884 4812 145
4884 4887 204
4884 4895 18
4885 4821 155
4885 4868 46
4885 4928 72
4886 4788 2739
4886 4914 637
4886 4964 165
4887 4884 204
4887 4820 141
4887 4892 204
4887 4893 7
4888 4871 49
4888 4889 75
4888 4890 361
4888 4962 164
4889 4869 43
4889 4888 75
4889 5010 238
4890 4891 133
4890 4888 361
4890 4894 58
4891 4890 133
4891 13577 876
4892 4887 204
4892 4689 547
4892 4896 12
4892 4897 669
4893 4887 7
4894 4890 58
4894 4883 18
4894 4895 7
4894 4976 146
4895 4894 7
4895 4884 18
4895 4896 408
4895 4975 145
4896 4895 408
4896 4892 12
4896 4913 665
4896 4986 170
4897 4892 669
4897 4769 324
4897 4923 116
4898 4786 230
4899 4881 105
4899 4925 36
4899 4925 407
4900 4849 545
4900 5095 1037
4900 5322 1380
4901 4881 157
4902 4828 154
4902 4903 111
4902 4958 88
4903 4833 153
4903 4902 111
4903 4909 75
4903 4959 91
4904 4851 167
4904 4905 43
4904 4906 56
4904 4996 156
4905 4904 43
4906 4904 56
4906 4851 111
4906 4908 81
4906 4994 155
4907 4844 258
4908 4906 81
4908 4852 112
4908 4911 89
4908 4992 153
4909 4835 153
4909 4903 75
4909 4910 79
4909 5225 573
4910 4836 150
4910 4909 79
4910 4972 113
4910 4993 620
4911 4908 89
4911 4853 113
4911 4912 26
4911 4993 152
4912 4911 26
4913 4896 665
4913 4946 161
4913 5027 286
4914 4874 249
4914 4866 252
4914 4886 637
4914 5062 5054
4914 5078 297
4914 5079 304
4915 4916 389
4915 4921 63
4915 4997 142
4916 4915 389
4917 4918 1462
4917 4524 65
4918 4917 1462
4918 4948 48
4918 4950 48
4919 4920 196
4919 4848 157
4919 4945 41
4920 4919 196
4920 4936 212
4921 4915 63
4921 4924 68
4921 4991 135
4922 4768 372
4922 4985 330
4922 5055 309
4923 4897 116
4923 4856 217
4923 4941 63
4924 4921 68
4924 4927 65
4924 5000 132
4925 4881 127
4925 4899 36
4925 4899 407
4926 4785 277
4926 4942 240
4926 5033 207
4927 4924 65
4927 4932 67
4927 4995 124
4928 4885 72
4928 4929 92
4928 5009 137
4929 4928 92
4929 4930 45
4929 5011 137
4930 4929 45
4930 4868 223
4930 4931 25
4931 4930 25
4931 4933 111
4931 5012 136
4932 4927 67
4932 4937 53
4932 4988 116
4933 4931 111
4933 4798 253
4933 5013 135
4934 4863 129
4934 4943 15
4934 4951 237
4935 4826 1696
4935 4865 225
4935 4936 7
4936 4935 7
4936 4920 212
4936 4981 506
4937 4932 53
4937 4939 64
4937 4989 112
4938 4849 162
4938 4947 98
4938 5054 235
4939 4937 64
4939 4940 758
4939 4949 182
4939 5042 211
4940 4939 758
4941 4923 63
4941 4855 156
4941 4943 21
4941 4953 20
4942 4926 240
4942 4799 262
4942 4956 300
4943 4941 21
4943 4934 15
4943 4951 30
4943 4955 21
4944 4830 239
4944 5700 38
4945 4919 41
4945 5700 35
4946 4913 161
4946 4953 22
4946 4957 249
4947 4870 291
4947 4938 98
4947 4974 211
4947 5073 248
4948 4918 48
4948 5098 37
4949 4939 182
4949 4952 52
4949 5120 330
4950 4918 48
4950 4983 34
4951 4943 30
4951 4934 237
4951 4973 98
4952 4949 52
4952 4954 57
4952 5119 325
4953 4946 22
4953 4941 20
4953 4955 21
4953 4957 12
4954 4952 57
4954 4978 595
4954 5118 320
4955 4953 21
4955 4943 21
4955 4963 44
4955 4967 29
4956 4942 300
4956 4813 258
4956 4979 636
4956 5077 231
4957 4953 12
4957 4946 249
4957 5027 132
4958 4902 88
4959 4903 91
4960 4801 611
4960 4878 92
4961 4864 183
4961 13580 355
4962 4888 164
4962 4976 318
4962 5031 141
4963 4955 44
4963 5006 136
4963 4967 255
4964 4886 165
4964 4965 298
4964 5127 342
4965 4964 298
4966 4715 760
4966 4968 19
4966 4971 14
4966 5190 1138
4967 4955 29
4967 4963 255
4967 5048 158
4968 4966 19
4968 4715 751
4968 4977 15
4968 5055 484
4969 4797 391
4969 5034 197
4969 5102 422
4970 4797 707
4970 5035 329
4970 5102 277
4971 4966 14
4971 4977 18
4971 5126 351
4971 5196 1109
4972 4910 113
4973 4951 98
4973 4863 265
4973 5034 219
4974 4870 204
4974 4947 211
4974 5038 160
4974 5085 208
4975 4895 145
4975 4976 7
4975 4980 236
4975 5069 177
4976 4962 318
4976 4894 146
4976 4975 7
4976 5065 175
4977 4971 18
4977 4968 15
4977 5058 488
4977 5134 350
4978 4954 595
4978 4668 761
4978 4996 518
4978 5215 429
4979 4956 636
4979 4850 249
4979 5116 248
4980 4975 236
4980 4986 175
4980 5023 59
4981 4936 506
4981 4982 7
4981 5032 206
4982 4981 7
4982 5039 213
4982 5139 1082
4983 4984 52
4983 4950 34
4984 4983 52
4984 5032 190
4984 5057 153
4985 4922 330
4985 4802 374
4985 5052 542
4985 5140 289
4986 4980 175
4986 4896 170
4986 4998 83
4986 5071 149
4987 4864 246
4987 5020 53
4987 5029 65
4988 4932 116
4988 4989 52
4988 4995 66
4988 5046 107
4989 4988 52
4989 4937 112
4989 4990 54
4989 5047 108
4990 4989 54
4991 4921 135
4991 4997 64
4991 5000 67
4991 5041 103
4992 4908 153
4992 4993 90
4992 4994 80
4993 4992 90
4993 4911 152
4993 4910 620
4994 4906 155
4994 4992 80
4994 4996 57
4995 4927 124
4995 4988 66
4995 5000 65
4995 5044 104
4996 4904 156
4996 4994 57
4996 4978 518
4997 4915 142
4997 4991 64
4997 5045 103
4998 4986 83
4998 4999 143
4998 5002 53
4998 5067 139
4999 4998 143
5000 4991 67
5000 4924 132
5000 4995 65
5000 5043 101
5001 4872 424
5001 13587 424
5001 4872 424
5001 13587 424
5001 5017 83
5001 5030 91
5001 5030 91
5002 4998 53
5002 5021 133
5002 5056 123
5003 4784 450
5003 5026 189
5003 5035 424
5003 5201 378
5004 5005 101
5004 5007 139
5004 5068 130
5005 5004 101
5006 4963 136
5006 5040 155
5006 5048 202
5007 5004 139
5007 5008 188
5007 5009 136
5007 5164 288
5008 5007 188
5009 5007 136
5009 4928 137
5009 5011 93
5009 5166 290
5010 4882 284
5010 4889 238
5010 5022 28
5010 5037 97
5011 5009 93
5011 4929 137
5011 5012 69
5012 5011 69
5012 4931 136
5012 5013 110
5013 5012 110
5013 4933 135
5013 5014 124
5013 5169 292
5014 5013 124
5014 5015 133
5014 5170 294
5015 5014 133
5015 4770 455
5015 5016 418
5015 5171 293
5016 4876 236
5016 5015 418
5016 5018 116
5017 5001 83
5017 5020 16
5017 5030 54
5018 5016 116
5018 4876 341
5018 5019 233
5018 5174 288
5019 5018 233
5019 5022 235
5019 5130 222
5020 5017 16
5020 4987 53
5020 5029 42
5021 5002 133
5021 5036 117
5021 5049 74
5022 5019 235
5022 5010 28
5022 5130 318
5023 4980 59
5023 5051 259
5023 5092 282
5024 4756 780
5024 5025 97
5024 5028 36
5025 5024 97
5026 5003 189
5026 5038 237
5026 5080 154
5027 4913 286
5027 4957 132
5027 5183 283
5028 5024 36
5028 13589 129
5029 5020 42
5029 4987 65
5029 5053 57
5030 5001 91
5030 5001 91
5030 5017 54
5030 5050 54
5030 5050 54
5031 4962 141
5031 5065 287
5031 5084 262
5031 5124 195
5032 4984 190
5032 4981 206
5033 4926 207
5033 5077 499
5033 5639 2197
5034 4973 219
5034 4969 197
5034 5226 607
5035 5003 424
5035 4970 329
5035 5270 522
5036 5021 117
5036 5059 142
5036 5146 187
5037 5010 97
5037 5084 91
5037 5291 534
5038 5026 237
5038 4974 160
5038 5080 89
5038 5085 140
5039 4982 213
5039 5057 203
5040 5006 155
5040 5086 89
5040 5108 197
5041 4991 103
5041 5043 67
5041 5045 65
5041 5111 103
5042 4939 211
5042 5047 62
5042 5199 255
5043 5041 67
5043 5000 101
5043 5044 64
5043 5110 100
5044 5043 64
5044 4995 104
5044 5046 65
5044 5109 100
5045 4997 103
5045 5041 65
5045 5112 102
5046 5044 65
5046 4988 107
5046 5047 52
5046 5107 97
5047 5046 52
5047 4989 108
5047 5042 62
5048 4967 158
5048 5006 202
5048 5184 232
5049 5021 74
5049 5056 122
5049 5137 151
5050 5030 54
5050 5030 54
5050 5072 33
5050 5072 33
5051 5023 259
5051 5083 52
5051 5092 197
5052 4985 542
5052 4874 334
5052 5079 271
5052 5214 280
5053 5029 57
5053 5064 26
5053 5106 83
5054 4938 235
5054 5073 91
5054 5149 456
5055 4968 484
5055 4922 309
5055 5058 11
5055 5140 415
5056 5002 123
5056 5049 122
5056 5066 45
5057 4984 153
5057 5039 203
5057 5099 63
5058 4977 488
5058 5055 11
5058 5145 418
5058 5231 361
5059 5036 142
5059 5074 210
5059 5163 170
5060 5061 592
5060 13565 592
5060 13569 592
5060 13579 592
5060 13583 592
5061 5060 592
5061 13565 592
5061 13569 592
5061 13579 592
5061 13583 592
5062 4914 5054
5062 5063 10
5062 5070 10
5063 5062 10
5063 5075 11
5063 5278 895
5064 5053 26
5064 5068 426
5064 5165 171
5065 5031 287
5065 4976 175
5065 5069 6
5065 5150 140
5066 5056 45
5066 5067 6
5066 5135 180
5067 4998 139
5067 5066 6
5067 5071 84
5068 5064 426
5068 5004 130
5068 5162 159
5069 5065 6
5069 4975 177
5069 5083 56
5069 5151 139
5070 4827 1340
5070 5062 10
5070 5075 11
5070 5157 146
5071 4986 149
5071 5067 84
5071 5168 162
5072 5050 33
5072 5050 33
5072 5089 104
5072 5103 49
5072 5103 49
5073 4947 248
5073 5054 91
5073 5085 257
5074 5059 210
5074 5076 93
5074 5307 494
5075 5070 11
5075 5063 11
5075 5115 252
5075 5156 141
5076 5074 93
5076 5081 47
5077 5033 499
5077 4956 231
5077 5116 650
5078 4914 297
5078 5079 13
5078 5227 269
5079 5052 271
5079 4914 304
5079 5078 13
5079 5228 268
5080 5026 154
5080 5038 89
5080 5149 224
5080 5230 316
5081 5082 87
5081 5076 47
5082 5081 87
5082 5086 183
5082 5152 125
5083 5069 56
5083 5051 52
5083 5128 220
5084 5037 91
5084 5031 262
5084 5167 178
5085 5038 140
5085 4974 208
5085 5073 257
5086 5082 183
5086 5040 89
5086 5155 138
5086 5160 216
5087 4277 3692
5087 5095 14
5087 5190 660
5088 5089 18
5088 13592 21
5089 5088 18
5089 5072 104
5089 5091 11
5090 5091 12
5090 13593 22
5091 5090 12
5091 5089 11
5091 5114 61
5092 5051 197
5092 5023 282
5092 5128 68
5093 5094 16
5093 5114 63
5093 5129 96
5093 5238 268
5094 5093 16
5094 13594 22
5095 4900 1037
5095 5087 14
5095 5179 537
5095 5322 546
5096 5097 170
5096 5113 49
5096 5186 181
5097 5096 170
5098 5099 265
5098 4948 37
5099 5098 265
5099 5057 63
5099 5703 2390
5100 5101 17
5101 5100 17
5102 4969 422
5102 4970 277
5102 5226 312
5103 5072 49
5103 5072 49
5103 5114 114
5103 5136 65
5103 5136 65
5104 4801 575
5104 5105 523
5104 6001 4588
5105 5104 523
5105 4875 91
5106 5053 83
5106 5142 72
5106 5147 157
5107 5046 97
5107 5109 65
5107 5197 152
5107 5198 207
5108 5040 197
5108 5131 81
5108 5160 100
5109 5044 100
5109 5107 65
5109 5110 64
5109 5195 147
5110 5043 100
5110 5109 64
5110 5111 66
5110 5191 144
5111 5041 103
5111 5110 66
5111 5112 66
5111 5188 140
5112 5045 102
5112 5111 66
5112 5187 136
5113 5096 49
5113 5125 68
5113 5143 66
5114 5093 63
5114 5091 61
5114 5103 114
5114 5136 61
5115 5075 252
5115 5156 251
5115 5410 1220
5116 5077 650
5116 4979 248
5116 4826 3701
5116 5639 2395
5117 4843 620
5117 4859 893
5117 6000 4547
5118 4954 320
5118 5119 55
5118 5208 134
5119 4952 325
5119 5118 55
5119 5120 52
5119 5206 132
5120 4949 330
5120 5119 52
5120 5122 63
5120 5204 129
5121 5122 136
5122 5121 136
5122 5120 63
5122 5123 31
5122 5203 127
5123 5122 31
5124 5031 195
5124 5150 188
5124 5167 229
5124 5275 307
5125 5113 68
5125 5141 49
5125 5153 65
5126 4971 351
5126 5134 25
5126 5254 309
5127 4964 342
5128 5083 220
5128 5092 68
5128 5168 171
5128 5218 171
5129 5093 96
5129 5144 36
5129 5181 169
5130 5019 222
5130 5022 318
5130 5173 219
5130 5381 687
5131 5108 81
5131 5283 518
5131 5349 675
5132 5133 479
5132 5261 404
5132 5261 297
5133 5132 479
5134 5126 25
5134 4977 350
5134 5209 343
5134 5260 310
5135 5066 180
5135 5137 45
5135 5205 118
5136 5114 61
5136 5103 65
5136 5103 65
5136 5138 7
5136 5144 14
5136 5144 14
5137 5135 45
5137 5049 151
5137 5146 113
5138 5136 7
5138 5142 9
5139 4982 1082
5139 5187 755
5139 5740 2686
5140 5055 415
5140 4985 289
5140 5145 12
5140 5214 616
5141 5125 49
5141 5213 256
5141 5229 180
5142 5138 9
5142 5106 72
5142 5147 10
5142 5154 14
5143 5113 66
5143 5153 24
5143 5177 74
5144 5129 36
5144 5136 14
5144 5136 14
5144 5148 7
5144 5181 58
5144 5181 58
5145 5058 418
5145 5140 12
5145 5219 619
5145 5311 373
5146 5137 113
5146 5036 187
5146 5163 151
5146 5242 195
5147 5142 10
5147 5106 157
5147 5165 44
5148 5144 7
5148 5154 9
5149 5080 224
5149 5054 456
5149 5258 222
5150 5124 188
5150 5065 140
5150 5151 5
5150 5271 280
5151 5150 5
5151 5069 139
5151 5218 219
5151 5272 280
5152 5082 125
5152 5155 75
5152 5255 208
5153 5143 24
5153 5125 65
5153 5182 74
5154 5148 9
5154 5142 14
5154 5161 25
5154 5200 77
5155 5152 75
5155 5086 138
5155 5253 221
5156 5075 141
5156 5157 7
5156 5115 251
5156 5410 977
5157 5070 146
5157 5156 7
5157 5159 222
5157 5414 987
5158 4792 786
5158 5178 36
5158 5217 333
5159 5157 222
5160 5086 216
5160 5108 100
5160 5253 310
5161 5154 25
5161 5211 132
5161 5200 162
5162 5068 159
5162 5164 136
5162 5232 131
5163 5146 151
5163 5059 170
5163 5287 261
5164 5162 136
5164 5007 288
5164 5166 141
5164 5236 133
5165 5147 44
5165 5064 171
5165 5282 355
5166 5164 141
5166 5009 290
5166 5169 271
5166 5237 131
5167 5084 178
5167 5124 229
5167 5286 271
5168 5128 171
5168 5071 162
5168 5205 176
5168 5266 208
5169 5166 271
5169 5013 292
5169 5170 133
5169 5257 182
5170 5169 133
5170 5014 294
5170 5171 125
5170 5248 162
5171 5170 125
5171 5015 293
5171 5176 132
5171 5267 202
5172 5173 55
5172 13577 479
5173 5172 55
5173 5130 219
5173 5174 15
5173 5328 378
5174 5018 288
5174 5175 54
5174 5175 54
5174 5173 15
5174 5176 412
5174 5306 294
5174 5306 294
5175 5174 54
5175 5174 54
5175 13576 480
5176 5171 132
5176 5174 412
5176 5333 755
5177 5143 74
5177 5180 9
5177 5202 66
5178 5158 36
5178 4687 1921
5178 5217 311
5179 5095 537
5179 5185 54
5179 5210 55
5180 5177 9
5180 5182 16
5181 5144 58
5181 5144 58
5181 5129 169
5181 5238 112
5181 5238 112
5182 5180 16
5182 5153 74
5182 5216 66
5183 5027 283
5183 5367 562
5184 5048 232
5184 5256 152
5185 5179 54
5185 5210 62
5185 5262 599
5186 5096 181
5186 5202 44
5186 5241 130
5187 5139 755
5187 5112 136
5187 5188 68
5188 5187 68
5188 5111 140
5188 5189 28
5189 5188 28
5189 5191 38
5189 5601 1535
5190 5087 660
5190 4966 1138
5190 5196 19
5191 5189 38
5191 5110 144
5191 5195 64
5192 5193 371
5193 5192 371
5193 5194 179
5193 5361 716
5194 5193 179
5194 13590 532
5195 5191 64
5195 5109 147
5195 5197 64
5196 5190 19
5196 4971 1109
5196 5254 515
5197 5195 64
5197 5107 152
5197 5198 57
5198 5197 57
5198 5107 207
5198 5199 55
5199 5198 55
5199 5042 255
5199 5203 126
5200 5154 77
5200 5161 162
5200 5252 128
5201 5003 378
5201 5230 309
5201 5341 391
5202 5186 44
5202 5177 66
5202 5207 15
5203 5199 126
5203 5122 127
5203 5204 63
5204 5203 63
5204 5120 129
5204 5206 52
5205 5168 176
5205 5135 118
5205 5242 166
5205 5268 158
5206 5204 52
5206 5119 132
5206 5208 54
5207 5202 15
5207 5212 42
5207 5224 47
5208 5206 54
5208 5118 134
5208 5215 606
5209 5134 343
5209 5231 151
5209 5321 343
5210 5179 55
5210 5185 62
5210 5246 95
5211 5161 132
5211 5252 253
5211 5282 245
5212 5207 42
5212 5216 17
5212 5235 46
5213 5141 256
5214 5140 616
5214 5052 280
5214 5219 12
5214 5228 317
5215 5208 606
5215 4978 429
5215 5225 1465
5215 5576 1380
5216 5212 17
5216 5182 66
5216 5229 47
5217 5158 333
5217 5178 311
5217 5225 75
5218 5151 219
5218 5128 171
5218 5247 126
5218 5293 188
5219 5145 619
5219 5214 12
5219 5234 320
5219 5355 399
5220 5221 133
5220 5222 222
5220 5240 86
5221 5220 133
5222 5220 222
5223 5224 27
5224 5223 27
5224 5207 47
5224 5235 43
5224 5235 71
5225 4909 573
5225 5217 75
5225 5215 1465
5226 5034 607
5226 5102 312
5226 5270 189
5227 5078 269
5227 5228 16
5227 5233 11
5228 5214 317
5228 5079 268
5228 5227 16
5228 5234 11
5229 5216 47
5229 5141 180
5229 5280 130
5230 5201 309
5230 5080 316
5230 5258 278
5231 5209 151
5231 5058 361
5231 5273 263
5231 5339 353
5232 5162 131
5232 5236 139
5232 5294 141
5233 5227 11
5233 5234 16
5233 5526 1142
5234 5219 320
5234 5228 11
5234 5233 16
5234 5363 408
5235 5224 43
5235 5212 46
5235 5224 71
5235 5239 30
5236 5232 139
5236 5164 133
5236 5237 140
5237 5236 140
5237 5166 131
5237 5295 137
5238 5093 268
5238 5181 112
5238 5181 112
5238 5495 936
5238 5495 936
5239 5235 30
5240 5220 86
5241 5186 130
5241 5259 80
5241 5292 130
5242 5205 166
5242 5146 195
5242 5287 148
5242 5305 146
5243 5244 26
5244 5243 26
5244 5249 25
5244 5259 32
5245 5246 28
5245 5281 76
5245 5335 922
5246 5245 28
5246 5210 95
5246 5281 72
5247 5218 126
5247 5299 174
5247 5312 176
5248 5170 162
5248 5276 59
5248 5276 174
5249 5244 25
5250 5251 54
5251 5250 54
5252 5200 128
5252 5211 253
5252 5496 892
5253 5155 221
5253 5160 310
5253 5255 151
5253 5288 66
5254 5196 515
5254 5126 309
5254 5260 20
5254 5262 19
5255 5152 208
5255 5253 151
5255 5256 110
5255 5290 65
5256 5184 152
5256 5255 110
5256 5371 432
5257 5169 182
5257 5269 29
5257 5300 216
5258 5230 278
5258 5149 222
5258 5296 97
5259 5241 80
5259 5244 32
5259 5280 85
5260 5254 20
5260 5134 310
5260 5265 19
5260 5321 404
5261 5132 404
5261 5132 297
5261 5361 471
5262 5185 599
5262 5254 19
5262 5265 22
5262 5444 790
5263 5264 56
5264 5263 56
5265 5262 22
5265 5260 19
5265 5321 395
5265 5447 792
5266 5168 208
5266 5268 118
5266 5299 76
5267 5171 202
5267 5308 173
5267 5327 175
5268 5266 118
5268 5205 158
5268 5305 160
5269 5257 29
5269 5277 91
5269 5309 100
5269 5310 152
5270 5226 189
5270 5035 522
5270 5283 14
5270 5341 491
5271 5150 280
5271 5272 7
5271 5275 68
5271 5320 169
5272 5271 7
5272 5151 280
5272 5315 204
5272 5323 174
5273 5231 263
5273 5274 249
5273 5311 253
5273 5362 349
5274 5273 249
5275 5124 307
5275 5271 68
5275 5286 88
5276 5248 59
5276 5277 52
5276 5248 174
5277 5269 91
5277 5276 52
5277 5309 164
5278 5063 895
5278 5279 876
5278 5412 595
5279 5278 876
5280 5259 85
5280 5229 130
5280 5301 125
5281 5245 76
5281 5246 72
5281 5298 56
5282 5211 245
5282 5165 355
5282 5297 69
5283 5131 518
5283 5270 14
5283 5346 497
5283 5349 294
5284 5285 55
5285 5284 55
5286 5167 271
5286 5275 88
5286 5291 95
5286 5320 143
5287 5242 148
5287 5163 261
5287 5307 146
5287 5313 100
5288 5253 66
5288 5289 101
5288 5314 89
5289 5288 101
5289 5290 53
5289 5317 104
5290 5255 65
5290 5289 53
5291 5037 534
5291 5286 95
5291 5338 241
5291 5344 208
5292 5241 130
5293 5218 188
5293 5312 131
5293 5315 81
5294 5232 141
5294 5295 283
5294 5302 76
5295 5294 283
5295 5237 137
5295 5300 129
5295 5357 239
5296 5258 97
5296 5366 273
5296 5366 280
5297 5282 69
5297 5302 31
5297 5419 490
5298 5281 56
5298 5324 243
5298 5334 182
5299 5247 174
5299 5266 76
5299 5318 97
5300 5295 129
5300 5257 216
5300 5330 101
5301 5280 125
5302 5297 31
5302 5294 76
5302 5357 406
5303 5304 0
5304 5303 0
5305 5268 160
5305 5242 146
5305 5313 118
5305 5358 220
5306 5174 294
5306 5174 294
5306 5325 81
5306 5326 81
5307 5287 146
5307 5074 494
5307 5316 88
5307 5370 259
5308 5267 173
5309 5269 100
5309 5277 164
5309 5310 65
5310 5269 152
5310 5309 65
5310 5329 71
5311 5273 253
5311 5145 373
5311 5319 131
5311 5356 188
5312 5293 131
5312 5247 176
5312 5337 220
5313 5305 118
5313 5287 100
5313 5378 297
5314 5288 89
5315 5272 204
5315 5293 81
5315 5337 444
5316 5307 88
5317 5289 104
5318 5299 97
5318 5337 84
5318 5358 198
5319 5311 131
5319 5336 168
5319 5348 111
5320 5286 143
5320 5271 169
5320 5323 6
5320 5344 95
5321 5265 395
5321 5260 404
5321 5209 343
5321 5339 127
5321 5391 367
5322 4900 1380
5322 5095 546
5322 5383 590
5322 5507 797
5323 5320 6
5323 5272 174
5323 5345 95
5323 5385 406
5324 5298 243
5325 5306 81
5325 5326 0
5325 5333 8
5326 5325 0
5326 5306 81
5326 5333 8
5326 5340 43
5327 5267 175
5327 5331 28
5327 5395 328
5328 5173 378
5328 5340 40
5328 5380 238
5329 5310 71
5329 5330 75
5329 5347 103
5330 5300 101
5330 5329 75
5330 5352 101
5331 5327 28
5331 5332 15
5331 5342 58
5332 5331 15
5332 5342 40
5332 5342 73
5333 5176 755
5333 5325 8
5333 5326 8
5333 5386 270
5333 5386 270
5334 5298 182
5334 5335 96
5334 5372 188
5335 5245 922
5335 5334 96
5335 5373 177
5336 5319 168
5336 5355 407
5336 5359 124
5337 5312 220
5337 5318 84
5337 5315 444
5338 5291 241
5339 5321 127
5339 5231 353
5339 5362 277
5339 5396 353
5340 5326 43
5340 5328 40
5340 5343 11
5340 5379 194
5341 5270 491
5341 5201 391
5341 5346 16
5341 5366 688
5342 5332 40
5342 5331 58
5342 5332 73
5343 5340 11
5343 5379 184
5344 5291 208
5344 5320 95
5344 5345 6
5344 5406 419
5345 5344 6
5345 5323 95
5345 5450 503
5345 5486 787
5346 5283 497
5346 5341 16
5346 5366 689
5346 5397 276
5347 5329 103
5348 5319 111
5348 5356 164
5348 5359 164
5349 5131 675
5349 5283 294
5349 5388 277
5349 5516 741
5350 5351 96
5350 5394 222
5351 5350 96
5351 5392 224
5352 5330 101
5352 5353 131
5352 5353 131
5352 5354 127
5352 5354 127
5353 5352 131
5353 5352 131
5353 5360 45
5353 5360 46
5354 5352 127
5354 5352 127
5355 5336 407
5355 5219 399
5355 5363 406
5355 5458 471
5356 5311 188
5356 5348 164
5356 5382 146
5357 5302 406
5357 5295 239
5357 5375 141
5357 5390 327
5357 5440 312
5358 5318 198
5358 5305 220
5358 5378 136
5359 5336 124
5359 5348 164
5359 5376 110
5360 5353 45
5360 5353 46
5360 5390 142
5360 5390 142
5361 5261 471
5361 5193 716
5361 5364 8
5361 5451 522
5362 5339 277
5362 5273 349
5362 5377 196
5362 5389 160
5363 5234 408
5363 5355 406
5363 5527 741
5364 5361 8
5364 5365 894
5364 5542 1415
5364 13599 49
5365 5364 894
5365 13591 512
5366 5341 688
5366 5296 273
5366 5296 280
5366 5346 689
5366 5439 293
5366 5441 292
5366 5507 1345
5366 5509 1339
5367 5183 562
5367 5374 52
5367 5402 294
5368 5369 1208
5369 5368 1208
5370 5307 259
5371 5256 432
5371 5374 45
5371 5411 286
5372 5334 188
5372 5373 10
5372 5384 84
5373 5335 177
5373 5372 10
5373 5383 78
5374 5367 52
5374 5371 45
5374 13602 261
5375 5357 141
5375 5419 335
5375 5438 231
5376 5359 110
5377 5362 196
5377 5382 124
5377 5393 395
5378 5358 136
5378 5313 297
5378 5402 154
5379 5343 184
5379 5340 194
5379 5405 119
5379 5405 119
5380 5328 238
5380 5381 214
5380 5387 37
5381 5380 214
5381 5130 687
5381 5406 352
5381 5449 260
5382 5377 124
5382 5356 146
5382 5457 706
5383 5322 590
5383 5373 78
5383 5384 12
5384 5383 12
5384 5372 84
5384 5444 406
5385 5323 406
5385 5417 250
5385 5450 225
5386 5333 270
5386 5333 270
5386 5401 71
5386 5401 71
5386 5403 160
5387 5380 37
5387 5409 84
5387 5423 121
5388 5349 277
5388 5392 111
5388 5493 381
5389 5362 160
5389 5393 25
5389 5424 322
5390 5357 327
5390 5360 142
5390 5360 142
5390 5395 259
5390 5478 307
5390 5478 307
5391 5321 367
5391 5396 131
5391 5489 427
5392 5388 111
5392 5351 224
5392 5491 354
5393 5389 25
5393 5377 395
5393 5445 166
5394 5350 222
5394 5397 109
5394 5482 301
5395 5327 328
5395 5398 165
5395 5390 259
5395 5480 279
5396 5391 131
5396 5339 353
5396 5424 160
5396 5505 436
5397 5394 109
5397 5346 276
5397 5415 232
5397 5497 330
5398 5395 165
5398 5403 227
5398 5408 270
5398 5413 266
5399 5400 775
5400 5399 775
5400 4678 14949
5400 6561 20115
5401 5386 71
5401 5386 71
5401 5404 25
5401 5404 25
5401 5405 17
5401 5405 17
5402 5378 154
5402 5367 294
5402 5411 29
5402 5460 203
5403 5398 227
5403 5386 160
5403 5404 84
5404 5401 25
5404 5401 25
5404 5403 84
5404 5420 38
5404 5420 38
5405 5401 17
5405 5401 17
5405 5379 119
5405 5379 119
5405 5407 3
5405 5407 3
5405 5409 18
5405 5409 18
5406 5381 352
5406 5344 419
5406 5485 369
5407 5405 3
5407 5405 3
5407 5422 44
5407 5422 44
5408 5398 270
5408 5455 132
5409 5405 18
5409 5405 18
5409 5387 84
5409 5418 22
5409 5418 22
5410 5156 977
5410 5115 1220
5410 5412 9
5410 5414 7
5411 5402 29
5411 5371 286
5411 5456 529
5411 5462 198
5412 5410 9
5412 5278 595
5412 5492 509
5413 5398 266
5413 5420 32
5413 5442 76
5414 5157 987
5414 5410 7
5414 5498 513
5415 5397 232
5415 5416 60
5415 5425 231
5416 5415 60
5416 5425 173
5417 5385 250
5417 5435 115
5417 5436 117
5417 5461 384
5417 5470 391
5418 5409 22
5418 5409 22
5418 5423 33
5418 5427 48
5418 5428 27
5418 5428 27
5419 5297 490
5419 5375 335
5419 5453 237
5419 5467 168
5420 5413 32
5420 5404 38
5420 5404 38
5420 5421 8
5420 5426 18
5421 5420 8
5421 5426 10
5421 5442 63
5422 5407 44
5422 5407 44
5422 5430 22
5422 5430 22
5423 5418 33
5423 5387 121
5423 5427 16
5424 5396 160
5424 5389 322
5424 5445 148
5424 5452 120
5425 5416 173
5425 5439 248
5425 5415 231
5426 5421 10
5426 5420 18
5426 5430 19
5426 5430 19
5427 5418 48
5427 5423 16
5427 5449 113
5427 5449 113
5428 5418 27
5428 5418 27
5428 5429 8
5428 5431 18
5429 5428 8
5429 5431 9
5429 5443 98
5430 5426 19
5430 5426 19
5430 5422 22
5430 5422 22
5430 5434 9
5430 5434 9
5430 5448 78
5430 5448 78
5431 5428 18
5431 5429 9
5431 5432 18
5431 5433 18
5432 5431 18
5432 5433 0
5432 5434 8
5433 5432 0
5433 5431 18
5433 5434 8
5433 5446 54
5434 5430 9
5434 5430 9
5434 5432 8
5434 5433 8
5435 5417 115
5435 13605 327
5436 5417 117
5436 13606 327
5437 5438 185
5438 5437 185
5438 5375 231
5438 5440 131
5438 5471 134
5439 5425 248
5439 5366 293
5439 5441 11
5439 5500 285
5440 5438 131
5440 5357 312
5440 5476 137
5441 5439 11
5441 5366 292
5441 5459 276
5441 5502 288
5442 5413 76
5442 5421 63
5442 5472 172
5443 5429 98
5443 5446 163
5443 5454 113
5444 5384 406
5444 5262 790
5444 5447 20
5444 5534 503
5445 5424 148
5445 5393 166
5445 5475 319
5445 5505 764
5446 5433 54
5446 5443 163
5446 5472 184
5447 5444 20
5447 5265 792
5447 5489 405
5447 5536 505
5448 5430 78
5448 5430 78
5448 5473 111
5449 5427 113
5449 5427 113
5449 5381 260
5449 5454 50
5449 5485 217
5450 5345 503
5450 5385 225
5450 5547 749
5450 5691 1984
5451 5361 522
5451 13603 53
5452 5424 120
5453 5419 237
5453 5463 31
5453 5494 282
5454 5443 113
5454 5455 178
5454 5449 50
5454 5488 167
5455 5454 178
5455 5408 132
5456 5411 529
5457 5382 706
5457 5593 648
5458 5355 471
5459 5441 276
5459 5503 370
5459 5523 347
5460 5402 203
5460 5461 46
5460 5464 29
5461 5417 384
5461 5460 46
5461 5466 21
5462 5411 198
5462 5469 17
5463 5453 31
5463 5465 98
5463 5467 193
5463 5499 134
5464 5460 29
5464 5466 10
5464 5469 36
5465 5463 98
5465 5468 94
5465 5501 132
5466 5461 21
5466 5464 10
5466 5477 37
5467 5463 193
5467 5419 168
5467 5468 3
5467 5471 270
5468 5465 94
5468 5467 3
5468 5474 270
5468 5504 131
5469 5464 36
5469 5462 17
5469 5479 57
5470 5417 391
5470 5477 18
5471 5467 270
5471 5438 134
5471 5474 2
5471 5476 139
5472 5442 172
5472 5473 40
5472 5446 184
5472 5487 76
5473 5472 40
5473 5448 111
5474 5468 270
5474 5471 2
5474 5476 139
5474 5506 127
5475 5445 319
5476 5474 139
5476 5471 139
5476 5440 137
5476 5478 276
5476 5478 276
5476 5508 129
5477 5470 18
5477 5466 37
5477 5479 65
5478 5476 276
5478 5476 276
5478 5390 307
5478 5390 307
5478 5480 258
5478 5481 258
5478 5510 129
5478 5510 129
5479 5477 65
5479 5469 57
5479 5555 512
5480 5478 258
5480 5395 279
5480 5481 0
5480 5487 267
5481 5478 258
5481 5480 0
5481 5487 267
5481 5537 264
5482 5394 301
5482 5491 111
5483 5484 1508
5483 13601 1508
5483 13604 85
5484 5483 1508
5484 13601 1508
5485 5449 217
5485 5406 369
5485 5486 5
5485 5488 12
5486 5485 5
5486 5345 787
5486 5490 12
5487 5481 267
5487 5480 267
5487 5472 76
5487 5520 242
5488 5454 167
5488 5485 12
5488 5490 6
5489 5447 405
5489 5391 427
5489 5505 149
5490 5488 6
5490 5486 12
5490 5547 457
5491 5392 354
5491 5482 111
5491 5493 149
5492 5412 509
5492 5498 12
5492 5511 157
5493 5388 381
5493 5491 149
5493 5512 97
5494 5453 282
5494 5496 41
5494 5499 231
5495 5238 936
5495 5238 936
5495 5496 10
5495 5519 130
5495 5519 130
5496 5495 10
5496 5252 892
5496 5494 41
5496 5518 127
5497 5397 330
5497 5500 551
5497 5512 395
5497 5665 975
5498 5414 513
5498 5492 12
5498 5513 167
5498 5684 1344
5499 5494 231
5499 5463 134
5499 5501 99
5499 5522 130
5500 5497 551
5500 5439 285
5500 5502 13
5501 5499 99
5501 5465 132
5501 5504 89
5501 5524 133
5502 5500 13
5502 5441 288
5502 5614 1089
5503 5459 370
5504 5501 89
5504 5468 131
5504 5506 270
5504 5525 133
5505 5489 149
5505 5396 436
5505 5445 764
5505 5626 779
5506 5504 270
5506 5474 127
5506 5508 148
5506 5528 133
5507 5366 1345
5507 5322 797
5507 5509 13
5507 5517 194
5508 5506 148
5508 5476 129
5508 5510 274
5508 5531 139
5509 5366 1339
5509 5507 13
5509 5521 197
5509 5614 756
5510 5508 274
5510 5478 129
5510 5478 129
5510 5535 136
5510 5535 136
5511 5492 157
5512 5493 97
5512 5497 395
5512 5516 126
5513 5498 167
5514 5515 23
5515 5514 23
5516 5349 741
5516 5512 126
5516 5543 596
5517 5507 194
5517 5521 20
5517 5546 393
5518 5496 127
5518 5519 11
5518 5522 263
5518 5558 227
5519 5495 130
5519 5495 130
5519 5518 11
5519 5554 286
5519 5559 227
5519 5559 227
5520 5487 242
5520 5537 120
5520 5622 974
5520 5622 974
5521 5509 197
5521 5517 20
5521 5549 397
5521 5563 250
5522 5518 263
5522 5499 130
5522 5524 102
5522 5539 86
5523 5459 347
5524 5522 102
5524 5501 133
5524 5525 89
5524 5570 259
5525 5524 89
5525 5504 133
5525 5528 270
5525 5572 259
5526 5233 1142
5526 5527 14
5526 5751 1450
5527 5363 741
5527 5526 14
5527 5627 775
5527 5752 1443
5528 5525 270
5528 5506 133
5528 5531 156
5528 5577 264
5529 5530 92
5530 5529 92
5530 5532 11
5530 5538 84
5531 5528 156
5531 5508 139
5531 5535 275
5531 5581 262
5532 5533 89
5532 5530 11
5532 5541 84
5532 5602 365
5533 5532 89
5534 5444 503
5534 5544 182
5534 5548 144
5535 5531 275
5535 5510 136
5535 5510 136
5535 5537 262
5536 5447 505
5536 5551 146
5536 5561 170
5537 5535 262
5537 5481 264
5537 5520 120
5537 5540 25
5538 5530 84
5538 5541 10
5538 5617 618
5539 5522 86
5539 5550 128
5539 5550 136
5540 5537 25
5540 5630 702
5540 5697 1221
5541 5532 84
5541 5538 10
5541 5621 618
5541 5641 645
5542 5364 1415
5543 5516 596
5543 5591 408
5543 5634 648
5544 5545 25
5544 5534 182
5544 5546 274
5544 5557 93
5545 5544 25
5546 5517 393
5546 5544 274
5546 5569 266
5547 5490 457
5547 5450 749
5547 5622 469
5547 5644 736
5548 5534 144
5548 13608 84
5549 5521 397
5549 5573 256
5549 5596 208
5550 5539 128
5550 5539 136
5550 5566 88
5551 5536 146
5551 13609 84
5552 5553 32
5552 13602 686
5553 5552 32
5553 5590 569
5553 13605 569
5554 5519 286
5554 5560 143
5554 5564 52
5555 5479 512
5555 5556 152
5555 13607 152
5555 5675 864
5556 5555 152
5556 13607 152
5556 13606 387
5557 5544 93
5557 5565 63
5557 5568 71
5558 5518 227
5558 5559 10
5558 5599 240
5559 5519 227
5559 5519 227
5559 5558 10
5559 5560 70
5559 5592 152
5559 5592 152
5560 5554 143
5560 5559 70
5560 5595 119
5561 5536 170
5561 5562 20
5561 5565 74
5561 5610 276
5562 5561 20
5563 5521 250
5564 5554 52
5564 5584 91
5564 5595 189
5565 5557 63
5565 5561 74
5565 5579 69
5566 5550 88
5566 5570 97
5566 5600 125
5567 5568 145
5567 13608 163
5568 5567 145
5568 5557 71
5568 5569 3
5568 5571 8
5569 5546 266
5569 5568 3
5569 5571 8
5569 5573 18
5570 5566 97
5570 5524 259
5570 5572 86
5570 5603 125
5571 5569 8
5571 5568 8
5571 5579 59
5572 5570 86
5572 5525 259
5572 5577 279
5572 5604 125
5573 5549 256
5573 5569 18
5573 5574 1
5573 5575 6
5574 5573 1
5574 5575 6
5574 5583 168
5574 5587 61
5575 5574 6
5575 5573 6
5575 5578 24
5576 5215 1380
5576 5601 1108
5576 5735 995
5577 5572 279
5577 5528 264
5577 5581 162
5577 5606 141
5578 5575 24
5578 5585 37
5578 5586 37
5579 5571 59
5579 5565 69
5579 5580 7
5579 5585 18
5580 5579 7
5580 5582 136
5580 5610 302
5581 5577 162
5581 5531 262
5581 5623 229
5582 5580 136
5582 13609 133
5583 5574 168
5583 13611 152
5584 5564 91
5584 5673 671
5584 5678 704
5585 5578 37
5585 5579 18
5585 5586 6
5585 5607 232
5586 5578 37
5586 5585 6
5586 5598 56
5586 5608 139
5587 5574 61
5587 5596 105
5587 5598 70
5588 5589 354
5589 5588 354
5590 5591 137
5590 5553 569
5590 13605 569
5591 5590 137
5591 5543 408
5591 5650 530
5592 5559 152
5592 5559 152
5592 5595 228
5592 5616 300
5592 5616 300
5593 5594 264
5593 5457 648
5593 5627 279
5594 5593 264
5595 5564 189
5595 5560 119
5595 5592 228
5596 5549 208
5596 5587 105
5596 5597 25
5596 5619 197
5597 5596 25
5598 5587 70
5598 5586 56
5598 5609 71
5599 5558 240
5599 5600 75
5599 5612 91
5600 5599 75
5600 5566 125
5600 5603 93
5600 5612 52
5601 5189 1535
5601 5576 1108
5601 5613 884
5601 5668 454
5602 5532 365
5603 5600 93
5603 5570 125
5603 5604 87
5603 5615 108
5604 5603 87
5604 5572 125
5604 5605 146
5604 5629 158
5605 5604 146
5605 5606 217
5605 5636 276
5606 5605 217
5606 5577 141
5606 5623 147
5607 5585 232
5607 5609 236
5607 5628 344
5608 5586 139
5608 13610 110
5609 5598 71
5609 5607 236
5609 5611 10
5609 5625 262
5610 5580 302
5610 5561 276
5610 5626 272
5611 5609 10
5612 5599 91
5612 5600 52
5612 5615 107
5613 5601 884
5614 5502 1089
5614 5509 756
5614 5648 558
5614 5719 776
5615 5612 107
5615 5603 108
5615 5616 11
5615 5636 272
5616 5592 300
5616 5592 300
5616 5615 11
5616 5640 185
5616 5653 430
5616 5653 430
5617 5538 618
5617 5618 1339
5617 5621 11
5617 5685 631
5618 5617 1339
5619 5596 197
5619 5620 130
5619 5637 211
5620 5619 130
5620 13611 122
5621 5541 618
5621 5617 11
5621 5635 333
5621 5690 631
5622 5520 974
5622 5520 974
5622 5547 469
5622 5667 338
5622 5667 338
5623 5606 147
5623 5581 229
5623 5630 31
5624 5625 133
5624 13610 158
5625 5624 133
5625 5609 262
5625 5638 218
5626 5610 272
5626 5505 779
5626 5628 17
5626 5631 78
5627 5593 279
5627 5527 775
5628 5607 344
5628 5626 17
5628 5633 149
5628 5666 330
5629 5604 158
5630 5623 31
5630 5540 702
5630 5652 293
5630 5696 564
5631 5626 78
5631 5632 264
5631 5676 827
5632 5631 264
5632 13613 150
5633 5628 149
5633 5655 251
5633 5671 640
5634 5543 648
5635 5621 333
5635 5645 140
5635 5651 105
5636 5615 272
5636 5605 276
5636 5652 162
5637 5619 211
5637 13619 796
5638 5625 218
5638 13618 731
5639 5033 2197
5639 5116 2395
5639 5894 1862
5640 5616 185
5640 5679 335
5640 5682 306
5641 5541 645
5641 5654 74
5641 5684 1082
5642 5643 356
5643 5642 356
5644 5547 736
5644 5694 585
5644 5701 362
5645 5635 140
5645 5651 100
5645 5654 83
5646 5647 7
5647 5646 7
5648 5614 558
5648 5649 320
5648 5674 265
5648 5683 588
5649 5648 320
5650 5591 530
5650 5681 241
5650 5712 511
5651 5645 100
5651 5635 105
5651 5656 109
5651 5670 92
5652 5636 162
5652 5630 293
5652 5653 11
5652 5696 576
5653 5616 430
5653 5616 430
5653 5652 11
5653 5682 256
5653 5706 615
5653 5706 615
5654 5641 74
5654 5645 83
5654 5669 102
5654 5718 408
5655 5633 251
5655 5721 408
5656 5651 109
5657 5658 496
5658 5657 496
5659 5660 35
5659 13617 13
5660 5659 35
5661 5662 10
5662 5661 10
5663 5664 5
5664 5663 5
5665 5497 975
5665 5707 608
5665 5719 1354
5665 5737 681
5666 5628 330
5666 5695 888
5666 5731 544
5667 5622 338
5667 5622 338
5667 5694 211
5667 5694 211
5667 5787 837
5668 5601 454
5669 5654 102
5670 5651 92
5671 5672 237
5671 5633 640
5671 5756 2614
5672 5671 237
5672 5705 250
5673 5584 671
5673 5678 404
5673 5708 965
5673 5723 310
5674 5648 265
5674 5695 291
5674 5698 293
5675 5555 864
5675 5715 333
5675 5717 337
5676 5631 827
5676 5677 227
5676 5752 2485
5677 5676 227
5677 13613 278
5678 5673 404
5678 5584 704
5678 5680 233
5678 5764 587
5679 5640 335
5679 5680 11
5679 5709 286
5680 5678 233
5680 5679 11
5680 5710 253
5681 5650 241
5681 5714 263
5682 5640 306
5682 5653 256
5682 5711 272
5682 5824 1751
5683 5648 588
5684 5498 1344
5684 5641 1082
5684 5808 1206
5685 5617 631
5685 5690 9
5685 5736 597
5686 5687 76
5687 5686 76
5688 5689 32
5689 5688 32
5690 5621 631
5690 5685 9
5690 5718 851
5690 5736 597
5691 5450 1984
5691 5732 322
5691 5777 1047
5692 5693 27
5693 5692 27
5694 5667 211
5694 5667 211
5694 5644 585
5694 5746 384
5694 5746 384
5695 5674 291
5695 5666 888
5695 5698 17
5695 5731 453
5696 5652 576
5696 5630 564
5696 5706 42
5697 5540 1221
5698 5674 293
5698 5695 17
5698 5733 452
5699 5700 2657
5699 5953 111
5700 5699 2657
5700 4945 35
5700 4944 38
5701 5644 362
5701 5702 355
5701 5702 355
5701 5746 565
5701 5746 565
5701 5777 671
5702 5701 355
5702 5701 355
5703 5099 2390
5703 5954 109
5704 5705 127
5704 13613 225
5705 5704 127
5705 5672 250
5705 5772 455
5706 5653 615
5706 5653 615
5706 5696 42
5706 5812 1008
5707 5665 608
5707 5716 95
5707 5819 2017
5708 5673 965
5709 5679 286
5709 5711 9
5709 5791 759
5710 5680 253
5711 5709 9
5711 5682 272
5711 5713 6
5712 5650 511
5712 5714 15
5712 5716 35
5713 5711 6
5713 5758 362
5713 5798 887
5714 5681 263
5714 5712 15
5714 5715 9
5714 5728 69
5715 5675 333
5715 5714 9
5715 5717 11
5715 5729 69
5716 5712 35
5716 5707 95
5716 5725 32
5717 5675 337
5717 5715 11
5717 5720 21
5718 5654 408
5718 5690 851
5718 5781 445
5718 5808 2180
5719 5665 1354
5719 5614 776
5719 5754 656
5719 5816 1482
5720 5717 21
5720 5724 11
5720 5732 212
5721 5722 206
5721 5655 408
5721 5773 337
5722 5721 206
5722 13613 292
5723 5673 310
5723 5764 391
5723 5792 524
5724 5720 11
5724 5730 38
5724 5734 213
5725 5716 32
5725 5728 8
5725 5762 317
5726 5727 9
5727 5726 9
5728 5714 69
5728 5725 8
5728 5729 9
5728 5747 239
5729 5715 69
5729 5728 9
5729 5730 7
5729 5750 241
5730 5724 38
5730 5729 7
5730 5753 248
5731 5695 453
5731 5666 544
5731 5733 9
5732 5691 322
5732 5720 212
5732 5734 12
5732 5810 1017
5733 5698 452
5733 5731 9
5733 5872 1095
5734 5732 12
5734 5724 213
5734 5763 181
5734 5813 1012
5735 5576 995
5735 5740 1908
5735 5831 695
5736 5690 597
5736 5685 597
5736 5879 2694
5737 5665 681
5738 5739 634
5739 5738 634
5740 5735 1908
5740 5139 2686
5740 5745 21
5741 5742 257
5741 5743 258
5741 5782 257
5742 5741 257
5742 5778 509
5742 5780 257
5743 5741 258
5743 5744 44
5743 5759 72
5744 5743 44
5744 5745 10
5744 5748 29
5745 5740 21
5745 5744 10
5745 5749 100
5746 5694 384
5746 5694 384
5746 5701 565
5746 5701 565
5746 5779 414
5746 5779 414
5746 5799 443
5746 5799 443
5747 5728 239
5747 5762 76
5748 5744 29
5748 5749 87
5748 5760 43
5749 5745 100
5749 5748 87
5749 5761 43
5750 5729 241
5750 5767 99
5751 5526 1450
5751 5752 13
5751 5755 8
5751 5864 2389
5752 5527 1443
5752 5751 13
5752 5756 8
5752 5676 2485
5753 5730 248
5753 5757 54
5753 5767 93
5754 5719 656
5755 5751 8
5755 5756 13
5755 5864 2378
5755 5978 1582
5756 5752 8
5756 5755 13
5756 5671 2614
5756 5979 1586
5757 5753 54
5757 5763 278
5757 5800 362
5758 5713 362
5759 5743 72
5759 5760 44
5759 5765 37
5760 5748 43
5760 5759 44
5760 5761 84
5760 5766 37
5761 5749 43
5761 5760 84
5761 5771 77
5762 5747 76
5762 5725 317
5762 5788 260
5763 5734 181
5763 5757 278
5763 5847 794
5764 5723 391
5764 5678 587
5764 5791 220
5765 5759 37
5765 5766 44
5765 5768 39
5766 5760 37
5766 5765 44
5766 5769 40
5767 5753 93
5767 5750 99
5767 5789 234
5768 5765 39
5768 5769 44
5768 5774 51
5769 5766 40
5769 5768 44
5769 5770 15
5770 5769 15
5770 5771 65
5770 5775 50
5771 5761 77
5771 5770 65
5771 5776 50
5772 5705 455
5772 5925 235
5773 5721 337
5773 5924 237
5774 5768 51
5774 5775 59
5774 5783 59
5775 5770 50
5775 5774 59
5775 5776 62
5775 5784 59
5776 5771 50
5776 5775 62
5776 5786 59
5777 5701 671
5777 5691 1047
5777 5810 355
5777 5827 647
5778 5742 509
5778 5780 257
5778 5809 257
5779 5746 414
5779 5746 414
5779 5787 75
5779 5787 75
5779 5799 578
5780 5742 257
5780 5778 257
5780 5782 258
5780 5811 257
5781 5718 445
5782 5741 257
5782 5780 258
5782 5783 258
5782 5815 256
5783 5774 59
5783 5782 258
5783 5784 59
5783 5794 122
5784 5775 59
5784 5783 59
5784 5785 8
5785 5784 8
5785 5786 51
5785 5790 42
5786 5776 59
5786 5785 51
5786 5797 124
5787 5667 837
5787 5779 75
5787 5779 75
5787 5793 139
5787 5793 139
5787 5825 357
5788 5762 260
5788 5789 12
5788 5802 253
5789 5767 234
5789 5788 12
5789 5800 251
5789 5803 252
5790 5785 42
5790 5795 102
5790 5796 80
5791 5764 220
5791 5709 759
5791 5807 243
5792 5723 524
5792 5801 110
5792 5807 276
5792 5842 506
5793 5787 139
5793 5787 139
5793 5812 397
5793 5812 397
5793 5865 585
5794 5783 122
5794 5795 43
5794 5818 134
5795 5790 102
5795 5794 43
5795 5796 24
5796 5790 80
5796 5795 24
5796 5797 31
5797 5786 124
5797 5796 31
5797 5818 201
5798 5713 887
5798 5821 188
5798 5830 260
5799 5779 578
5799 5746 443
5799 5746 443
5799 5827 219
5799 5827 219
5800 5757 362
5800 5789 251
5800 5846 356
5801 5792 110
5801 5814 227
5801 5830 222
5802 5788 253
5802 5803 13
5802 5804 17
5803 5789 252
5803 5802 13
5803 5806 17
5803 5846 482
5804 5802 17
5804 5805 661
5804 5806 13
5804 5851 541
5805 5804 661
5806 5803 17
5806 5804 13
5806 5850 526
5806 5854 539
5807 5792 276
5807 5791 243
5807 5814 52
5808 5684 1206
5808 5718 2180
5808 5826 180
5809 5778 257
5809 5811 257
5809 5839 507
5810 5777 355
5810 5732 1017
5810 5813 12
5810 5861 696
5811 5780 257
5811 5809 257
5811 5815 258
5811 5839 257
5812 5706 1008
5812 5793 397
5812 5793 397
5812 5824 73
5813 5810 12
5813 5734 1012
5813 5862 697
5813 5870 603
5814 5801 227
5814 5807 52
5814 5820 22
5815 5782 256
5815 5811 258
5815 5817 97
5815 5828 81
5816 5719 1482
5817 5815 97
5817 5818 160
5817 5828 171
5818 5794 134
5818 5817 160
5818 5797 201
5819 5707 2017
5820 5814 22
5820 13659 343
5821 5798 188
5821 13658 188
5822 5823 14
5823 5822 14
5824 5682 1751
5824 5812 73
5824 5865 419
5825 5787 357
5826 5808 180
5826 5864 1272
5826 6083 2559
5827 5799 219
5827 5799 219
5827 5777 647
5827 5834 220
5827 5861 382
5827 5861 382
5828 5815 81
5828 5817 171
5828 5839 423
5829 4678 10854
5829 6082 4427
5830 5801 222
5830 5798 260
5830 5842 175
5831 5735 695
5832 5833 20
5833 5832 20
5834 5827 220
5835 5836 3906
5835 5879 457
5836 5835 3906
5836 5867 41
5837 5838 181
5837 13663 123
5838 5837 181
5839 5811 257
5839 5809 507
5839 5828 423
5840 5841 119
5840 5857 245
5840 5914 415
5841 5840 119
5841 5873 286
5841 5878 241
5842 5792 506
5842 5843 49
5842 5830 175
5842 5963 884
5843 5842 49
5843 13658 291
5844 5845 164
5845 5844 164
5845 13664 119
5846 5800 356
5846 5803 482
5846 5847 46
5847 5763 794
5847 5846 46
5847 5850 23
5847 5866 823
5848 5849 272
5849 5848 272
5849 5858 221
5849 5882 246
5850 5847 23
5850 5806 526
5850 5870 837
5850 5913 477
5851 5804 541
5851 5854 13
5851 5869 235
5852 5853 271
5853 5852 271
5853 5876 249
5853 5887 427
5854 5806 539
5854 5851 13
5854 5863 152
5854 5913 623
5855 5856 244
5855 5885 247
5855 5888 215
5856 5855 244
5857 5840 245
5857 5871 587
5857 5910 347
5858 5849 221
5858 13663 140
5859 5860 53
5860 5859 53
5860 5928 606
5861 5827 382
5861 5827 382
5861 5810 696
5861 5862 11
5861 5862 11
5861 5886 166
5862 5861 11
5862 5861 11
5862 5813 697
5862 5886 166
5862 5992 1067
5862 5992 1067
5863 5854 152
5863 5880 82
5863 5922 494
5864 5755 2378
5864 5751 2389
5864 5826 1272
5864 5978 2140
5865 5824 419
5865 5793 585
5865 5912 240
5866 5847 823
5867 5868 5471
5867 5836 41
5868 5867 5471
5868 5895 292
5868 5998 1721
5869 5851 235
5869 5881 40
5869 5884 41
5870 5813 603
5870 5850 837
5870 5903 205
5871 5857 587
5871 5872 8
5871 5935 283
5872 5871 8
5872 5733 1095
5872 5874 9
5873 5841 286
5873 13667 494
5873 13680 494
5874 5872 9
5874 5936 287
5874 5994 2933
5875 5876 175
5876 5875 175
5876 5853 249
5876 5887 183
5876 5909 197
5877 5878 70
5877 13657 525
5878 5877 70
5878 5841 241
5878 5891 53
5879 5736 2694
5879 5835 457
5879 6087 2368
5880 5863 82
5880 5900 156
5880 5902 139
5881 5869 40
5881 5884 4
5881 5890 72
5881 5896 349
5882 5849 246
5882 5883 157
5882 5893 61
5883 5882 157
5883 13670 115
5884 5869 41
5884 5881 4
5884 5920 368
5885 5855 247
5885 5889 130
5885 5899 83
5886 5861 166
5886 5862 166
5886 5912 1062
5887 5876 183
5887 5853 427
5887 5891 50
5887 5921 203
5888 5855 215
5888 13679 313
5889 5885 130
5889 13674 185
5890 5881 72
5890 5892 20
5890 5907 270
5891 5887 50
5891 5878 53
5891 5962 506
5891 13681 506
5892 5890 20
5892 13672 344
5893 5882 61
5893 5898 165
5893 5918 228
5894 5639 1862
5894 6009 4611
5894 6071 1911
5895 5868 292
5895 5904 323
5896 5881 349
5896 5897 4
5896 5907 156
5896 5911 210
5897 5896 4
5897 5902 265
5898 5893 165
5898 13671 133
5899 5885 83
5899 5917 163
5899 5942 349
5900 5880 156
5900 5901 17
5900 5916 156
5900 5932 798
5901 5900 17
5902 5880 139
5902 5897 265
5902 13677 145
5903 5870 205
5903 5905 13
5903 5906 23
5904 5895 323
5905 5903 13
5905 5938 184
5905 5956 357
5906 5903 23
5906 5940 178
5906 5959 351
5907 5896 156
5907 5908 86
5907 5890 270
5907 5911 31
5908 5907 86
5908 13676 259
5909 5876 197
5909 5921 187
5909 5927 278
5909 5950 191
5910 5857 347
5910 5914 199
5910 5935 649
5910 5972 438
5911 5896 210
5911 5907 31
5911 5915 165
5911 5939 174
5912 5865 240
5912 5886 1062
5912 5929 368
5912 6023 986
5913 5850 477
5913 5854 623
5913 5928 61
5914 5840 415
5914 5910 199
5914 5973 432
5915 5911 165
5915 5927 172
5915 5944 147
5916 5900 156
5916 13673 340
5917 5899 163
5917 13675 158
5918 5893 228
5918 5919 221
5918 6049 1789
5919 5918 221
5919 13664 152
5920 5884 368
5920 5922 13
5920 5939 153
5921 5909 187
5921 5887 203
5921 5950 372
5922 5863 494
5922 5920 13
5922 5930 27
5922 5937 83
5923 5924 812
5923 5975 49
5924 5923 812
5924 5773 237
5925 5926 819
5925 5772 235
5926 5925 819
5926 5976 51
5927 5915 172
5927 5909 278
5927 5941 90
5928 5913 61
5928 5860 606
5928 5932 11
5928 5996 893
5929 5912 368
5929 6006 1433
5929 6018 902
5930 5931 154
5930 5922 27
5930 5937 90
5930 5949 912
5931 5930 154
5931 13678 247
5932 5928 11
5932 5900 798
5932 5949 132
5932 6002 912
5933 5934 387
5934 5933 387
5935 5910 649
5935 5871 283
5935 5936 18
5935 5980 422
5936 5935 18
5936 5874 287
5936 5951 875
5936 5981 418
5937 5930 90
5937 5922 83
5937 5968 465
5938 5905 184
5938 13683 234
5939 5920 153
5939 5911 174
5939 5944 21
5940 5906 178
5940 13684 269
5941 5927 90
5941 5950 174
5941 5966 391
5942 5899 349
5942 5943 395
5942 5958 199
5943 5942 395
5944 5939 21
5944 5915 147
5944 5967 375
5945 5946 52
5945 13675 243
5946 5945 52
5947 5948 57
5948 5947 57
5948 13679 24
5949 5932 132
5949 5930 912
5949 6044 1318
5950 5941 174
5950 5909 191
5950 5921 372
5951 5936 875
5952 5953 1623
5952 6027 193
5953 5952 1623
5953 5699 111
5954 5955 1626
5954 5703 109
5955 5954 1626
5955 6028 190
5956 5905 357
5956 5957 240
5956 5959 51
5956 5964 90
5957 5956 240
5958 5942 199
5959 5906 351
5959 5956 51
5959 5992 705
5959 5999 468
5960 5961 14
5961 5960 14
5962 5891 506
5962 13681 506
5962 5984 179
5962 5985 184
5963 5842 884
5964 5956 90
5964 5965 172
5964 5996 371
5965 5964 172
5966 5941 391
5967 5944 375
5967 13687 41
5968 5937 465
5968 13688 43
5969 5970 387
5970 5969 387
5970 5971 93
5970 5986 829
5970 6060 1187
5971 5970 93
5972 5910 438
5972 5973 201
5972 5980 736
5972 5993 205
5973 5914 432
5973 5972 201
5973 6024 585
5974 5975 349
5974 5975 350
5974 6010 391
5975 5974 349
5975 5974 350
5975 5923 49
5976 5977 345
5976 5977 351
5976 5926 51
5977 5976 345
5977 5976 351
5977 6011 396
5978 5755 1582
5978 5864 2140
5978 5979 20
5978 6356 3382
5979 5756 1586
5979 5978 20
5979 5982 285
5979 6068 1213
5980 5972 736
5980 5935 422
5980 5981 19
5981 5980 19
5981 5936 418
5981 6010 1109
5982 5979 285
5983 5984 131
5983 13680 293
5983 13689 293
5984 5983 131
5984 5962 179
5984 5989 193
5984 6003 212
5985 5962 184
5985 13704 235
5986 5970 829
5986 6034 1035
5986 6062 1089
5987 5988 386
5987 5990 144
5987 6035 634
5988 5987 386
5989 5984 193
5989 13691 110
5989 13696 110
5990 5987 144
5990 5991 169
5990 6039 736
5991 5990 169
5992 5862 1067
5992 5862 1067
5992 5959 705
5992 6025 457
5992 6025 457
5992 6036 1407
5993 5972 205
5994 5874 2933
5994 5995 480
5994 6017 451
5995 5994 480
5996 5964 371
5996 5928 893
5996 5997 23
5997 5996 23
5997 5999 44
5997 6002 48
5998 5868 1721
5998 6053 1850
5998 6419 3943
5999 5959 468
5999 5997 44
5999 6007 72
5999 6014 361
6000 5117 4547
6000 6079 41
6001 5104 4588
6001 6076 38
6002 5997 48
6002 5932 912
6002 6007 47
6002 6033 642
6003 5984 212
6003 6008 150
6003 6012 135
6004 6005 539
6005 6004 539
6006 5929 1433
6007 5999 72
6007 6002 47
6007 6038 675
6007 6014 1110
6008 6003 150
6008 6013 209
6008 6022 209
6008 13700 209
6009 5894 4611
6010 5981 1109
6010 5974 391
6010 6011 18
6010 6172 1767
6011 6010 18
6011 5977 396
6011 6040 1539
6011 6194 1936
6012 6003 135
6012 6013 195
6012 6015 22
6013 6012 195
6013 6008 209
6013 6022 209
6013 13700 209
6014 5999 361
6014 6025 302
6014 6007 1110
6015 6016 207
6015 6012 22
6015 6032 212
6015 13741 212
6016 6015 207
6016 13695 105
6017 5994 451
6017 6040 747
6017 6063 938
6018 6019 966
6018 5929 902
6018 6023 636
6019 6018 966
6020 6021 157
6020 6022 143
6020 6114 1263
6021 6020 157
6021 13695 311
6022 6020 143
6022 6008 209
6022 6013 209
6022 13700 209
6023 5912 986
6023 6018 636
6023 6036 409
6024 5973 585
6024 6031 123
6024 6073 2248
6025 5992 457
6025 5992 457
6025 6014 302
6025 6070 1296
6025 6086 1006
6025 6086 1006
6026 6027 587
6026 6101 455
6027 6026 587
6027 5952 193
6028 6029 596
6028 5955 190
6029 6028 596
6029 6102 450
6030 6031 297
6030 13704 14
6031 6030 297
6031 6024 123
6031 6037 182
6032 6015 212
6032 13741 212
6032 6035 452
6032 6130 1228
6033 6002 642
6033 6044 809
6033 6052 318
6034 5986 1035
6034 6065 471
6034 6115 1879
6035 5987 634
6035 6032 452
6035 6039 218
6036 6023 409
6036 5992 1407
6036 6070 683
6037 6031 182
6037 6064 871
6037 6113 1000
6038 6007 675
6038 6041 239
6038 6067 433
6039 5990 736
6039 6035 218
6039 6044 327
6040 6011 1539
6040 6017 747
6040 6048 143
6040 6063 1660
6041 6038 239
6042 6043 668
6043 6042 668
6044 5949 1318
6044 6039 327
6044 6045 6
6044 6033 809
6045 6044 6
6045 6072 379
6045 6130 1251
6046 6047 21
6047 6046 21
6048 6040 143
6049 5918 1789
6050 6051 80
6051 6050 80
6052 6033 318
6052 6056 289
6052 6066 198
6053 5998 1850
6054 6055 11
6055 6054 11
6056 6052 289
6056 6059 124
6056 6069 189
6057 6058 35
6058 6057 35
6059 6056 124
6060 5970 1187
6060 6061 774
6060 6062 750
6060 6106 496
6061 6060 774
6062 5986 1089
6062 6060 750
6062 6065 849
6062 6108 500
6063 6017 938
6063 6068 497
6063 6040 1660
6064 6037 871
6065 6034 471
6065 6062 849
6065 6112 504
6066 6052 198
6066 6067 55
6066 6069 174
6066 6085 232
6067 6038 433
6067 6066 55
6067 6110 500
6068 6063 497
6068 5979 1213
6068 6357 2182
6069 6066 174
6069 6056 189
6069 6088 330
6070 6036 683
6070 6025 1296
6070 6095 310
6071 5894 1911
6071 6301 381
6072 6045 379
6072 6105 349
6072 6107 631
6073 6024 2248
6074 6075 195
6075 6074 195
6076 6077 1006
6076 6001 38
6077 6076 1006
6077 6161 150
6078 6079 1005
6078 6160 150
6079 6078 1005
6079 6000 41
6080 6081 35
6081 6080 35
6082 5829 4427
6082 6169 5829
6082 6606 4489
6083 5826 2559
6083 6123 656
6083 6129 434
6084 6085 64
6084 13745 675
6085 6084 64
6085 6066 232
6085 6098 158
6085 6117 363
6086 6025 1006
6086 6025 1006
6087 5879 2368
6087 6417 3011
6088 6069 330
6088 6089 19
6088 6105 245
6089 6088 19
6089 6090 63
6089 6091 71
6090 6089 63
6091 6089 71
6091 6099 61
6091 6111 190
6092 6093 239
6093 6092 239
6094 6095 120
6094 13749 501
6095 6094 120
6095 6070 310
6095 6104 43
6095 6116 194
6096 6097 217
6096 6110 134
6097 6096 217
6097 13746 662
6098 6085 158
6098 6117 206
6099 6091 61
6099 6109 201
6099 6118 211
6100 6101 555
6100 6164 24
6101 6100 555
6101 6026 455
6102 6103 555
6102 6029 450
6103 6102 555
6103 6165 23
6104 6095 43
6104 13750 424
6105 6088 245
6105 6072 349
6105 6109 67
6105 6128 330
6106 6060 496
6106 6108 748
6106 6179 501
6107 6072 631
6107 6140 249
6107 6142 400
6108 6062 500
6108 6106 748
6108 6112 869
6108 6182 502
6109 6099 201
6109 6105 67
6109 6143 240
6110 6067 500
6110 6096 134
6110 6389 1689
6111 6091 190
6112 6065 504
6112 6108 869
6112 6115 1496
6112 6188 500
6113 6037 1000
6113 6189 494
6114 6020 1263
6114 6187 486
6115 6034 1879
6115 6112 1496
6115 6185 447
6116 6095 194
6116 6131 76
6117 6085 363
6117 6098 206
6117 6122 19
6118 6119 212
6118 6099 211
6118 6143 289
6118 6150 250
6119 6118 212
6119 6141 212
6120 6121 786
6121 6120 786
6121 6148 256
6121 6154 298
6122 6117 19
6122 6141 334
6122 6200 497
6123 6083 656
6123 6139 181
6123 6139 397
6124 6125 274
6124 6155 293
6124 6157 295
6125 6124 274
6126 6127 27
6126 6131 59
6126 6137 76
6127 6126 27
6127 13752 362
6128 6105 330
6128 6140 162
6128 6149 167
6129 6083 434
6129 6136 21
6129 6138 64
6130 6045 1251
6130 6032 1228
6130 6142 128
6130 6142 128
6130 6147 210
6131 6126 59
6131 6116 76
6131 6132 1
6131 6137 39
6132 6131 1
6132 6135 29
6133 6134 69
6133 6136 49
6133 6139 151
6133 6156 208
6134 6133 69
6135 6132 29
6135 13754 530
6136 6129 21
6136 6133 49
6136 6153 177
6137 6126 76
6137 6131 39
6137 6144 63
6138 6129 64
6138 6153 178
6138 6377 2879
6139 6133 151
6139 6123 181
6139 6123 397
6140 6128 162
6140 6107 249
6140 6151 107
6140 6168 293
6141 6122 334
6141 6119 212
6141 6150 154
6142 6107 400
6142 6130 128
6142 6130 128
6142 6167 236
6142 6168 199
6142 6168 199
6143 6118 289
6143 6109 240
6143 6149 256
6143 6181 240
6144 6137 63
6144 6291 1326
6144 6291 1326
6144 6311 1125
6145 6146 348
6145 6152 162
6145 6158 232
6146 6145 348
6147 6130 210
6147 6167 115
6147 6187 632
6148 6121 256
6148 6256 397
6149 6143 256
6149 6128 167
6149 6151 156
6149 6190 250
6150 6141 154
6150 6118 250
6150 6181 352
6150 6216 411
6151 6149 156
6151 6140 107
6151 6195 242
6152 6145 162
6152 6198 275
6152 6273 1131
6153 6138 178
6153 6136 177
6153 6156 47
6154 6121 298
6154 6282 332
6155 6124 293
6155 6210 331
6156 6153 47
6156 6133 208
6156 6449 3691
6157 6124 295
6157 13757 127
6158 6145 232
6158 6171 57
6158 6178 174
6159 6160 578
6159 6426 49
6160 6159 578
6160 6078 150
6161 6162 580
6161 6077 150
6162 6161 580
6162 6428 48
6163 6164 457
6163 6326 30
6164 6163 457
6164 6100 24
6165 6166 457
6165 6103 23
6166 6165 457
6166 6323 30
6167 6142 236
6167 6147 115
6167 6191 174
6167 6207 488
6168 6140 293
6168 6142 199
6168 6142 199
6168 6177 123
6168 6193 180
6168 6193 180
6169 6082 5829
6169 6170 568
6169 6175 917
6170 6169 568
6170 6176 40
6171 6158 57
6171 6173 39
6171 6186 201
6172 6010 1767
6172 6213 311
6172 6221 688
6173 6174 60
6173 6171 39
6173 6186 125
6174 6173 60
6175 6169 917
6175 6176 1193
6175 6316 1913
6176 6175 1193
6176 6170 40
6177 6168 123
6177 6191 164
6177 6192 104
6177 6192 104
6178 6158 174
6178 6199 148
6178 6202 154
6179 6106 501
6179 6180 1133
6179 6182 745
6179 6602 3373
6180 6179 1133
6181 6150 352
6181 6143 240
6181 6190 224
6181 6232 299
6182 6108 502
6182 6179 745
6182 6188 890
6182 6603 3372
6183 13751 1293
6183 13753 1293
6184 6185 1131
6185 6184 1131
6185 6115 447
6185 6188 1528
6185 6514 2216
6186 6173 125
6186 6171 201
6186 6196 67
6187 6147 632
6187 6114 486
6187 6189 16
6187 6223 217
6188 6112 500
6188 6182 890
6188 6185 1528
6188 6604 3379
6188 6605 3378
6189 6187 16
6189 6113 494
6189 6206 427
6189 6225 215
6190 6181 224
6190 6149 250
6190 6195 181
6190 6241 278
6191 6177 164
6191 6167 174
6191 6205 196
6191 6259 340
6192 6177 104
6192 6177 104
6192 6193 129
6192 6205 108
6192 6205 108
6193 6168 180
6193 6168 180
6193 6192 129
6193 6195 234
6193 6218 179
6193 6218 179
6194 6011 1936
6194 6214 135
6194 6217 253
6195 6190 181
6195 6151 242
6195 6193 234
6195 6258 316
6196 6186 67
6196 6197 144
6196 6203 85
6197 6196 144
6198 6152 275
6198 6202 114
6198 6273 442
6199 6178 148
6199 6201 18
6199 6203 120
6200 6122 497
6200 6216 437
6200 6362 867
6201 6199 18
6201 6204 115
6201 6215 98
6202 6178 154
6202 6198 114
6202 6208 75
6203 6196 85
6203 6199 120
6203 6204 16
6204 6203 16
6204 6201 115
6204 6228 102
6205 6192 108
6205 6192 108
6205 6191 196
6205 6218 115
6205 6218 115
6206 6189 427
6206 6274 894
6206 6298 487
6207 6167 488
6207 6223 261
6207 6264 226
6208 6202 75
6208 6215 114
6208 6249 134
6209 6210 68
6210 6209 68
6210 6155 331
6211 6212 64
6212 6211 64
6212 13757 196
6213 6172 311
6213 6234 43
6214 6194 135
6214 6238 52
6215 6201 98
6215 6208 114
6215 6237 94
6216 6200 437
6216 6150 411
6216 6232 365
6217 6194 253
6217 6222 51
6218 6193 179
6218 6193 179
6218 6205 115
6218 6205 115
6218 6246 128
6218 6246 128
6218 6258 206
6218 6258 206
6219 6220 589
6219 6236 44
6220 6219 589
6220 6222 50
6221 6172 688
6221 6224 32
6221 6240 160
6222 6220 50
6222 6217 51
6222 6229 92
6223 6207 261
6223 6187 217
6223 6225 15
6223 6267 174
6224 6221 32
6224 6231 138
6225 6223 15
6225 6189 215
6225 6268 171
6226 6227 18
6227 6226 18
6228 6204 102
6228 6237 126
6228 6266 195
6229 6222 92
6229 6230 1092
6229 6231 21
6230 6229 1092
6231 6224 138
6231 6229 21
6231 6274 208
6232 6216 365
6232 6181 299
6232 6241 169
6232 6332 471
6233 6234 52
6233 6342 50
6234 6233 52
6234 6213 43
6235 6236 54
6235 6342 48
6236 6235 54
6236 6219 44
6237 6228 126
6237 6215 94
6237 6249 118
6237 6255 64
6238 6239 50
6238 6214 52
6239 6238 50
6239 6261 50
6240 6221 160
6240 6263 58
6241 6232 169
6241 6190 278
6241 6288 287
6242 6243 39
6243 6242 39
6244 6245 26
6245 6244 26
6246 6218 128
6246 6218 128
6246 6259 168
6246 6259 168
6246 6275 197
6247 6248 617
6248 6247 617
6248 6337 462
6248 6337 462
6249 6237 118
6249 6208 134
6249 6254 31
6250 6251 4
6250 6252 5
6250 6253 23
6251 6250 4
6252 6250 5
6253 6250 23
6254 6249 31
6254 6269 76
6255 6237 64
6255 6266 93
6255 6272 130
6256 6257 377
6256 6148 397
6257 6256 377
6257 13767 237
6258 6195 316
6258 6218 206
6258 6218 206
6258 6275 192
6258 6288 341
6258 6288 341
6259 6246 168
6259 6246 168
6259 6191 340
6259 6260 270
6259 6260 270
6259 6289 186
6260 6259 270
6260 6259 270
6260 6264 176
6260 6264 176
6260 6304 478
6261 6262 66
6261 6239 50
6262 6261 66
6262 6263 67
6262 6339 389
6263 6262 67
6263 6240 58
6264 6260 176
6264 6260 176
6264 6207 226
6264 6265 97
6264 6265 97
6265 6264 97
6265 6264 97
6265 6267 170
6265 6267 170
6265 6304 267
6266 6228 195
6266 6255 93
6266 6278 113
6267 6265 170
6267 6265 170
6267 6223 174
6267 6268 14
6267 6268 14
6267 6394 756
6268 6267 14
6268 6267 14
6268 6225 171
6268 6328 329
6269 6254 76
6269 6272 36
6269 6276 65
6270 6271 82
6270 6277 72
6270 6287 151
6271 6270 82
6272 6255 130
6272 6269 36
6272 6278 109
6273 6198 442
6273 6152 1131
6273 6285 196
6273 6292 155
6274 6206 894
6274 6231 208
6274 6286 173
6275 6258 192
6275 6246 197
6275 6289 281
6275 6327 315
6276 6269 65
6276 6279 36
6276 6290 135
6277 6270 72
6278 6266 113
6278 6272 109
6278 6290 93
6279 6276 36
6279 6285 133
6279 6296 141
6280 6281 81
6280 6292 121
6280 6309 143
6280 6309 143
6281 6280 81
6281 6305 221
6281 6309 215
6282 6283 495
6282 6154 332
6283 6282 495
6283 6284 512
6283 6293 65
6284 6283 512
6284 13762 203
6285 6279 133
6285 6273 196
6285 6295 67
6286 6274 173
6286 6330 475
6286 6337 462
6287 6270 151
6288 6241 287
6288 6258 341
6288 6258 341
6288 6327 332
6288 6332 343
6288 6332 343
6289 6275 281
6289 6259 186
6289 6347 231
6290 6278 93
6290 6276 135
6290 6296 36
6291 6144 1326
6291 6144 1326
6291 6297 119
6291 6300 457
6291 6300 457
6292 6273 155
6292 6280 121
6292 6299 92
6292 6303 87
6293 6283 65
6293 6294 283
6293 6354 294
6294 6293 283
6294 13756 617
6295 6285 67
6295 6306 93
6295 6296 379
6296 6290 36
6296 6279 141
6296 6295 379
6297 6291 119
6298 6206 487
6298 6340 150
6298 6341 601
6299 6292 92
6299 6306 56
6299 6313 83
6300 6291 457
6300 6291 457
6300 6310 577
6300 6310 577
6301 6302 1349
6301 6071 381
6302 6301 1349
6302 6316 1772
6302 6402 585
6303 6292 87
6303 6312 48
6303 6313 81
6304 6260 478
6304 6265 267
6304 6343 117
6305 6281 221
6306 6295 93
6306 6299 56
6306 6331 95
6307 6308 137
6308 6307 137
6309 6280 143
6309 6280 143
6309 6281 215
6309 6312 75
6310 6300 577
6310 6300 577
6310 6311 29
6310 6311 29
6310 6314 39
6310 6315 40
6311 6310 29
6311 6310 29
6311 6144 1125
6311 6314 24
6311 6438 1036
6311 6438 1036
6312 6303 48
6312 6309 75
6312 6321 37
6313 6299 83
6313 6303 81
6313 6331 67
6314 6310 39
6314 6311 24
6314 6315 1
6315 6310 40
6315 6314 1
6315 6421 794
6315 6421 794
6316 6175 1913
6316 6302 1772
6316 6333 589
6316 6406 540
6317 6318 248
6317 6352 351
6317 6366 550
6318 6317 248
6319 6320 14
6320 6319 14
6321 6312 37
6321 6322 150
6321 6351 87
6322 6321 150
6322 6336 89
6322 6351 291
6323 6324 835
6323 6166 30
6324 6323 835
6324 6489 208
6325 6326 837
6325 6505 207
6326 6325 837
6326 6163 30
6327 6288 332
6327 6275 315
6327 6347 503
6327 6379 416
6328 6268 329
6328 6340 262
6328 6393 425
6329 6330 108
6330 6329 108
6330 6286 475
6330 6335 95
6330 6381 383
6331 6306 95
6331 6313 67
6332 6232 471
6332 6288 343
6332 6288 343
6332 6371 400
6332 6371 400
6332 6374 257
6333 6316 589
6334 6335 45
6335 6334 45
6335 6330 95
6335 6339 74
6335 6388 396
6336 6322 89
6336 6338 36
6337 6286 462
6337 6248 462
6337 6248 462
6337 6353 165
6337 6467 1228
6338 6336 36
6338 6351 60
6339 6262 389
6339 6335 74
6339 6341 18
6339 6384 380
6340 6328 262
6340 6298 150
6340 6392 402
6341 6342 464
6341 6339 18
6341 6298 601
6341 6386 379
6342 6341 464
6342 6235 48
6342 6233 50
6343 6304 117
6343 6344 88
6343 6358 146
6344 6343 88
6344 6345 95
6344 6360 146
6345 6344 95
6345 6346 107
6345 6361 145
6346 6345 107
6346 6347 119
6346 6364 146
6347 6289 231
6347 6346 119
6347 6327 503
6347 6400 425
6348 6349 59
6348 6350 128
6348 6370 224
6349 6348 59
6350 6348 128
6351 6321 87
6351 6338 60
6351 6322 291
6352 6317 351
6353 6337 165
6353 6373 401
6353 6457 1084
6353 6457 1084
6354 6293 294
6354 6355 251
6354 6366 138
6355 6354 251
6356 5978 3382
6356 6365 60
6356 6377 246
6357 6068 2182
6357 6367 61
6357 6378 232
6358 6343 146
6358 6359 89
6358 6360 90
6358 6395 249
6359 6358 89
6360 6344 146
6360 6358 90
6360 6361 93
6361 6345 145
6361 6360 93
6361 6364 108
6361 6396 252
6362 6363 5
6362 6200 867
6362 6371 264
6362 6389 223
6363 6362 5
6364 6346 146
6364 6361 108
6364 6397 254
6365 6356 60
6365 6403 228
6366 6354 138
6366 6317 550
6366 6368 18
6366 6382 204
6367 6357 61
6367 6399 223
6368 6369 918
6368 6366 18
6368 6370 3
6368 6372 26
6369 6368 918
6370 6348 224
6370 6368 3
6370 6372 26
6370 6375 63
6371 6362 264
6371 6332 400
6371 6332 400
6371 6374 342
6371 6389 321
6372 6370 26
6372 6368 26
6372 6376 51
6373 6353 401
6373 6378 3815
6373 6442 713
6373 6442 713
6374 6332 257
6374 6371 342
6374 6379 365
6375 6370 63
6376 6372 51
6376 6380 97
6376 6401 218
6377 6356 246
6377 6138 2879
6377 6378 74
6377 6413 289
6378 6357 232
6378 6377 74
6378 6398 147
6378 6373 3815
6379 6374 365
6379 6327 416
6379 6416 391
6380 6376 97
6381 6330 383
6382 6366 204
6382 6383 307
6382 6574 1873
6383 6382 307
6384 6339 380
6384 6385 23
6384 6386 24
6384 6482 899
6385 6384 23
6385 6388 119
6386 6341 379
6386 6384 24
6386 6387 34
6386 6481 897
6387 6386 34
6387 6390 196
6388 6385 119
6388 6335 396
6388 6484 892
6389 6110 1689
6389 6362 223
6389 6371 321
6389 6391 14
6389 6465 818
6390 6387 196
6390 6392 386
6390 6420 278
6391 6389 14
6391 6438 1438
6392 6340 402
6392 6390 386
6392 6393 185
6392 6427 370
6393 6328 425
6393 6392 185
6393 6394 15
6393 6444 720
6394 6267 756
6394 6393 15
6394 6395 213
6394 6444 709
6395 6358 249
6395 6394 213
6395 6396 187
6396 6361 252
6396 6395 187
6396 6397 125
6397 6364 254
6397 6396 125
6397 6400 134
6398 6378 147
6398 6399 91
6398 6407 98
6399 6398 91
6399 6367 223
6400 6347 425
6400 6397 134
6400 6435 400
6401 6376 218
6402 6302 585
6402 6408 401
6402 6529 988
6403 6404 187
6403 6365 228
6404 6403 187
6404 6413 51
6404 6413 51
6405 6406 16
6406 6405 16
6406 6316 540
6406 6414 472
6406 6430 294
6407 6398 98
6407 6471 842
6408 6402 401
6408 6409 196
6408 6415 772
6408 6534 973
6409 6408 196
6410 6411 39
6410 6412 54
6410 6552 1247
6411 6410 39
6412 6410 54
6413 6404 51
6413 6404 51
6413 6377 289
6413 6468 796
6413 6468 796
6414 6406 472
6414 6431 294
6415 6408 772
6416 6379 391
6416 6418 206
6416 6434 279
6417 6087 3011
6417 6598 2934
6418 6416 206
6419 5998 3943
6419 6511 2109
6419 6730 4776
6420 6390 278
6421 6315 794
6421 6315 794
6421 6422 64
6421 6447 357
6421 6447 357
6422 6421 64
6422 6437 398
6422 6443 284
6423 6424 50
6424 6423 50
6424 6430 1073
6424 6446 295
6425 6426 1605
6425 6454 370
6425 6515 832
6426 6425 1605
6426 6159 49
6427 6392 370
6427 6432 282
6427 6478 496
6428 6429 1641
6428 6162 48
6429 6428 1641
6429 6456 339
6429 6470 494
6430 6424 1073
6430 6406 294
6430 6431 462
6430 6451 292
6431 6430 462
6431 6414 294
6431 6455 292
6431 6459 818
6432 6427 282
6432 6436 48
6433 6434 1246
6434 6433 1246
6434 6416 279
6434 6439 449
6435 6400 400
6435 6436 434
6435 6439 84
6436 6435 434
6436 6432 48
6437 6422 398
6438 6311 1036
6438 6311 1036
6438 6391 1438
6438 6443 587
6438 6460 312
6438 6460 312
6439 6435 84
6439 6434 449
6439 6448 265
6439 6463 274
6440 6441 629
6440 6441 629
6440 6442 375
6440 6452 173
6440 6452 173
6441 6440 629
6441 6440 629
6442 6373 713
6442 6373 713
6442 6440 375
6442 6458 196
6442 6458 196
6443 6422 284
6443 6438 587
6443 6447 144
6444 6394 709
6444 6393 720
6444 6464 223
6444 6480 276
6444 6483 284
6445 6446 287
6446 6445 287
6446 6424 295
6446 6451 1066
6446 6473 226
6447 6421 357
6447 6421 357
6447 6443 144
6447 6453 118
6447 6513 263
6447 6513 263
6448 6439 265
6449 6450 456
6449 6156 3691
6449 6538 584
6450 6449 456
6451 6446 1066
6451 6430 292
6451 6455 440
6451 6512 223
6452 6440 173
6452 6440 173
6452 6458 377
6452 6525 328
6452 6526 328
6453 6447 118
6454 6425 370
6454 6510 58
6455 6451 440
6455 6431 292
6455 6459 485
6455 6517 231
6456 6429 339
6456 6536 55
6457 6353 1084
6457 6353 1084
6457 6458 446
6457 6467 81
6457 6467 81
6458 6457 446
6458 6442 196
6458 6442 196
6458 6452 377
6458 6524 287
6458 6524 287
6459 6455 485
6459 6431 818
6459 6523 238
6460 6438 312
6460 6438 312
6460 6465 1370
6460 6513 708
6460 6642 1995
6460 6642 1995
6461 6462 702
6461 6473 864
6461 6545 358
6462 6461 702
6463 6439 274
6463 6464 99
6463 6488 77
6464 6444 223
6464 6463 99
6464 6487 75
6465 6460 1370
6465 6389 818
6465 6466 7
6465 6613 1669
6466 6465 7
6466 6506 417
6467 6337 1228
6467 6457 81
6467 6457 81
6467 6518 139
6467 6519 137
6468 6413 796
6468 6413 796
6468 6471 18
6468 6472 12
6468 6472 12
6469 6470 673
6469 6509 60
6470 6469 673
6470 6429 494
6470 6521 142
6471 6407 842
6471 6468 18
6471 6474 12
6471 6526 3890
6472 6468 12
6472 6468 12
6472 6474 18
6472 6609 1705
6472 6609 1705
6473 6461 864
6473 6446 226
6473 6512 1061
6473 6549 346
6474 6471 12
6474 6472 18
6474 6528 4275
6474 6610 1706
6475 6476 181
6475 6491 182
6475 6506 605
6476 6475 181
6476 6488 538
6476 6491 13
6477 6478 292
6477 6480 264
6477 6492 15
6478 6477 292
6478 6427 496
6478 6479 266
6478 6494 13
6479 6478 266
6479 6481 293
6479 6495 13
6480 6444 276
6480 6477 264
6480 6483 14
6480 6496 13
6481 6479 293
6481 6386 897
6481 6482 21
6481 6497 13
6482 6481 21
6482 6384 899
6482 6484 143
6482 6498 13
6483 6444 284
6483 6480 14
6483 6487 21
6483 6499 13
6484 6482 143
6484 6388 892
6484 6485 182
6484 6500 13
6485 6484 182
6485 6486 652
6485 6493 9
6485 6518 830
6486 6485 652
6487 6464 75
6487 6483 21
6487 6488 43
6487 6502 15
6488 6476 538
6488 6463 77
6488 6487 43
6488 6503 13
6489 6490 1088
6489 6324 208
6490 6489 1088
6490 6577 29
6491 6475 182
6491 6476 13
6491 6501 487
6491 6555 460
6492 6477 15
6492 6494 287
6492 6496 272
6492 6560 813
6493 6485 9
6494 6492 287
6494 6478 13
6494 6495 265
6494 6557 466
6495 6494 265
6495 6479 13
6495 6497 291
6495 6556 464
6496 6480 13
6496 6492 272
6496 6499 15
6496 6546 293
6497 6495 291
6497 6481 13
6497 6498 21
6497 6827 4208
6498 6497 21
6498 6482 13
6498 6500 143
6498 6828 4209
6499 6483 13
6499 6496 15
6499 6502 22
6499 6546 292
6500 6498 143
6500 6484 13
6500 6520 1014
6500 6568 763
6501 6491 487
6501 6503 52
6501 6507 55
6502 6487 15
6502 6499 22
6502 6503 34
6502 6516 57
6503 6488 13
6503 6502 34
6503 6501 52
6503 6507 9
6504 6505 1097
6504 6576 28
6505 6504 1097
6505 6325 207
6506 6466 417
6506 6475 605
6506 6616 1666
6507 6501 55
6507 6503 9
6507 6516 46
6508 6509 129
6508 6510 129
6508 6535 187
6509 6508 129
6509 6469 60
6510 6508 129
6510 6454 58
6511 6419 2109
6512 6473 1061
6512 6451 223
6512 6517 423
6513 6447 263
6513 6447 263
6513 6460 708
6513 6636 1802
6513 6636 1802
6514 6185 2216
6515 6425 832
6515 6522 53
6515 6537 454
6516 6507 46
6516 6502 57
6516 6546 233
6517 6512 423
6517 6455 231
6517 6523 467
6518 6485 830
6518 6467 139
6518 6519 49
6518 6520 13
6519 6518 49
6519 6467 137
6519 6524 496
6520 6500 1014
6520 6518 13
6520 6528 546
6520 6580 854
6521 6470 142
6521 6530 95
6522 6515 53
6522 6531 95
6523 6517 467
6523 6459 238
6523 6529 1010
6524 6458 287
6524 6458 287
6524 6525 377
6524 6519 496
6524 6528 13
6525 6524 377
6525 6452 328
6525 6526 2
6525 6527 1
6526 6525 2
6526 6452 328
6526 6471 3890
6527 6525 1
6528 6524 13
6528 6474 4275
6528 6520 546
6528 6539 51
6529 6523 1010
6529 6402 988
6529 6534 255
6529 6562 568
6530 6521 95
6530 6543 60
6530 6544 62
6531 6522 95
6531 6541 88
6531 6542 59
6532 6533 48
6532 6538 374
6532 6540 60
6533 6532 48
6534 6529 255
6534 6408 973
6534 6550 1137
6535 6508 187
6535 7431 78
6536 6537 314
6536 6456 55
6537 6536 314
6537 6515 454
6537 7425 81
6538 6449 584
6538 6532 374
6538 6554 453
6539 6528 51
6540 6532 60
6540 6547 97
6540 6548 106
6541 6531 88
6541 6542 52
6541 6606 6235
6542 6541 52
6542 6531 59
6542 6543 4
6543 6542 4
6543 6530 60
6543 6544 18
6544 6543 18
6544 6530 62
6544 6545 327
6545 6544 327
6545 6461 358
6545 6549 887
6546 6516 233
6546 6499 292
6546 6496 293
6546 6569 475
6547 6540 97
6548 6540 106
6548 6713 4926
6549 6545 887
6549 6473 346
6549 6551 1066
6549 6559 222
6550 6534 1137
6550 6553 268
6550 6583 633
6551 6549 1066
6551 6562 1982
6551 6594 748
6552 6410 1247
6553 6550 268
6553 6591 621
6553 7075 8321
6554 6538 453
6555 6491 460
6556 6495 464
6556 6557 249
6556 6585 540
6557 6494 466
6557 6556 249
6557 6558 110
6557 6563 282
6558 6557 110
6558 13768 66
6559 6549 222
6560 6492 813
6560 6565 53
6561 5400 20115
6561 6834 6857
6562 6551 1982
6562 6529 568
6562 6934 4983
6563 6557 282
6563 6564 169
6563 6566 217
6563 6584 255
6564 6563 169
6565 6566 82
6565 6560 53
6566 6565 82
6566 6563 217
6566 6567 80
6566 6586 266
6567 6566 80
6567 6570 46
6568 6500 763
6569 6546 475
6569 6570 199
6569 6571 199
6569 6592 301
6570 6569 199
6570 6567 46
6571 6569 199
6572 6573 200
6573 6572 200
6574 6382 1873
6574 6579 20
6575 6576 855
6575 6754 28
6576 6575 855
6576 6504 28
6577 6578 865
6577 6490 29
6578 6577 865
6578 6751 29
6579 6574 20
6580 6520 854
6581 6582 2
6582 6581 2
6583 6550 633
6583 6591 268
6583 6597 179
6584 6563 255
6584 6585 231
6584 6586 195
6585 6584 231
6585 6556 540
6586 6566 266
6586 6584 195
6586 6592 362
6587 6588 94
6588 6587 94
6589 6590 26
6590 6589 26
6591 6583 268
6591 6553 621
6591 6593 276
6591 6599 193
6592 6569 301
6592 6586 362
6592 6748 2235
6593 6591 276
6594 6551 748
6594 6879 3838
6594 6880 3837
6595 6596 110
6596 6595 110
6597 6583 179
6598 6417 2934
6598 6694 1793
6599 6591 193
6600 6601 66
6601 6600 66
6602 6179 3373
6602 6603 736
6602 6854 3251
6603 6182 3372
6603 6602 736
6603 6605 1038
6604 6188 3379
6604 6605 16
6604 7051 5153
6605 6604 16
6605 6188 3378
6605 6603 1038
6605 7052 5157
6606 6082 4489
6606 6541 6235
6606 6834 2931
6607 6608 25
6608 6607 25
6609 6472 1705
6609 6472 1705
6609 6634 109
6610 6474 1706
6610 6638 109
6611 6612 464
6612 6611 464
6613 6465 1669
6613 6616 445
6613 6639 254
6614 6615 46
6615 6614 46
6616 6613 445
6616 6506 1666
6616 6628 541
6616 6662 408
6617 6618 122
6617 6727 81
6618 6617 122
6618 13769 75
6619 6620 122
6619 13770 76
6620 6619 122
6620 6729 81
6621 6622 348
6621 6627 519
6621 6654 284
6622 6621 348
6622 6632 915
6622 6657 297
6623 6624 32
6624 6623 32
6625 6626 65
6626 6625 65
6627 6621 519
6627 6700 1207
6628 6616 541
6629 6630 314
6630 6629 314
6630 6631 65
6630 6633 265
6630 6644 156
6631 6630 65
6632 6622 915
6632 6643 303
6632 6676 394
6633 6630 265
6633 6643 100
6634 6635 368
6634 6609 109
6635 6634 368
6635 6789 157
6636 6513 1802
6636 6513 1802
6636 6642 546
6636 6673 367
6636 6673 367
6637 6638 370
6637 6792 159
6638 6637 370
6638 6610 109
6639 6613 254
6639 6662 452
6639 6689 458
6640 6641 60
6641 6640 60
6642 6460 1995
6642 6460 1995
6642 6636 546
6642 6650 452
6642 6684 427
6642 6684 427
6643 6633 100
6643 6632 303
6643 6646 46
6644 6645 370
6644 6630 156
6644 6646 265
6644 6660 103
6645 6644 370
6646 6644 265
6646 6643 46
6646 6647 158
6646 6661 104
6647 6646 158
6648 6649 39
6649 6648 39
6650 6642 452
6650 6669 125
6650 6669 125
6650 6689 924
6651 6652 93
6652 6651 93
6652 6653 113
6652 6654 259
6652 6664 83
6653 6652 113
6654 6621 284
6654 6652 259
6654 6656 217
6654 6665 84
6655 6656 73
6656 6655 73
6656 6654 217
6656 6657 132
6656 6666 86
6657 6622 297
6657 6656 132
6657 6658 1
6657 6681 177
6658 6657 1
6659 6660 256
6660 6659 256
6660 6644 103
6660 6661 266
6660 6671 108
6661 6660 266
6661 6646 104
6661 6663 150
6661 6672 109
6662 6639 452
6662 6616 408
6662 6705 392
6663 6661 150
6664 6652 83
6664 6665 259
6664 6674 89
6665 6654 84
6665 6664 259
6665 6666 217
6665 6677 91
6666 6656 86
6666 6665 217
6666 6678 90
6667 6668 29
6668 6667 29
6669 6650 125
6669 6650 125
6669 6683 239
6669 6683 239
6669 6683 751
6670 6671 257
6671 6670 257
6671 6660 108
6671 6672 267
6671 6687 106
6672 6671 267
6672 6661 109
6672 6676 275
6672 6688 106
6673 6636 367
6673 6636 367
6673 6698 183
6673 6741 1172
6673 6741 1172
6674 6664 89
6674 6675 162
6674 6677 259
6674 6691 104
6675 6674 162
6676 6672 275
6676 6632 394
6676 6682 718
6676 6712 555
6677 6665 91
6677 6674 259
6677 6678 216
6677 6726 728
6678 6666 90
6678 6677 216
6678 6681 133
6678 6695 153
6679 6680 310
6680 6679 310
6681 6657 177
6681 6678 133
6681 6682 176
6681 6690 85
6682 6681 176
6682 6676 718
6682 6695 474
6683 6669 239
6683 6669 239
6683 6684 62
6683 6685 59
6683 6669 751
6684 6642 427
6684 6642 427
6684 6683 62
6684 6685 3
6685 6684 3
6685 6683 59
6685 6742 980
6686 6687 255
6687 6686 255
6687 6671 106
6687 6688 267
6687 6706 201
6688 6687 267
6688 6672 106
6688 6708 200
6689 6650 924
6689 6639 458
6689 6709 197
6690 6681 85
6691 6674 104
6692 6693 15
6693 6692 15
6694 6598 1793
6694 6814 2629
6695 6678 153
6695 6682 474
6695 6702 75
6696 6697 1462
6696 6699 49
6696 6718 1147
6697 6696 1462
6698 6673 183
6698 6701 92
6698 6766 1183
6699 6696 49
6699 6701 128
6700 6627 1207
6701 6698 92
6701 6699 128
6702 6695 75
6703 6704 37
6704 6703 37
6705 6662 392
6705 6709 519
6705 6723 508
6706 6707 210
6706 6687 201
6706 6708 267
6706 6733 491
6707 6706 210
6708 6706 267
6708 6688 200
6708 6712 162
6709 6689 197
6709 6705 519
6709 6716 227
6710 6711 27
6711 6710 27
6712 6708 162
6712 6676 555
6712 6733 410
6713 6548 4926
6713 6814 1830
6714 6715 14
6715 6714 14
6716 6717 596
6716 6709 227
6716 6817 1378
6717 6716 596
6718 6696 1147
6719 6720 57
6720 6719 57
6721 6722 10
6722 6721 10
6723 6705 508
6723 6769 814
6723 6836 1633
6724 6725 97
6725 6724 97
6726 6677 728
6726 6727 1177
6726 6728 16
6726 6750 496
6727 6726 1177
6727 6617 81
6728 6726 16
6728 6729 1195
6728 6755 490
6728 6756 497
6729 6728 1195
6729 6620 81
6730 6731 261
6730 6419 4776
6730 7063 4445
6731 6730 261
6731 6732 476
6732 6731 476
6733 6706 491
6733 6712 410
6733 6736 377
6733 6842 1497
6734 6735 94
6735 6734 94
6736 6733 377
6737 6738 22
6738 6737 22
6739 6740 118
6740 6739 118
6741 6673 1172
6741 6673 1172
6741 6742 116
6741 6743 116
6742 6741 116
6742 6685 980
6742 6743 0
6742 6760 228
6743 6741 116
6743 6742 0
6743 6760 228
6744 6745 184
6744 6749 118
6744 6785 1197
6745 6744 184
6746 6747 47
6747 6746 47
6748 6592 2235
6748 6764 211
6748 6765 247
6749 6744 118
6749 6757 141
6750 6726 496
6751 6752 2419
6751 6578 29
6752 6751 2419
6752 6906 19
6753 6754 2432
6753 6909 21
6754 6753 2432
6754 6575 28
6755 6728 490
6756 6728 497
6757 6749 141
6757 6761 259
6757 6762 113
6758 6759 35
6759 6758 35
6760 6743 228
6760 6742 228
6760 6811 453
6760 6811 453
6761 6757 259
6761 6767 95
6761 6778 490
6762 6757 113
6762 6763 18
6762 6768 258
6763 6762 18
6764 6748 211
6764 6765 36
6764 6770 71
6765 6764 36
6765 6748 247
6765 6771 54
6765 6823 677
6766 6698 1183
6766 6811 842
6766 6844 892
6767 6761 95
6767 6768 20
6767 6796 508
6768 6762 258
6768 6767 20
6768 6779 105
6769 6723 814
6770 6764 71
6770 6771 17
6770 6876 1285
6771 6770 17
6771 6765 54
6771 6826 620
6771 6877 1273
6772 6773 50
6773 6772 50
6774 6775 74
6775 6774 74
6776 6777 52
6777 6776 52
6778 6761 490
6778 6786 183
6778 6796 124
6779 6768 105
6779 6780 15
6779 6808 254
6780 6779 15
6780 6824 975
6781 6782 1375
6782 6781 1375
6783 6784 37
6784 6783 37
6785 6744 1197
6786 6778 183
6787 6788 30
6788 6787 30
6789 6790 2216
6789 6635 157
6790 6789 2216
6790 6791 13
6790 6832 540
6791 6792 2215
6791 6790 13
6791 6833 540
6791 7163 5942
6792 6791 2215
6792 6637 159
6793 6794 36
6793 6795 38
6793 6804 181
6794 6793 36
6795 6793 38
6796 6767 508
6796 6778 124
6796 6812 194
6797 6798 721
6797 6813 2020
6797 6850 1808
6798 6797 721
6798 6813 1598
6799 6800 225
6800 6799 225
6800 6801 177
6800 6802 18
6800 6804 10
6801 6800 177
6802 6800 18
6802 6803 175
6802 6805 12
6803 6802 175
6804 6793 181
6804 6800 10
6804 6805 18
6804 7132 3826
6805 6804 18
6805 6802 12
6805 6820 350
6806 6807 132
6807 6806 132
6808 6779 254
6808 6809 13
6808 6810 2
6808 6840 424
6809 6808 13
6810 6808 2
6811 6760 453
6811 6760 453
6811 6766 842
6811 6815 155
6811 6815 155
6812 6796 194
6813 6798 1598
6813 6797 2020
6813 6862 940
6814 6713 1830
6814 6694 2629
6814 7141 6157
6815 6811 155
6815 6811 155
6815 6816 248
6815 6847 319
6815 6847 319
6816 6815 248
6816 6817 567
6816 6849 370
6817 6816 567
6817 6716 1378
6817 6818 409
6817 6873 698
6818 6817 409
6818 6819 369
6818 6855 508
6819 6818 369
6819 6831 194
6819 6851 404
6820 6805 350
6820 6821 316
6820 6822 1
6820 7079 3121
6821 6820 316
6822 6820 1
6823 6765 677
6823 6826 25
6823 6827 52
6823 6882 909
6824 6825 354
6824 6780 975
6824 6846 597
6825 6824 354
6826 6771 620
6826 6823 25
6826 6829 65
6826 6884 955
6827 6823 52
6827 6497 4208
6827 6828 19
6827 6882 890
6828 6827 19
6828 6498 4209
6828 6830 146
6828 6883 914
6829 6826 65
6830 6828 146
6831 6819 194
6831 6835 208
6831 6852 379
6832 6790 540
6832 7014 51
6833 6791 540
6833 7019 54
6834 6561 6857
6834 6606 2931
6834 7212 4213
6835 6831 208
6835 6838 376
6835 6866 499
6836 6723 1633
6836 6837 21
6836 6838 30
6837 6836 21
6837 6839 573
6837 6841 44
6838 6836 30
6838 6835 376
6838 6841 34
6839 6837 573
6839 6871 516
6839 6876 1026
6840 6808 424
6840 6846 95
6840 6848 125
6841 6838 34
6841 6837 44
6841 6870 474
6842 6843 419
6842 6733 1497
6842 6850 211
6843 6842 419
6844 6766 892
6844 6845 104
6844 6896 2052
6844 6900 1740
6845 6844 104
6845 6847 700
6845 7060 2297
6846 6824 597
6846 6840 95
6846 6848 66
6847 6845 700
6847 6815 319
6847 6815 319
6847 6849 252
6848 6846 66
6848 6840 125
6848 6853 833
6848 6861 292
6849 6847 252
6849 6816 370
6849 6873 618
6850 6797 1808
6850 6842 211
6850 6861 1072
6850 7050 2147
6851 6819 404
6852 6831 379
6853 6848 833
6854 6602 3251
6854 6875 480
6854 7074 2073
6855 6818 508
6856 6857 183
6856 6858 193
6856 6867 175
6857 6856 183
6858 6856 193
6859 6860 521
6860 6859 521
6860 6874 200
6861 6850 1072
6861 6848 292
6861 6869 202
6862 6813 940
6863 6864 143
6863 6865 136
6863 6886 422
6864 6863 143
6865 6863 136
6865 6866 177
6865 6888 425
6866 6865 177
6866 6835 499
6866 6868 149
6866 6881 295
6867 6856 175
6868 6866 149
6868 6870 235
6868 6899 677
6869 6861 202
6869 6874 121
6869 6878 90
6870 6868 235
6870 6841 474
6870 6871 500
6870 6916 813
6871 6839 516
6871 6872 106
6871 6870 500
6872 6871 106
6873 6849 618
6873 6817 698
6873 6886 929
6873 6894 571
6874 6869 121
6874 6860 200
6874 6878 131
6875 6854 480
6875 6904 1890
6876 6839 1026
6876 6770 1285
6876 6877 14
6876 6953 1049
6877 6876 14
6877 6771 1273
6877 6954 1049
6878 6869 90
6878 6874 131
6878 7054 1963
6879 6594 3838
6879 6922 601
6880 6594 3837
6880 6921 599
6881 6866 295
6882 6823 909
6882 6827 890
6882 6883 31
6882 6884 41
6883 6882 31
6883 6828 914
6883 6885 41
6883 7113 2052
6884 6826 955
6884 6882 41
6884 6885 31
6884 7244 2474
6885 6884 31
6885 6883 41
6885 7115 2006
6885 7225 2350
6886 6873 929
6886 6863 422
6886 6887 3
6886 6888 148
6887 6886 3
6888 6886 148
6888 6865 425
6888 6899 499
6888 6910 348
6889 6890 178
6889 6891 155
6889 6892 90
6889 6942 473
6890 6889 178
6891 6889 155
6892 6889 90
6892 6893 433
6892 6901 513
6892 6944 473
6893 6892 433
6894 6873 571
6894 6910 1026
6894 6923 255
6895 6896 2263
6896 6895 2263
6896 6844 2052
6896 6897 29
6896 6978 755
6897 6898 2026
6897 6896 29
6897 6977 736
6897 7022 1441
6898 6897 2026
6899 6888 499
6899 6868 677
6899 6914 128
6899 6916 227
6900 6844 1740
6900 6915 254
6900 6949 651
6901 6892 513
6901 6902 32
6901 6957 434
6902 6901 32
6902 6911 2109
6902 7053 1332
6903 6904 46
6903 6905 1651
6903 6929 748
6904 6903 46
6904 6875 1890
6905 6903 1651
6905 6928 546
6905 6952 381
6906 6907 2299
6906 6752 19
6907 6906 2299
6907 6962 400
6908 6909 2303
6908 6966 402
6909 6908 2303
6909 6753 21
6910 6894 1026
6910 6888 348
6910 6914 367
6911 6902 2109
6911 6936 596
6911 6994 761
6912 6913 161
6913 6912 161
6913 6918 177
6913 6929 183
6914 6910 367
6914 6899 128
6914 6917 189
6914 6947 249
6915 6900 254
6915 6930 240
6915 6961 394
6916 6899 227
6916 6870 813
6916 6917 9
6916 6920 36
6917 6914 189
6917 6916 9
6917 6920 32
6917 6951 248
6918 6913 177
6918 6919 106
6918 6927 140
6918 6940 184
6919 6918 106
6920 6917 32
6920 6916 36
6920 6943 215
6921 6880 599
6921 6922 12
6921 6924 18
6921 6934 1814
6922 6879 601
6922 6921 12
6922 6926 20
6922 6968 1630
6923 6894 255
6923 6925 944
6923 7175 1587
6923 7257 1985
6924 6921 18
6924 6926 14
6924 6935 1818
6924 7595 3748
6925 6923 944
6926 6922 20
6926 6924 14
6926 6969 1622
6926 7596 3743
6927 6918 140
6928 6905 546
6928 6936 263
6928 6970 387
6929 6903 748
6929 6913 183
6929 6940 176
6929 6972 359
6930 6915 240
6930 6937 67
6930 6964 279
6931 6932 127
6931 6933 168
6931 6938 278
6931 6946 73
6932 6931 127
6933 6931 168
6934 6921 1814
6934 6562 4983
6934 6935 12
6934 7042 4588
6935 6924 1818
6935 6934 12
6935 6941 32
6935 7047 4583
6936 6928 263
6936 6911 596
6936 6976 375
6937 6930 67
6937 6967 298
6938 6931 278
6938 6939 362
6938 6942 179
6938 7002 578
6939 6938 362
6940 6929 176
6940 6918 184
6940 6952 193
6940 6955 100
6941 6935 32
6941 7508 3425
6942 6938 179
6942 6889 473
6942 6944 90
6942 6959 135
6943 6920 215
6943 6950 628
6943 7003 559
6944 6942 90
6944 6892 473
6944 6957 454
6944 7017 603
6945 6946 255
6946 6945 255
6946 6931 73
6946 6948 137
6946 6998 498
6947 6914 249
6947 6951 202
6947 6982 426
6948 6946 137
6949 6900 651
6950 6943 628
6950 6953 424
6950 7008 527
6951 6947 202
6951 6917 248
6952 6940 193
6952 6905 381
6952 6960 348
6952 6971 197
6953 6950 424
6953 6876 1049
6953 6954 14
6953 7005 490
6954 6953 14
6954 6877 1049
6954 7004 489
6955 6956 118
6955 6940 100
6955 6958 71
6956 6955 118
6957 6944 454
6957 6901 434
6957 7030 582
6958 6955 71
6958 6971 146
6958 6981 273
6959 6942 135
6960 6952 348
6960 6970 207
6960 7062 671
6961 6915 394
6961 6964 210
6961 6973 522
6961 6979 140
6962 6963 165
6962 6907 400
6963 6962 165
6963 6974 28
6964 6930 279
6964 6961 210
6964 6967 165
6964 6980 140
6965 6966 156
6965 6984 30
6966 6965 156
6966 6908 402
6967 6937 298
6967 6964 165
6967 6988 266
6968 6922 1630
6968 7067 422
6969 6926 1622
6969 7070 422
6970 6960 207
6970 6928 387
6970 6976 253
6971 6958 146
6971 6952 197
6971 7044 514
6972 6929 359
6973 6961 522
6974 6975 94
6974 6996 361
6974 6963 28
6975 6974 94
6975 6987 207
6975 6997 391
6976 6970 253
6976 6936 375
6976 6994 747
6976 7073 597
6977 6897 736
6977 7001 230
6977 7025 313
6978 6896 755
6978 7026 314
6978 7029 318
6979 6961 140
6979 6980 210
6979 6985 119
6980 6964 140
6980 6979 210
6980 6986 107
6981 6958 273
6982 6947 426
6983 6984 264
6983 6989 26
6983 7031 302
6984 6983 264
6984 6965 30
6985 6979 119
6985 6986 211
6985 6992 284
6986 6980 107
6986 6985 211
6986 6988 252
6986 7040 256
6987 6975 207
6987 6995 292
6987 6996 59
6988 6967 266
6988 6986 252
6988 7035 221
6989 6983 26
6989 7012 138
6989 7016 189
6990 6991 189
6991 6990 189
6991 6992 286
6991 7125 741
6992 6985 284
6992 6993 196
6992 6991 286
6992 7124 720
6993 6992 196
6994 6976 747
6994 6911 761
6994 6998 164
6995 6987 292
6995 7013 58
6996 6974 361
6996 6987 59
6996 7037 288
6997 6975 391
6997 7020 58
6998 6994 164
6998 6946 498
6998 7002 277
6999 7000 71
7000 6999 71
7000 7011 383
7000 7112 767
7001 6977 230
7001 13772 157
7002 6998 277
7002 6938 578
7002 7017 371
7003 6943 559
7003 7006 294
7003 7058 245
7004 6954 489
7004 7005 14
7004 7259 1261
7005 6953 490
7005 7004 14
7005 7008 430
7005 7261 1261
7006 7003 294
7006 7007 260
7006 7237 1170
7007 7006 260
7007 7008 85
7007 7239 1147
7008 7007 85
7008 6950 527
7008 7005 430
7009 7010 771
7010 7009 771
7010 7022 318
7010 7153 775
7011 7000 383
7011 7023 177
7011 7072 260
7012 6989 138
7012 7013 79
7012 7034 114
7013 7012 79
7013 6995 58
7014 7015 2763
7014 6832 51
7015 7014 2763
7015 7043 202
7016 6989 189
7016 7021 162
7016 7031 91
7017 7002 371
7017 6944 603
7017 7030 290
7018 7019 2762
7018 7046 204
7019 7018 2762
7019 6833 54
7020 7021 95
7020 6997 58
7021 7020 95
7021 7016 162
7021 7036 94
7022 7010 318
7022 6897 1441
7022 7035 448
7022 7167 753
7023 7011 177
7023 7024 189
7023 7027 116
7024 7023 189
7025 6977 313
7025 7145 63
7026 6978 314
7026 7160 64
7027 7023 116
7027 7028 156
7027 7032 130
7028 7027 156
7029 6978 318
7029 13771 49
7030 7017 290
7030 6957 582
7030 7053 783
7030 7123 551
7031 7016 91
7031 6983 302
7031 7041 88
7032 7027 130
7032 7033 156
7032 7058 731
7033 7032 156
7034 7012 114
7034 7075 300
7035 7022 448
7035 6988 221
7035 7040 246
7035 7100 340
7036 7021 94
7036 7076 291
7037 6996 288
7037 7216 36
7038 7039 217
7039 7038 217
7039 7048 317
7039 7087 277
7040 7035 246
7040 6986 256
7040 7107 336
7041 7031 88
7041 7222 39
7042 6934 4588
7042 7077 114
7043 7015 202
7043 7121 102
7044 7045 467
7044 6971 514
7044 7062 466
7045 7044 467
7046 7018 204
7046 7139 103
7047 6935 4583
7047 7082 113
7048 7039 317
7048 7049 208
7048 7056 378
7048 7099 269
7049 7048 208
7050 6850 2147
7050 7055 145
7050 7127 465
7051 6604 5153
7051 13774 149
7052 6605 5157
7052 13775 192
7053 7030 783
7053 6902 1332
7053 7068 841
7054 6878 1963
7054 7059 245
7054 7229 2668
7054 7229 2165
7055 7050 145
7055 7064 51
7055 7065 51
7056 7048 378
7056 7057 209
7056 7110 266
7057 7056 209
7057 7118 1386
7058 7003 245
7058 7032 731
7058 7140 459
7059 7054 245
7060 7061 595
7060 6845 2297
7060 7236 916
7061 7060 595
7062 7044 466
7062 6960 671
7062 7073 440
7062 7111 247
7063 6730 4445
7063 7475 2552
7064 7055 51
7064 7104 351
7065 7055 51
7065 7089 218
7066 7067 1788
7066 7213 164
7067 7066 1788
7067 6968 422
7068 7053 841
7068 7069 507
7068 7206 870
7068 7267 3982
7069 7068 507
7070 7071 1787
7070 6969 422
7071 7070 1787
7071 7220 162
7072 7011 260
7073 7062 440
7073 6976 597
7073 7087 531
7073 7119 233
7074 6854 2073
7075 6553 8321
7075 7034 300
7075 7076 23
7075 7078 14
7076 7075 23
7076 7036 291
7076 7080 16
7076 7084 85
7077 7078 508
7077 7042 114
7078 7077 508
7078 7075 14
7078 7080 20
7078 7081 12
7079 6820 3121
7080 7078 20
7080 7076 16
7080 7083 11
7080 7088 93
7081 7082 504
7081 7078 12
7081 7083 23
7081 7187 584
7082 7081 504
7082 7047 113
7083 7081 23
7083 7080 11
7083 7091 96
7083 7188 577
7084 7076 85
7084 7088 17
7084 7105 537
7085 7086 17
7086 7085 17
7087 7073 531
7087 7039 277
7087 7099 317
7087 7189 487
7088 7080 93
7088 7084 17
7088 7091 12
7088 7190 665
7089 7065 218
7089 7090 10
7089 7104 327
7090 7089 10
7090 7097 28
7091 7083 96
7091 7088 12
7091 7193 492
7091 7209 697
7092 7093 337
7092 7101 708
7092 7120 357
7093 7092 337
7093 7094 11
7093 7120 218
7094 7093 11
7094 7317 30
7095 7096 15
7096 7095 15
7097 7098 1056
7097 7090 28
7098 7097 1056
7098 7130 17
7099 7087 317
7099 7048 269
7099 7110 361
7099 7194 488
7100 7035 340
7100 7107 270
7101 7092 708
7101 7137 20
7102 7103 16
7103 7102 16
7104 7064 351
7104 7089 327
7104 7314 2757
7105 7084 537
7105 7106 227
7105 7108 65
7105 7168 383
7106 7105 227
7106 13774 324
7107 7100 270
7107 7040 336
7107 7124 576
7108 7105 65
7108 7109 272
7108 7173 397
7108 7279 5118
7109 7108 272
7109 13775 194
7110 7099 361
7110 7056 266
7110 7118 309
7110 7133 196
7111 7062 247
7111 7119 446
7111 7234 647
7112 7000 767
7112 7182 502
7112 7203 426
7113 6883 2052
7113 7114 12
7113 7115 24
7113 7230 575
7114 7113 12
7115 6885 2006
7115 7113 24
7115 7233 574
7115 7241 1175
7116 7117 354
7116 7150 75
7117 7116 354
7117 13772 195
7118 7110 309
7118 7057 1386
7118 7123 305
7118 7148 197
7119 7111 446
7119 7073 233
7119 7126 524
7120 7093 218
7120 7092 357
7120 7127 191
7121 7122 643
7121 7043 102
7122 7121 643
7122 7227 180
7123 7118 305
7123 7030 551
7123 7206 1260
7123 7240 543
7124 7107 576
7124 6992 720
7124 7125 232
7124 7199 300
7125 7124 232
7125 6991 741
7125 7177 539
7125 7200 293
7126 7119 524
7127 7050 465
7127 7120 191
7127 7198 292
7128 7129 205
7129 7128 205
7129 7143 57
7130 7131 1469
7130 7098 17
7131 7130 1469
7131 7142 23
7132 6804 3826
7133 7110 196
7133 7218 303
7134 7135 184
7134 13788 38
7135 7134 184
7135 13778 12
7136 7137 1466
7136 7147 22
7137 7136 1466
7137 7101 20
7138 7139 723
7138 7232 55
7139 7138 723
7139 7046 103
7140 7058 459
7141 6814 6157
7141 7163 1641
7141 7915 6543
7142 7143 870
7142 7131 23
7143 7142 870
7143 7129 57
7143 7146 11
7143 7151 538
7144 7145 694
7144 7159 89
7145 7144 694
7145 7025 63
7146 7147 872
7146 7143 11
7146 7152 536
7146 7263 519
7147 7146 872
7147 7136 22
7148 7118 197
7148 7224 325
7148 7235 606
7149 7150 281
7149 13794 72
7150 7149 281
7150 7116 75
7151 7143 538
7151 7204 2417
7152 7146 536
7152 7211 2416
7153 7154 755
7153 7010 775
7153 7155 37
7154 7153 755
7155 7153 37
7155 7167 218
7155 7191 133
7156 7157 153
7156 13788 51
7157 7156 153
7157 7158 144
7157 7162 21
7158 7157 144
7158 13791 97
7159 7144 89
7159 7197 89
7160 7161 780
7160 7026 64
7161 7160 780
7161 7184 87
7162 7157 21
7162 7186 90
7163 6791 5942
7163 7141 1641
7163 7488 4690
7164 7165 882
7165 7164 882
7165 7166 140
7165 7174 397
7165 7252 404
7166 7165 140
7167 7155 218
7167 7022 753
7167 7191 264
7167 7223 1940
7168 7105 383
7168 7169 31
7168 7190 87
7169 7168 31
7169 13774 515
7170 7171 86
7170 13795 55
7171 7170 86
7171 13797 376
7172 7173 31
7172 13775 472
7173 7172 31
7173 7108 397
7173 7214 139
7174 7165 397
7174 7187 764
7174 7255 407
7175 6923 1587
7175 7176 145
7175 7256 393
7176 7175 145
7176 7180 355
7176 7254 362
7177 7125 539
7178 7179 105
7178 13779 252
7179 7178 105
7179 13796 92
7180 7181 875
7180 7176 355
7180 7202 73
7181 7180 875
7182 7112 502
7182 7183 241
7182 7201 382
7183 7182 241
7184 7185 82
7184 7161 87
7185 7184 82
7185 7186 87
7185 7210 935
7186 7185 87
7186 7162 90
7187 7174 764
7187 7081 584
7187 7188 24
7187 7269 457
7188 7187 24
7188 7083 577
7188 7193 335
7188 7271 463
7189 7087 487
7189 7194 292
7189 7253 590
7190 7088 665
7190 7168 87
7190 7207 48
7190 7208 48
7191 7192 788
7191 7155 133
7191 7167 264
7192 7191 788
7193 7188 335
7193 7091 492
7193 7209 431
7193 7276 446
7194 7189 292
7194 7099 488
7194 7218 343
7194 7253 299
7195 7196 233
7195 7197 248
7195 7205 742
7196 7195 233
7196 13782 457
7197 7195 248
7197 7159 89
7198 7127 292
7198 7229 1225
7198 7347 835
7199 7124 300
7200 7125 293
7201 7182 382
7201 7203 39
7201 7245 231
7202 7180 73
7202 7203 315
7202 7248 247
7203 7202 315
7203 7112 426
7203 7201 39
7204 7205 1045
7204 7151 2417
7205 7204 1045
7205 7195 742
7206 7123 1260
7206 7068 870
7206 7274 403
7207 7190 48
7207 7208 10
7207 7214 9
7208 7190 48
7208 7207 10
7208 7209 2
7208 7215 10
7209 7193 431
7209 7091 697
7209 7208 2
7209 7215 10
7210 7211 1047
7210 7185 935
7211 7210 1047
7211 7152 2416
7212 6834 4213
7212 7213 2083
7212 7219 13
7213 7212 2083
7213 7066 164
7214 7207 9
7214 7173 139
7214 7282 437
7215 7209 10
7215 7208 10
7215 7281 436
7216 7217 3884
7216 7037 36
7217 7216 3884
7217 7246 231
7218 7194 343
7218 7133 303
7218 7224 319
7218 7264 311
7219 7212 13
7219 7220 2083
7219 7226 107
7220 7219 2083
7220 7071 162
7221 7222 3879
7221 7250 230
7222 7221 3879
7222 7041 39
7223 7167 1940
7223 7236 727
7223 7307 1568
7224 7218 319
7224 7148 325
7224 7235 266
7225 6885 2350
7225 7242 97
7225 7243 96
7226 7219 107
7226 7528 1802
7226 7550 2164
7227 7228 373
7227 7122 180
7228 7227 373
7228 8240 3840
7229 7054 2668
7229 7054 2165
7229 7198 1225
7230 7113 575
7230 7233 26
7230 7289 397
7231 7232 401
7231 8238 3852
7232 7231 401
7232 7138 55
7233 7115 574
7233 7230 26
7233 7241 697
7233 7290 396
7234 7111 647
7234 7247 266
7234 7258 341
7235 7224 266
7235 7148 606
7235 7240 36
7235 7264 811
7236 7223 727
7236 7060 916
7236 7257 1145
7236 7350 610
7237 7238 546
7237 7006 1170
7237 7239 354
7237 7283 261
7238 7237 546
7238 7245 622
7238 7322 472
7239 7237 354
7239 7007 1147
7239 7261 702
7239 7329 509
7240 7235 36
7240 7123 543
7240 7265 141
7240 7274 1275
7241 7115 1175
7241 7233 697
7241 7259 993
7241 7303 406
7242 7225 97
7242 7285 50
7243 7225 96
7243 7304 50
7244 6884 2474
7244 7309 51
7245 7201 231
7245 7238 622
7245 7248 323
7245 7270 140
7246 7247 1253
7246 7217 231
7247 7246 1253
7247 7234 266
7247 7249 10
7247 7258 453
7248 7202 247
7248 7245 323
7248 7256 532
7248 7275 175
7249 7250 1253
7249 7247 10
7249 7262 454
7249 7279 201
7250 7249 1253
7250 7221 230
7251 7252 312
7252 7251 312
7252 7165 404
7252 7255 370
7252 7333 497
7253 7189 590
7253 7194 299
7253 7264 333
7254 7176 362
7255 7252 370
7255 7174 407
7255 7260 174
7255 7342 500
7256 7175 393
7256 7248 532
7256 7257 11
7256 7287 223
7257 6923 1985
7257 7256 11
7257 7236 1145
7257 7346 547
7258 7247 453
7258 7234 341
7258 7262 9
7258 7297 1953
7259 7004 1261
7259 7241 993
7259 7261 16
7259 7402 923
7260 7255 174
7261 7005 1261
7261 7259 16
7261 7239 702
7261 7401 920
7262 7249 454
7262 7258 9
7262 7298 288
7262 7300 1952
7263 7146 519
7263 7266 43
7264 7253 333
7264 7218 311
7264 7235 811
7265 7240 141
7265 7277 174
7265 7294 247
7266 7263 43
7266 7344 426
7267 7068 3982
7267 7354 559
7268 7269 443
7269 7268 443
7269 7187 457
7269 7271 22
7269 7295 229
7270 7245 140
7270 7272 323
7270 7278 291
7270 7291 191
7271 7269 22
7271 7188 463
7271 7276 468
7271 7293 220
7272 7270 323
7272 7273 214
7272 7316 283
7273 7272 214
7274 7240 1275
7274 7206 403
7274 7284 678
7274 7319 267
7275 7248 175
7275 7278 8
7275 7280 162
7276 7271 468
7276 7193 446
7276 7281 438
7276 7312 224
7277 7265 174
7277 7288 354
7277 7294 226
7278 7275 8
7278 7270 291
7278 7301 195
7279 7108 5118
7279 7249 201
7279 7298 476
7279 7360 440
7280 7275 162
7280 7287 332
7280 7335 301
7281 7276 438
7281 7215 436
7281 7282 11
7281 7321 214
7282 7281 11
7282 7214 437
7282 7323 216
7283 7237 261
7284 7274 678
7285 7286 292
7285 7242 50
7286 7285 292
7286 7343 317
7286 7348 481
7287 7256 223
7287 7280 332
7287 7345 324
7288 7277 354
7289 7230 397
7289 7290 24
7289 7364 442
7290 7233 396
7290 7289 24
7290 7303 776
7290 7366 454
7291 7270 191
7291 7292 147
7291 7301 267
7292 7291 147
7293 7271 220
7293 7295 23
7293 7312 511
7293 7357 273
7294 7277 226
7294 7265 247
7294 7297 5
7294 7299 21
7295 7296 452
7295 7269 229
7295 7293 23
7295 7356 264
7296 7295 452
7297 7258 1953
7297 7294 5
7297 7299 21
7297 7300 10
7298 7279 476
7298 7262 288
7298 7362 952
7299 7297 21
7299 7294 21
7299 7373 5123
7300 7262 1952
7300 7297 10
7300 7302 53
7300 7355 248
7301 7278 195
7301 7291 267
7301 7327 95
7302 7300 53
7302 7320 285
7302 7339 189
7303 7241 406
7303 7290 776
7303 7374 392
7304 7305 366
7304 7243 50
7305 7304 366
7305 7604 50
7306 7307 419
7306 13797 179
7307 7306 419
7307 7223 1568
7307 7310 9
7307 7313 22
7308 7309 370
7308 7372 51
7309 7308 370
7309 7336 526
7309 7244 51
7310 7311 425
7310 7307 9
7310 7315 22
7310 7452 2856
7311 7310 425
7311 13798 91
7312 7293 511
7312 7276 224
7312 7321 452
7312 7361 257
7313 7307 22
7313 7375 306
7314 7104 2757
7314 7373 629
7315 7310 22
7315 7378 309
7316 7272 283
7316 7322 390
7316 7385 442
7317 7318 3093
7317 7094 30
7318 7317 3093
7318 7367 622
7319 7274 267
7320 7302 285
7320 7339 317
7320 7368 4288
7321 7312 452
7321 7281 214
7321 7323 13
7321 7365 273
7321 7455 896
7322 7316 390
7322 7238 472
7322 7328 459
7322 7387 446
7323 7321 13
7323 7282 216
7323 7326 258
7323 7454 885
7324 7325 1270
7324 7347 455
7324 7410 591
7325 7324 1270
7325 7353 494
7325 7410 1186
7326 7323 258
7326 7454 917
7326 7684 4779
7327 7301 95
7327 7335 187
7327 7393 474
7328 7322 459
7328 7329 348
7328 7391 418
7329 7328 348
7329 7239 509
7329 7332 455
7329 7392 426
7330 7331 267
7330 7349 297
7330 7362 474
7330 7370 266
7331 7330 267
7332 7329 455
7333 7334 369
7333 7252 497
7333 7342 345
7333 7451 827
7334 7333 369
7335 7280 301
7335 7327 187
7335 7345 239
7336 7309 526
7336 7337 5
7336 7380 365
7337 7336 5
7337 7338 668
7337 7358 111
7338 7337 668
7338 7604 52
7339 7302 189
7339 7320 317
7339 7355 193
7340 7341 559
7341 7340 559
7341 7386 369
7341 7501 1268
7342 7333 345
7342 7255 500
7342 7356 672
7342 7396 459
7343 7286 317
7343 13799 150
7344 7266 426
7344 7446 695
7345 7287 324
7345 7335 239
7345 7346 14
7345 7423 568
7346 7257 547
7346 7345 14
7346 7424 572
7347 7324 455
7347 7198 835
7347 7412 1202
7347 7428 590
7348 7286 481
7348 7359 77
7348 7371 433
7349 7330 297
7349 7363 413
7349 7384 282
7350 7236 610
7350 7352 903
7350 7491 930
7351 7352 565
7352 7351 565
7352 7350 903
7352 7473 847
7353 7354 171
7353 7325 494
7353 7469 1398
7354 7353 171
7354 7267 559
7355 7300 248
7355 7339 193
7355 7363 74
7356 7342 672
7356 7295 264
7356 7357 22
7356 7490 923
7357 7356 22
7357 7293 273
7357 7361 566
7357 7492 919
7358 7337 111
7358 7383 197
7359 7348 77
7359 7381 191
7360 7279 440
7361 7357 566
7361 7312 257
7361 7365 424
7361 7390 239
7362 7298 952
7362 7330 474
7362 7370 230
7362 7419 396
7363 7349 413
7363 7355 74
7363 7388 854
7363 7400 295
7364 7289 442
7364 7366 25
7364 7408 414
7365 7361 424
7365 7321 273
7365 7598 1140
7366 7290 454
7366 7364 25
7366 7369 248
7366 7417 448
7367 7368 526
7367 7318 622
7368 7367 526
7368 7320 4288
7368 7394 199
7369 7366 248
7369 7374 744
7369 7534 992
7370 7362 230
7370 7330 266
7370 7384 297
7370 7427 388
7371 7348 433
7371 7372 305
7371 7601 1114
7372 7371 305
7372 7308 51
7373 7299 5123
7373 7314 629
7374 7303 392
7374 7369 744
7374 7379 277
7374 7647 1233
7375 7376 91
7375 7313 306
7376 7375 91
7376 7377 10
7376 8205 3732
7377 7378 88
7377 7376 10
7377 7461 1115
7377 8204 3728
7378 7377 88
7378 7315 309
7379 7374 277
7379 7382 66
7380 7336 365
7380 7404 65
7381 7359 191
7381 7382 223
7381 7383 65
7382 7381 223
7382 7379 66
7383 7358 197
7383 7381 65
7383 7402 609
7384 7370 297
7384 7349 282
7384 7400 428
7384 7435 383
7385 7316 442
7385 7387 461
7385 7393 364
7385 7441 365
7386 7341 369
7386 7429 405
7386 7449 533
7387 7385 461
7387 7322 446
7387 7391 393
7387 7448 372
7388 7363 854
7388 7389 104
7388 7433 309
7388 7474 3321
7389 7388 104
7390 7361 239
7391 7387 393
7391 7328 418
7391 7392 347
7392 7391 347
7392 7329 426
7392 7401 515
7393 7327 474
7393 7385 364
7393 7423 333
7393 7440 361
7394 7395 222
7394 7368 199
7394 7398 221
7394 7407 66
7395 7394 222
7395 7397 66
7396 7342 459
7397 7395 66
7397 7407 222
7397 7413 76
7398 7394 221
7398 7399 253
7398 7411 67
7399 7398 253
7400 7384 428
7400 7363 295
7400 7433 891
7400 7526 696
7401 7392 515
7401 7261 920
7401 7402 14
7402 7401 14
7402 7259 923
7402 7383 609
7402 7450 342
7403 7404 120
7403 13810 2730
7404 7403 120
7404 7380 65
7405 7406 128
7405 13799 495
7406 7405 128
7406 13808 2521
7407 7397 222
7407 7394 66
7407 7411 221
7407 7437 220
7408 7364 414
7408 7409 17
7408 7417 35
7408 7569 1046
7409 7408 17
7410 7325 1186
7410 7324 591
7410 7428 485
7410 7469 436
7411 7407 221
7411 7398 67
7411 7442 213
7412 7347 1202
7412 7459 341
7412 7466 559
7413 7397 76
7413 7420 95
7413 7432 150
7414 7415 334
7414 7416 393
7414 7421 70
7415 7414 334
7416 7414 393
7417 7366 448
7417 7408 35
7417 7509 530
7417 7568 998
7418 7419 915
7419 7418 915
7419 7362 396
7419 7427 231
7419 7453 258
7420 7413 95
7421 7414 70
7421 7422 140
7421 7460 323
7422 7421 140
7423 7345 568
7423 7393 333
7423 7424 15
7423 7484 459
7424 7346 572
7424 7423 15
7424 7487 461
7425 7426 8535
7425 6537 81
7426 7425 8535
7426 7507 470
7426 7517 653
7427 7419 231
7427 7370 388
7427 7435 286
7427 7462 272
7428 7410 485
7428 7347 590
7428 7489 882
7428 7511 466
7429 7386 405
7429 7436 176
7429 7502 472
7430 7431 8623
7430 7506 384
7430 7510 597
7431 7430 8623
7431 6535 78
7432 7413 150
7432 7434 125
7432 7478 267
7433 7400 891
7433 7388 309
7433 7672 915
7433 7949 4156
7434 7432 125
7434 7437 95
7434 7480 268
7435 7427 286
7435 7384 383
7435 7481 285
7436 7429 176
7436 7445 173
7436 7520 437
7437 7434 95
7437 7407 220
7437 7442 224
7437 7486 271
7438 7439 105
7439 7438 105
7439 7443 158
7439 7474 213
7440 7393 361
7440 7441 187
7440 7458 110
7441 7440 187
7441 7385 365
7441 7448 450
7441 7472 196
7442 7437 224
7442 7411 213
7442 7497 275
7443 7439 158
7443 7444 30
7443 7479 214
7444 7443 30
7445 7436 173
7445 7447 180
7445 7542 430
7446 7344 695
7446 7447 175
7446 7559 451
7447 7446 175
7447 7445 180
7447 7552 441
7448 7441 450
7448 7387 372
7448 7471 214
7448 7477 179
7449 7386 533
7449 7502 490
7449 7599 775
7450 7402 342
7450 7456 565
7450 7482 223
7451 7333 827
7452 7310 2856
7452 7689 1290
7453 7419 258
7453 7462 234
7453 7485 201
7454 7323 885
7454 7326 917
7454 7455 12
7454 7684 1486
7455 7321 896
7455 7454 12
7455 7465 158
7455 7530 421
7456 7457 396
7456 7450 565
7456 7557 398
7457 7456 396
7458 7440 110
7459 7412 341
7459 7494 524
7459 7539 305
7460 7421 323
7460 7463 65
7460 7498 154
7461 7377 1115
7461 8115 2322
7461 8184 4606
7462 7453 234
7462 7427 272
7462 7481 282
7462 7505 205
7463 7460 65
7463 7464 66
7463 7467 183
7463 7499 154
7464 7463 66
7465 7455 158
7466 7412 559
7466 7494 116
7467 7463 183
7467 7468 97
7467 7470 52
7467 7503 155
7468 7467 97
7469 7353 1398
7469 7410 436
7469 7511 567
7470 7467 52
7471 7448 214
7471 7477 148
7471 7482 881
7472 7441 196
7472 7476 63
7472 7525 188
7473 7352 847
7473 7491 771
7473 7535 214
7474 7388 3321
7474 7439 213
7474 7479 170
7474 7730 1279
7475 7063 2552
7475 7685 755
7475 7687 784
7476 7472 63
7476 7484 388
7476 7525 200
7477 7448 179
7477 7471 148
7477 7558 255
7478 7432 267
7478 7479 99
7478 7480 124
7478 7519 155
7479 7474 170
7479 7443 214
7479 7478 99
7479 7493 49
7480 7478 124
7480 7434 268
7480 7486 94
7481 7462 282
7481 7435 285
7481 7526 427
7481 7545 211
7482 7471 881
7482 7450 223
7482 7483 10
7482 7732 999
7483 7482 10
7483 7557 677
7483 7734 998
7484 7423 459
7484 7476 388
7484 7487 10
7484 7666 619
7485 7453 201
7485 7505 233
7485 7611 465
7486 7480 94
7486 7437 271
7486 7497 225
7486 7529 153
7487 7424 461
7487 7484 10
7487 7600 414
7488 7163 4690
7488 7981 5497
7489 7428 882
7489 7539 383
7489 7567 400
7490 7356 923
7490 7492 22
7490 7633 1058
7490 7655 557
7491 7473 771
7491 7350 930
7491 7561 212
7492 7490 22
7492 7357 919
7492 7650 552
7493 7479 49
7494 7459 524
7494 7466 116
7494 7501 354
7494 7584 316
7495 7496 1394
7496 7495 1394
7496 7500 132
7497 7486 225
7497 7442 275
7497 7533 686
7497 7544 154
7498 7460 154
7498 7499 84
7498 7533 133
7499 7498 84
7499 7463 154
7499 7503 182
7499 7541 136
7500 7496 132
7500 8084 3171
7501 7341 1268
7501 7494 354
7501 7599 330
7502 7449 490
7502 7429 472
7502 7520 238
7502 7631 480
7503 7499 182
7503 7467 155
7503 7504 58
7503 7523 62
7504 7503 58
7505 7485 233
7505 7462 205
7505 7545 280
7505 7642 454
7506 7430 384
7506 7577 68
7507 7426 470
7507 7555 67
7508 6941 3425
7508 7603 312
7508 7606 316
7509 7417 530
7509 7534 617
7509 7594 272
7510 7430 597
7510 7514 174
7510 7516 283
7511 7469 567
7511 7428 466
7511 7567 673
7511 7623 373
7512 7513 64
7512 7515 61
7513 7512 64
7513 7564 309
7513 7578 401
7514 7510 174
7514 7562 463
7514 7563 210
7515 7512 61
7515 7517 219
7515 7574 316
7516 7510 283
7516 7517 7
7517 7516 7
7517 7426 653
7517 7515 219
7517 7556 97
7518 7519 33
7519 7518 33
7519 7478 155
7519 7529 221
7520 7502 238
7520 7436 437
7520 7542 236
7520 7664 483
7521 7522 52
7522 7521 52
7522 7531 104
7522 7581 191
7523 7524 107
7523 7503 62
7523 7536 135
7523 7553 78
7524 7523 107
7525 7476 200
7525 7472 188
7525 7703 642
7526 7481 427
7526 7400 696
7526 7573 491
7526 7586 219
7527 7528 251
7528 7527 251
7528 7226 1802
7528 7537 25
7528 7550 400
7529 7519 221
7529 7486 153
7529 7544 221
7529 7691 533
7530 7455 421
7530 7540 24
7530 7598 689
7531 7522 104
7531 7532 39
7531 7546 108
7531 7583 184
7532 7531 39
7533 7497 686
7533 7498 133
7533 7541 101
7533 7570 141
7534 7369 992
7534 7509 617
7534 7547 246
7535 7473 214
7535 7561 750
7535 7753 786
7536 7523 135
7536 7549 106
7536 7560 57
7537 7538 259
7537 7528 25
7537 7554 401
7537 7997 1622
7538 7537 259
7539 7489 383
7539 7459 305
7539 7584 599
7539 7613 275
7540 7530 24
7540 7602 704
7540 7686 1049
7541 7533 101
7541 7499 136
7541 7543 8
7542 7520 236
7542 7445 430
7542 7552 212
7542 7678 464
7543 7541 8
7543 7551 123
7543 7575 132
7544 7529 221
7544 7497 154
7545 7505 280
7545 7481 211
7545 7586 427
7545 7671 445
7546 7531 108
7546 7592 171
7547 7548 200
7547 7534 246
7547 7636 299
7548 7547 200
7549 7536 106
7550 7528 400
7550 7226 2164
7550 7554 16
7550 7562 579
7551 7543 123
7551 7553 51
7551 7585 144
7552 7542 212
7552 7447 441
7552 7559 239
7552 7679 435
7553 7551 51
7553 7523 78
7553 7560 129
7554 7537 401
7554 7550 16
7554 7580 900
7554 8069 2228
7555 7556 64
7555 7507 67
7556 7555 64
7556 7517 97
7556 7579 99
7557 7483 677
7557 7456 398
7557 7647 929
7558 7477 255
7559 7552 239
7559 7446 451
7559 7682 423
7560 7553 129
7560 7536 57
7560 7591 128
7561 7535 750
7561 7491 212
7561 8210 2785
7562 7550 579
7562 7514 463
7562 7578 522
7563 7514 210
7563 7625 79
7564 7513 309
7564 7617 76
7565 7566 4450
7566 7565 4450
7567 7511 673
7567 7489 400
7567 7613 526
7568 7417 998
7568 7569 28
7568 7594 586
7568 7982 1550
7569 7568 28
7569 7408 1046
7569 7981 1540
7570 7533 141
7570 7575 117
7570 7644 228
7571 7572 22
7571 7581 61
7571 7616 142
7572 7571 22
7572 7597 109
7573 7526 491
7574 7515 316
7574 7652 128
7575 7570 117
7575 7543 132
7575 7585 122
7576 7577 161
7576 7653 128
7577 7576 161
7577 7506 68
7578 7562 522
7578 7513 401
7578 7596 3712
7579 7556 99
7579 8055 126
7580 7554 900
7580 7593 420
7580 7617 406
7581 7571 61
7581 7522 191
7581 7582 52
7582 7581 52
7582 7583 39
7582 7624 138
7583 7582 39
7583 7531 184
7583 7592 121
7584 7539 599
7584 7494 316
7584 7599 459
7584 7677 281
7585 7575 122
7585 7551 144
7585 7589 114
7585 7614 106
7586 7545 427
7586 7526 219
7586 7672 1022
7586 7704 437
7587 7588 12
7587 7595 1509
7587 7603 1004
7588 7587 12
7588 7607 1000
7588 7593 5009
7588 8125 1890
7589 7590 59
7589 7591 80
7589 7585 114
7589 7626 115
7590 7589 59
7591 7589 80
7591 7560 128
7591 7597 66
7591 7634 130
7592 7583 121
7592 7546 171
7592 7621 566
7592 7637 136
7593 7580 420
7593 7588 5009
7593 7625 573
7594 7509 272
7594 7568 586
7594 7636 882
7594 8029 1562
7595 6924 3748
7595 7587 1509
7595 7596 7
7596 6926 3743
7596 7595 7
7596 7578 3712
7597 7591 66
7597 7572 109
7597 7629 111
7598 7365 1140
7598 7530 689
7598 7602 21
7598 7650 1329
7599 7501 330
7599 7449 775
7599 7584 459
7599 7702 380
7600 7487 414
7600 7640 129
7600 7663 194
7601 7371 1114
7601 7795 59
7602 7598 21
7602 7540 704
7602 7659 1333
7602 7862 936
7603 7587 1004
7603 7508 312
7603 7606 126
7603 7607 12
7604 7605 1433
7604 7305 50
7604 7338 52
7605 7604 1433
7605 7796 54
7606 7603 126
7606 7508 316
7606 7608 15
7606 7646 1725
7607 7588 1000
7607 7603 12
7607 7608 131
7607 8134 1956
7608 7607 131
7608 7606 15
7608 7648 1721
7608 7716 440
7609 7610 68
7609 7619 128
7609 7696 285
7610 7609 68
7611 7612 830
7611 7485 465
7611 7642 233
7611 7662 140
7612 7611 830
7613 7567 526
7613 7539 275
7613 7638 216
7613 7676 184
7614 7615 42
7614 7585 106
7614 7618 59
7615 7614 42
7615 7657 121
7616 7571 142
7616 7622 88
7616 7639 58
7617 7580 406
7617 7564 76
7618 7614 59
7618 7626 51
7618 7665 121
7619 7609 128
7619 7620 141
7619 7670 290
7620 7619 141
7621 7592 566
7621 7632 108
7621 7712 378
7622 7616 88
7622 7624 5
7622 7643 57
7623 7511 373
7623 7707 1194
7623 7713 401
7624 7622 5
7624 7582 138
7624 7637 161
7625 7593 573
7625 7563 79
7626 7618 51
7626 7589 115
7626 7634 82
7627 7628 236
7628 7627 236
7629 7597 111
7629 7635 17
7629 7639 127
7630 7631 385
7631 7630 385
7631 7502 480
7631 7664 310
7631 7720 444
7632 7621 108
7633 7490 1058
7634 7626 82
7634 7591 130
7634 7635 46
7634 7669 121
7635 7629 17
7635 7634 46
7636 7547 299
7636 7594 882
7636 7647 454
7636 7779 529
7637 7624 161
7637 7592 136
7637 7641 60
7637 7649 56
7638 7613 216
7638 7658 219
7638 7690 183
7639 7629 127
7639 7616 58
7639 7643 89
7639 7680 135
7640 7600 129
7640 13802 556
7641 7637 60
7642 7611 233
7642 7505 454
7642 7656 80
7643 7639 89
7643 7622 57
7643 7649 164
7643 7683 140
7644 7645 264
7644 7570 228
7644 7657 201
7644 7748 430
7645 7644 264
7646 7606 1725
7646 7648 19
7646 7655 1570
7647 7557 929
7647 7374 1233
7647 7636 454
7648 7608 1721
7648 7646 19
7648 7661 1566
7648 7761 420
7649 7643 164
7649 7637 56
7649 7654 4
7650 7492 552
7650 7598 1329
7650 7655 24
7650 7659 18
7651 7652 111
7651 7653 110
7651 8054 1408
7652 7651 111
7652 7574 128
7653 7651 110
7653 7576 128
7654 7649 4
7654 7668 229
7654 7692 139
7655 7490 557
7655 7650 24
7655 7661 18
7655 7646 1570
7656 7642 80
7656 7660 14
7656 7662 329
7656 7671 198
7657 7644 201
7657 7615 121
7657 7665 102
7658 7638 219
7658 7677 220
7658 7700 183
7659 7650 18
7659 7602 1333
7659 7661 23
7659 8103 1572
7660 7656 14
7660 7667 339
7660 7675 187
7661 7655 18
7661 7659 23
7661 7648 1566
7661 8169 2103
7662 7611 140
7662 7656 329
7662 7667 13
7662 7756 3203
7663 7600 194
7663 7715 196
7664 7631 310
7664 7520 483
7664 7678 292
7664 7752 414
7665 7657 102
7665 7618 121
7665 7669 134
7665 7701 169
7666 7484 619
7666 7727 194
7667 7662 13
7667 7660 339
7667 7766 3192
7668 7654 229
7668 7699 135
7669 7665 134
7669 7634 121
7669 7680 175
7669 7697 123
7670 7619 290
7670 7681 38
7671 7656 198
7671 7545 445
7671 7675 11
7671 7704 427
7672 7586 1022
7672 7433 915
7672 7722 882
7672 7764 363
7673 7674 932
7674 7673 932
7674 7685 384
7674 7850 1064
7675 7660 187
7675 7671 11
7675 7706 427
7676 7613 184
7676 7690 215
7676 7707 188
7677 7658 220
7677 7584 281
7677 7702 453
7677 7721 249
7678 7664 292
7678 7542 464
7678 7679 262
7678 7777 405
7679 7678 262
7679 7552 435
7679 7682 314
7679 7788 421
7680 7669 175
7680 7639 135
7680 7683 91
7680 7705 124
7681 7670 38
7681 7698 85
7681 7696 391
7682 7679 314
7682 7559 423
7682 7791 415
7683 7680 91
7683 7643 140
7683 7692 160
7683 7718 204
7684 7454 1486
7684 7326 4779
7684 7686 11
7684 7756 1603
7685 7475 755
7685 7674 384
7685 7687 24
7685 7780 761
7686 7540 1049
7686 7684 11
7686 7766 1612
7686 7862 7882
7687 7475 784
7687 7685 24
7687 7776 725
7688 7689 43
7688 7710 355
7688 7846 665
7689 7688 43
7689 7452 1290
7690 7676 215
7690 7638 183
7690 7700 217
7690 7717 188
7691 7529 533
7691 7693 107
7691 7730 207
7692 7683 160
7692 7654 139
7692 7699 232
7692 7731 203
7693 7691 107
7694 7695 290
7694 7698 87
7694 7724 169
7695 7694 290
7696 7609 285
7696 7681 391
7696 7808 506
7697 7669 123
7697 7705 173
7697 7821 445
7698 7681 85
7698 7694 87
7698 7840 679
7699 7692 232
7699 7668 135
7699 7712 384
7699 7746 202
7700 7690 217
7700 7658 183
7700 7740 176
7701 7665 169
7702 7677 453
7702 7599 380
7702 7720 425
7703 7525 642
7703 7773 224
7704 7671 427
7704 7586 437
7704 7706 11
7704 7764 1078
7705 7697 173
7705 7680 124
7705 7711 81
7706 7675 427
7706 7704 11
7706 7759 209
7706 7768 1082
7707 7623 1194
7707 7676 188
7707 7717 216
7707 7754 163
7708 7709 164
7708 13800 1629
7709 7708 164
7709 7719 33
7709 7726 342
7710 7688 355
7710 7735 316
7710 7894 602
7711 7705 81
7711 7718 96
7712 7699 384
7712 7621 378
7712 7876 540
7713 7623 401
7713 7747 303
7713 7870 518
7714 7715 82
7714 7725 53
7714 7729 35
7715 7714 82
7715 7663 196
7716 7608 440
7716 7761 1602
7716 7880 543
7717 7707 216
7717 7690 188
7717 7740 214
7718 7711 96
7718 7683 204
7718 7731 156
7718 7837 368
7719 7709 33
7719 7762 64
7720 7702 425
7720 7631 444
7720 7752 339
7720 7769 118
7721 7677 249
7721 7741 36
7721 7740 325
7722 7672 882
7722 7723 133
7722 7849 424
7723 7722 133
7724 7694 169
7724 7739 184
7724 7771 253
7725 7714 53
7725 7726 64
7725 7729 41
7726 7709 342
7726 7725 64
7726 7737 603
7727 7728 114
7727 7666 194
7728 7727 114
7728 7729 11
7728 7751 64
7728 7772 486
7729 7725 41
7729 7714 35
7729 7728 11
7729 7733 38
7729 7765 85
7730 7474 1279
7730 7691 207
7730 7790 806
7730 7949 787
7731 7718 156
7731 7692 203
7731 7746 248
7732 7482 999
7732 7975 329
7733 7729 38
7733 7736 110
7733 7765 93
7734 7483 998
7734 7979 330
7735 7710 316
7735 7760 377
7735 7911 597
7736 7733 110
7736 7742 394
7736 7763 373
7737 7738 820
7737 7726 603
7737 7739 189
7737 7743 14
7738 7737 820
7738 13801 1977
7738 13802 1977
7739 7724 184
7739 7737 189
7739 7744 98
7740 7717 214
7740 7700 176
7740 7721 325
7741 7721 36
7741 7787 91
7742 7736 394
7742 7743 166
7742 7755 247
7743 7737 14
7743 7742 166
7743 7745 213
7743 7907 563
7744 7739 98
7744 7749 74
7744 7750 130
7745 7743 213
7745 7770 86
7746 7731 248
7746 7699 202
7746 7858 385
7747 7713 303
7747 7754 1082
7747 7826 888
7748 7644 430
7749 7744 74
7749 7750 56
7749 7758 54
7749 7770 103
7750 7744 130
7750 7749 56
7750 7767 85
7751 7728 64
7751 7765 24
7751 7789 104
7752 7720 339
7752 7664 414
7752 7777 353
7753 7535 786
7754 7747 1082
7754 7707 163
7754 7784 240
7754 7826 240
7755 7742 247
7755 13803 257
7756 7684 1603
7756 7757 2747
7756 7766 15
7756 7662 3203
7757 7756 2747
7758 7749 54
7758 13804 370
7759 7706 209
7760 7735 377
7760 7778 299
7760 7913 540
7761 7716 1602
7761 7648 420
7761 7774 537
7761 7951 715
7762 7763 42
7762 7719 64
7763 7762 42
7763 7736 373
7763 7847 308
7764 7704 1078
7764 7672 363
7764 7768 11
7764 7815 503
7765 7733 93
7765 7729 85
7765 7751 24
7765 7847 347
7765 7904 500
7766 7686 1612
7766 7756 15
7766 7667 3192
7767 7750 85
7767 7771 37
7767 7785 67
7768 7706 1082
7768 7764 11
7768 7820 500
7768 7861 351
7769 7720 118
7769 7807 80
7770 7749 103
7770 7745 86
7770 7841 255
7771 7724 253
7771 7767 37
7771 7909 691
7772 7728 486
7772 7773 18
7772 7803 114
7773 7772 18
7773 7703 224
7774 7761 537
7775 7776 1141
7776 7775 1141
7776 7687 725
7776 7780 16
7776 7801 369
7777 7752 353
7777 7678 405
7777 7788 293
7778 7760 299
7778 7783 39
7778 7901 455
7779 7636 529
7780 7776 16
7780 7685 761
7780 7801 366
7781 7782 194
7781 7786 202
7781 7831 185
7782 7781 194
7782 7793 204
7782 7829 168
7783 7778 39
7783 7792 302
7784 7754 240
7784 7843 220
7784 7848 358
7785 7767 67
7785 7798 51
7785 7802 64
7786 7787 45
7786 7781 202
7786 7832 269
7786 7836 176
7787 7786 45
7787 7741 91
7788 7777 293
7788 7679 421
7788 7791 396
7789 7751 104
7789 7803 457
7789 7906 417
7790 7730 806
7790 7821 466
7790 8019 836
7791 7788 396
7791 7682 415
7791 7792 301
7791 7845 198
7792 7791 301
7792 7783 302
7793 7782 204
7793 7806 187
7793 7834 145
7794 7795 626
7794 8045 307
7795 7794 626
7795 7601 59
7796 7797 625
7796 7605 54
7797 7796 625
7797 8049 316
7798 7785 51
7798 7799 18
7798 7802 51
7799 7798 18
7799 7800 18
7799 7804 52
7800 7799 18
7800 7805 21
7800 7809 54
7801 7776 369
7801 7780 366
7801 7810 337
7801 7818 333
7801 8342 3186
7801 8345 3187
7802 7798 51
7802 7785 64
7802 7804 21
7802 7813 66
7803 7789 457
7803 7772 114
7803 7864 237
7804 7799 52
7804 7802 21
7804 7809 19
7804 7813 39
7805 7800 21
7805 7812 21
7805 7814 53
7806 7793 187
7806 7807 68
7806 7842 117
7807 7806 68
7807 7769 80
7808 7696 506
7808 7840 239
7808 7922 442
7809 7800 54
7809 7804 19
7809 7814 18
7809 7816 36
7810 7811 3116
7810 7801 337
7810 7818 19
7810 8074 2266
7811 7810 3116
7812 7805 21
7812 7817 18
7812 7819 50
7813 7804 39
7813 7802 66
7813 7816 19
7814 7805 53
7814 7809 18
7814 7819 19
7814 7822 37
7815 7764 503
7815 7820 11
7815 7849 412
7816 7809 36
7816 7813 19
7816 7822 20
7817 7812 18
7817 7823 19
7817 7824 50
7818 7810 19
7818 7801 333
7818 8078 2267
7819 7812 50
7819 7814 19
7819 7824 18
7819 7825 39
7820 7768 500
7820 7815 11
7820 7851 417
7820 7898 292
7821 7790 466
7821 7697 445
7821 7837 265
7821 8105 955
7822 7814 37
7822 7816 20
7822 7825 15
7823 7817 19
7823 7827 21
7823 7828 51
7824 7817 50
7824 7819 18
7824 7828 19
7824 7830 43
7825 7819 39
7825 7822 15
7825 7830 21
7826 7747 888
7826 7754 240
7826 7843 241
7826 7896 262
7827 7823 21
7827 7835 51
7827 7839 78
7828 7823 51
7828 7824 19
7828 7833 41
7828 7835 23
7829 7782 168
7829 7831 190
7829 7834 197
7829 7887 211
7830 7824 43
7830 7825 21
7830 7833 18
7831 7781 185
7831 7829 190
7831 7836 200
7831 7881 198
7832 7786 269
7832 7836 206
7832 7868 147
7833 7828 41
7833 7830 18
7833 7838 22
7834 7829 197
7834 7793 145
7834 7842 178
7834 7886 189
7835 7827 51
7835 7828 23
7835 7838 42
7835 7839 26
7836 7786 176
7836 7831 200
7836 7832 206
7836 7877 161
7837 7821 265
7837 7718 368
7837 7858 431
7838 7835 42
7838 7833 22
7838 7844 24
7839 7827 78
7839 7835 26
7839 7844 44
7840 7808 239
7840 7698 679
7840 7923 315
7841 7770 255
7841 7857 244
7841 7909 439
7842 7834 178
7842 7806 117
7842 7878 145
7843 7826 241
7843 7784 220
7843 7848 189
7844 7839 44
7844 7838 24
7844 7857 92
7845 7791 198
7845 7900 80
7846 7688 665
7846 7866 226
7846 7944 429
7847 7763 308
7847 7765 347
7847 7895 157
7848 7843 189
7848 7784 358
7848 7854 82
7848 7896 695
7849 7815 412
7849 7722 424
7849 7851 13
7849 8117 3123
7850 7674 1064
7851 7820 417
7851 7849 13
7851 7956 387
7851 8123 3128
7852 7853 25
7852 7857 35
7852 7860 45
7853 7852 25
7853 13804 190
7854 7848 82
7854 7869 70
7855 7856 41
7855 7859 22
7855 7867 36
7856 7855 41
7857 7852 35
7857 7844 92
7857 7841 244
7858 7837 431
7858 7746 385
7858 7876 410
7858 8124 919
7859 7855 22
7859 7860 173
7859 7863 22
7859 7865 83
7860 7859 173
7860 7852 45
7860 7909 168
7861 7768 351
7861 7875 215
7861 7882 73
7862 7602 936
7862 7686 7882
7862 8490 3553
7863 7859 22
7863 7865 66
7863 7871 19
7864 7803 237
7865 7863 66
7865 7859 83
7865 7872 19
7866 7846 226
7866 7894 311
7866 7976 431
7867 7855 36
7867 7871 23
7867 7879 43
7868 7869 79
7868 7832 147
7868 7877 221
7868 7931 346
7869 7868 79
7869 7854 70
7870 7713 518
7870 7920 633
7870 7928 235
7871 7867 23
7871 7863 19
7871 7872 65
7871 7874 19
7872 7871 65
7872 7865 19
7872 7873 16
7873 7872 16
7873 7874 63
7873 7884 19
7874 7871 19
7874 7873 63
7874 7883 18
7875 7861 215
7875 7888 110
7875 7905 102
7876 7858 410
7876 7712 540
7876 7897 390
7876 7924 177
7877 7868 221
7877 7836 161
7877 7881 212
7877 7912 119
7878 7842 145
7878 7886 174
7878 7919 148
7879 7867 43
7879 7883 22
7879 7889 22
7880 7716 543
7880 7892 27
7880 7951 1460
7881 7877 212
7881 7831 198
7881 7887 188
7882 7861 73
7882 7905 198
7882 7950 281
7883 7879 22
7883 7874 18
7883 7884 59
7883 7890 17
7884 7883 59
7884 7873 19
7884 7885 37
7884 7891 18
7885 7884 37
7886 7834 189
7886 7878 174
7886 7887 193
7886 7927 169
7887 7881 188
7887 7829 211
7887 7886 193
7887 7929 181
7888 7875 110
7888 7898 154
7888 7917 121
7889 7879 22
7890 7883 17
7890 7891 56
7890 7893 107
7890 7903 59
7891 7890 56
7891 7884 18
7891 7893 11
7892 7880 27
7892 7914 454
7892 8022 472
7893 7891 11
7893 7890 107
7893 7909 90
7894 7710 602
7894 7866 311
7894 7911 420
7894 8013 429
7895 7847 157
7895 13806 181
7896 7826 262
7896 7848 695
7896 7966 288
7897 7876 390
7897 7928 456
7897 8108 733
7898 7888 154
7898 7820 292
7898 7902 30
7898 7921 107
7899 7900 100
7899 7908 584
7899 8058 521
7900 7899 100
7900 7845 80
7901 7778 455
7901 7913 393
7901 8026 460
7902 7898 30
7902 7942 323
7903 7890 59
7904 7765 500
7904 7906 13
7904 7907 683
7904 8002 346
7905 7882 198
7905 7875 102
7905 7917 118
7905 7933 146
7906 7904 13
7906 7789 417
7906 7916 945
7906 8002 347
7907 7743 563
7907 7904 683
7907 7909 582
7907 8112 717
7908 7899 584
7908 7943 409
7908 8064 489
7909 7910 19
7909 7893 90
7909 7860 168
7909 7841 439
7909 7907 582
7909 7771 691
7909 7918 155
7909 8116 717
7910 7909 19
7910 13804 398
7911 7735 597
7911 7894 420
7911 7913 435
7911 8037 431
7912 7877 119
7912 7929 430
7912 7931 98
7913 7901 393
7913 7760 540
7913 7911 435
7913 8036 429
7914 7892 454
7914 7959 998
7914 8028 407
7915 7141 6543
7915 8074 1482
7915 8078 1490
7916 7906 945
7917 7905 118
7917 7888 121
7917 7945 147
7918 7909 155
7918 7923 128
7919 7878 148
7919 7927 178
7919 7938 111
7920 7870 633
7920 7966 544
7920 8003 298
7921 7898 107
7921 7925 64
7921 7930 60
7922 7808 442
7922 7923 297
7922 8016 337
7923 7840 315
7923 7918 128
7923 7922 297
7924 7876 177
7925 7921 64
7925 7926 52
7925 7937 64
7926 7925 52
7926 7939 74
7927 7886 169
7927 7919 178
7927 7929 197
7927 7957 123
7928 7897 456
7928 7870 235
7928 8003 618
7928 8032 393
7929 7912 430
7929 7887 181
7929 7927 197
7929 7962 126
7930 7921 60
7930 7937 67
7930 7964 122
7931 7868 346
7931 7912 98
7931 7946 61
7931 7962 461
7932 7933 164
7933 7932 164
7933 7905 146
7933 7945 121
7933 7971 130
7934 7935 7493
7934 7936 2040
7934 7997 1570
7935 7934 7493
7936 7934 2040
7937 7930 67
7937 7925 64
7937 7939 67
7937 7972 121
7938 7919 111
7938 7952 50
7938 7957 188
7939 7937 67
7939 7926 74
7939 7942 90
7939 7986 146
7940 7941 59
7940 7969 86
7941 7940 59
7941 7947 145
7941 7973 104
7942 7939 90
7942 7902 323
7942 7948 113
7942 7994 148
7943 7908 409
7943 7990 353
7943 8077 357
7944 7846 429
7944 7970 81
7944 7976 278
7945 7933 121
7945 7917 147
7945 7955 80
7945 7983 133
7946 7931 61
7946 7993 70
7947 7941 145
7947 7953 122
7947 7985 116
7948 7942 113
7948 7956 133
7948 8000 140
7949 7433 4156
7949 7730 787
7949 7969 129
7949 8117 542
7950 7882 281
7950 7971 144
7950 7995 126
7951 7880 1460
7951 7761 715
7951 7959 18
7952 7938 50
7952 7989 77
7953 7947 122
7953 7954 59
7953 7960 84
7953 7999 122
7954 7953 59
7955 7945 80
7955 7964 64
7955 7998 131
7956 7948 133
7956 7851 387
7956 7958 53
7956 7977 72
7957 7927 123
7957 7938 188
7957 7962 203
7958 7956 53
7958 7961 57
7958 7980 74
7959 7914 998
7959 7951 18
7959 8067 291
7960 7953 84
7960 7963 44
7960 8004 123
7961 7958 57
7961 7965 57
7961 7984 76
7962 7931 461
7962 7929 126
7962 7957 203
7963 7960 44
7963 8007 125
7964 7955 64
7964 7930 122
7964 7972 78
7964 8006 129
7965 7961 57
7965 7967 72
7965 7988 78
7966 7920 544
7966 7896 288
7966 8024 523
7966 8095 346
7967 7965 72
7967 7968 49
7967 7996 80
7968 7967 49
7969 7949 129
7969 7940 86
7969 7973 63
7970 7944 81
7970 8008 292
7970 8129 589
7971 7950 144
7971 7933 130
7971 7983 120
7971 8009 124
7972 7964 78
7972 7937 121
7972 8010 116
7973 7969 63
7973 7941 104
7973 7985 139
7973 8030 172
7974 7975 655
7974 7978 17
7974 8014 164
7975 7974 655
7975 7732 329
7976 7866 431
7976 7944 278
7976 8008 79
7976 8013 370
7977 7956 72
7977 7980 52
7977 8033 166
7978 7974 17
7978 7979 651
7978 8018 172
7978 8044 1835
7979 7978 651
7979 7734 330
7980 7977 52
7980 7958 74
7980 7984 57
7980 8038 165
7981 7569 1540
7981 7488 5497
7981 7982 24
7981 8446 2830
7982 7568 1550
7982 7981 24
7982 8029 857
7982 8447 2822
7983 7971 120
7983 7945 133
7983 7998 68
7983 8023 121
7984 7980 57
7984 7961 76
7984 7988 56
7984 8047 164
7985 7973 139
7985 7947 116
7985 7999 118
7986 7987 9
7986 7939 146
7986 7994 89
7986 8017 79
7987 7986 9
7988 7984 56
7988 7965 78
7988 7996 73
7988 8052 164
7989 7990 49
7989 7952 77
7990 7989 49
7990 7943 353
7990 8012 220
7990 8096 269
7991 7992 218
7991 8024 404
7991 8068 263
7992 7991 218
7992 7993 66
7992 8015 247
7992 8090 245
7993 7992 66
7993 7946 70
7994 7986 89
7994 7942 148
7994 8000 114
7994 8031 125
7995 7950 126
7995 8009 120
7995 8073 195
7996 7988 73
7996 7967 80
7996 8001 41
7996 8057 162
7997 7934 1570
7997 7537 1622
7997 8069 1597
7998 7983 68
7998 7955 131
7998 8005 68
7999 7985 118
7999 7953 122
7999 8004 84
7999 8059 166
8000 7994 114
8000 7948 140
8000 8040 129
8001 7996 41
8002 7904 346
8002 7906 347
8002 8025 77
8003 7928 618
8003 7920 298
8003 8095 552
8004 7999 84
8004 7960 123
8004 8007 45
8004 8066 164
8005 7998 68
8005 8006 10
8005 8046 125
8006 8005 10
8006 7964 129
8006 8010 76
8007 8004 45
8007 7963 125
8007 8019 126
8007 8076 163
8008 7976 79
8008 7970 292
8008 8043 375
8008 8143 592
8009 7995 120
8009 7971 124
8009 8023 120
8009 8079 179
8010 8006 76
8010 7972 116
8010 8011 13
8011 8010 13
8011 8017 109
8011 8061 123
8012 7990 220
8012 8020 231
8012 8099 227
8013 7894 429
8013 7976 370
8013 8037 493
8013 8043 83
8014 7974 164
8014 13816 158
8015 7992 247
8015 8020 215
8015 8098 214
8016 7922 337
8016 8021 102
8016 8087 573
8017 8011 109
8017 7986 79
8017 8027 48
8018 7978 172
8018 13814 61
8019 8007 126
8019 7790 836
8019 8105 642
8019 8154 694
8020 8015 215
8020 8012 231
8020 8101 209
8021 8016 102
8021 8087 156
8021 8087 258
8022 7892 472
8022 8028 341
8022 8147 593
8023 8009 120
8023 7983 121
8023 8039 108
8023 8088 163
8024 7966 523
8024 7991 404
8024 8068 299
8024 8131 397
8025 8002 77
8026 7901 460
8026 8036 381
8026 8071 80
8027 8017 48
8027 8031 90
8027 8063 62
8028 8022 341
8028 7914 407
8028 8067 985
8028 8159 652
8029 7594 1562
8029 7982 857
8029 8080 1238
8029 8208 1063
8030 7973 172
8030 8034 36
8031 8027 90
8031 7994 125
8031 8040 114
8031 8106 206
8032 7928 393
8032 8108 340
8033 7977 166
8033 8038 49
8033 8053 26
8034 8030 36
8034 8035 52
8034 8041 42
8035 8034 52
8036 8026 381
8036 7913 429
8036 8037 495
8036 8081 83
8037 7911 431
8037 8013 493
8037 8036 495
8037 8083 84
8038 8033 49
8038 7980 165
8038 8047 57
8038 8085 94
8039 8023 108
8039 8046 23
8039 8097 147
8040 8031 114
8040 8000 129
8040 8053 128
8040 8102 161
8041 8034 42
8041 8042 116
8041 8050 45
8042 8041 116
8043 8013 83
8043 8008 375
8043 8083 509
8043 8151 589
8044 7978 1835
8044 8045 582
8044 8048 14
8044 8212 1055
8045 8044 582
8045 7794 307
8046 8039 23
8046 8005 125
8046 8061 132
8047 8038 57
8047 7984 164
8047 8052 53
8047 8093 108
8048 8044 14
8048 8049 576
8048 8080 880
8048 8224 1276
8049 8048 576
8049 7797 316
8050 8041 45
8050 8051 64
8050 8059 117
8051 8050 64
8052 8047 53
8052 7988 164
8052 8057 75
8052 8092 94
8053 8040 128
8053 8033 26
8053 8091 95
8054 7651 1408
8054 8320 199
8055 8056 1519
8055 7579 126
8056 8055 1519
8056 8314 199
8057 8052 75
8057 7996 162
8057 8062 69
8057 8065 21
8058 7899 521
8058 8060 287
8058 8118 251
8059 8050 117
8059 7999 166
8059 8066 85
8060 8058 287
8060 8064 274
8060 8110 220
8061 8046 132
8061 8011 123
8061 8072 93
8061 8086 58
8062 8057 69
8062 8070 64
8062 8089 69
8063 8027 62
8063 8072 27
8063 8100 110
8064 7908 489
8064 8060 274
8064 8077 301
8064 8109 212
8065 8057 21
8066 8059 85
8066 8004 164
8066 8076 46
8067 8028 985
8067 7959 291
8068 8024 299
8068 7991 263
8068 8090 272
8068 8135 374
8069 7997 1597
8069 7554 2228
8069 8128 1631
8069 8370 2603
8070 8062 64
8070 8104 125
8071 8026 80
8071 8081 373
8071 8157 575
8072 8061 93
8072 8063 27
8072 8094 65
8073 7995 195
8073 8079 82
8073 8127 285
8074 7915 1482
8074 8075 463
8074 8078 18
8074 7810 2266
8075 8074 463
8076 8066 46
8076 8007 163
8076 8082 19
8077 7943 357
8077 8064 301
8077 8096 324
8077 8111 191
8078 7915 1490
8078 8074 18
8078 7818 2267
8078 8241 1430
8079 8073 82
8079 8009 179
8079 8088 120
8080 8048 880
8080 8029 1238
8080 8215 1105
8081 8071 373
8081 8036 83
8081 8083 506
8081 8164 589
8082 8076 19
8083 8037 84
8083 8043 509
8083 8081 506
8083 8165 584
8084 7500 3171
8085 8038 94
8086 8061 58
8087 8021 156
8087 8021 258
8087 8016 573
8088 8079 120
8088 8023 163
8088 8097 117
8089 8062 69
8090 8068 272
8090 7992 245
8090 8098 229
8090 8136 327
8091 8053 95
8092 8052 94
8093 8047 108
8094 8072 65
8095 8003 552
8095 7966 346
8095 8131 587
8096 7990 269
8096 8077 324
8096 8099 267
8096 8140 340
8097 8088 117
8097 8039 147
8097 8133 283
8098 8090 229
8098 8015 214
8098 8101 227
8098 8137 299
8099 8012 227
8099 8096 267
8099 8101 260
8099 8139 304
8100 8063 110
8101 8098 227
8101 8020 209
8101 8099 260
8101 8138 292
8102 8040 161
8103 7659 1572
8103 8107 69
8103 8107 102
8104 8070 125
8105 8019 642
8105 7821 955
8105 8124 676
8105 8247 1366
8106 8031 206
8107 8103 69
8107 8103 102
8107 8167 463
8108 7897 733
8108 8032 340
8108 8132 111
8109 8064 212
8109 8110 255
8109 8111 299
8109 8144 220
8110 8109 255
8110 8060 220
8110 8118 279
8110 8145 253
8111 8077 191
8111 8109 299
8111 8142 209
8112 7907 717
8112 8113 162
8112 8116 586
8112 8162 381
8113 8112 162
8114 8115 1143
8114 8130 692
8115 8114 1143
8115 7461 2322
8115 8189 661
8116 7909 717
8116 8112 586
8116 8121 198
8117 7849 3123
8117 7949 542
8117 8154 658
8118 8110 279
8118 8058 251
8118 8146 268
8119 8120 474
8119 8122 1666
8119 8125 651
8119 8216 900
8120 8119 474
8121 8116 198
8121 8168 408
8122 8119 1666
8122 8128 1147
8122 8363 1853
8123 7851 3128
8123 8158 659
8123 8186 602
8124 8105 676
8124 7858 919
8124 8132 904
8124 8148 268
8125 8119 651
8125 7588 1890
8125 8134 873
8125 8217 916
8126 8127 383
8127 8126 383
8127 8073 285
8127 8133 224
8128 8069 1631
8128 8122 1147
8128 8370 1863
8129 7970 589
8129 8130 55
8129 8143 378
8129 8175 459
8130 8129 55
8130 8114 692
8131 8095 587
8131 8024 397
8131 8135 363
8132 8124 904
8132 8108 111
8132 8152 236
8133 8127 224
8133 8097 283
8133 8172 337
8134 8125 873
8134 7607 1956
8134 8141 358
8134 8444 2132
8135 8131 363
8135 8068 374
8135 8136 253
8136 8135 253
8136 8090 327
8136 8137 230
8136 8317 1453
8137 8136 230
8137 8098 299
8137 8138 210
8138 8137 210
8138 8101 292
8138 8139 280
8138 8150 142
8139 8138 280
8139 8099 304
8139 8140 280
8139 8160 190
8140 8139 280
8140 8096 340
8140 8142 300
8140 8166 242
8141 8134 358
8141 8147 305
8141 8176 424
8142 8140 300
8142 8111 209
8142 8144 294
8142 8174 271
8143 8008 592
8143 8129 378
8143 8151 447
8143 8185 421
8144 8142 294
8144 8109 220
8144 8145 236
8144 8177 287
8145 8144 236
8145 8110 253
8145 8146 238
8145 8179 274
8146 8145 238
8146 8118 268
8146 8149 167
8146 8183 271
8147 8141 305
8147 8022 593
8147 8159 297
8147 8176 203
8148 8124 268
8148 8153 749
8148 8273 1107
8149 8146 167
8149 8156 177
8150 8138 142
8150 8160 264
8150 8173 139
8151 8043 589
8151 8143 447
8151 8165 605
8151 8196 385
8152 8132 236
8152 8153 204
8152 8161 444
8152 8288 1229
8153 8152 204
8153 8148 749
8153 8280 1126
8154 8117 658
8154 8019 694
8154 8155 16
8155 8154 16
8155 8158 11
8155 8247 1180
8156 8157 136
8156 8149 177
8157 8156 136
8157 8071 575
8157 8164 364
8157 8225 700
8158 8123 659
8158 8155 11
8158 8263 996
8158 8270 1444
8159 8147 297
8159 8028 652
8159 8178 588
8160 8150 264
8160 8139 190
8160 8166 263
8160 8170 76
8161 8152 444
8162 8112 381
8162 8163 272
8162 8219 770
8163 8162 272
8163 8168 524
8163 8190 270
8164 8157 364
8164 8081 589
8164 8165 587
8164 8203 364
8165 8083 584
8165 8151 605
8165 8164 587
8165 8206 369
8166 8160 263
8166 8140 242
8166 8174 321
8166 8188 227
8167 8107 463
8167 8169 22
8167 8471 2090
8168 8121 408
8168 8163 524
8168 8171 459
8168 8195 270
8169 7661 2103
8169 8167 22
8169 8180 1207
8169 8470 2083
8170 8160 76
8171 8168 459
8171 8198 279
8172 8133 337
8173 8150 139
8173 8188 494
8173 8214 404
8174 8166 321
8174 8142 271
8174 8177 281
8174 8197 267
8175 8129 459
8175 8185 438
8175 8221 534
8176 8141 424
8176 8147 203
8176 8382 1482
8176 8456 2361
8177 8174 281
8177 8144 287
8177 8179 225
8177 8201 264
8178 8159 588
8178 8180 536
8179 8177 225
8179 8145 274
8179 8183 207
8179 8202 262
8180 8169 1207
8180 8178 536
8181 8182 12
8181 8194 459
8181 8274 879
8182 8181 12
8182 8193 461
8183 8179 207
8183 8146 271
8183 8207 255
8184 7461 4606
8184 8189 857
8184 8231 1186
8185 8143 421
8185 8175 438
8185 8196 505
8185 8222 402
8186 8187 910
8186 8123 602
8186 8256 683
8187 8186 910
8188 8173 494
8188 8166 227
8188 8197 308
8189 8184 857
8189 8115 661
8189 8199 797
8189 8231 440
8190 8163 270
8190 8191 331
8190 8195 527
8191 8190 331
8192 8193 1011
8193 8192 1011
8193 8182 461
8193 8194 11
8193 8211 172
8194 8193 11
8194 8181 459
8194 8213 175
8194 8264 740
8195 8168 270
8195 8190 527
8195 8198 458
8195 8234 435
8196 8151 385
8196 8185 505
8196 8206 659
8196 8226 359
8197 8188 308
8197 8174 267
8197 8201 278
8198 8171 279
8198 8195 458
8198 8236 420
8199 8189 797
8199 8200 1214
8199 8204 322
8199 8231 997
8200 8199 1214
8201 8197 278
8201 8177 264
8201 8202 224
8202 8201 224
8202 8179 262
8202 8207 212
8203 8164 364
8203 8206 641
8203 8230 341
8204 8199 322
8204 7377 3728
8204 8205 7
8204 8404 1313
8205 8204 7
8205 7376 3732
8205 8210 1338
8205 8251 538
8206 8165 369
8206 8196 659
8206 8203 641
8206 8232 348
8207 8202 212
8207 8183 255
8207 8323 1006
8208 8029 1063
8208 8209 922
8208 8215 1198
8208 8346 1054
8209 8208 922
8210 7561 2785
8210 8205 1338
8210 8265 629
8211 8193 172
8211 8213 10
8211 8218 492
8212 8044 1055
8212 8248 487
8212 8267 724
8213 8211 10
8213 8194 175
8213 8220 491
8213 8229 287
8214 8173 404
8215 8080 1105
8215 8208 1198
8215 8328 848
8216 8119 900
8216 8217 551
8216 8389 1100
8217 8216 551
8217 8125 916
8217 8441 1270
8218 8211 492
8218 8219 75
8218 8220 13
8219 8162 770
8219 8218 75
8219 8223 62
8220 8218 13
8220 8213 491
8220 8223 64
8221 8175 534
8221 8222 509
8221 8227 89
8222 8185 402
8222 8221 509
8222 8226 550
8222 8228 88
8223 8219 62
8223 8220 64
8223 8239 150
8224 8048 1276
8224 8245 196
8224 8255 288
8225 8157 700
8225 8230 449
8225 8233 93
8226 8196 359
8226 8222 550
8226 8232 686
8226 8235 89
8227 8221 89
8227 8228 513
8227 8302 469
8228 8222 88
8228 8227 513
8228 8235 555
8228 8296 411
8229 8213 287
8229 8239 528
8229 8272 312
8230 8225 449
8230 8203 341
8230 8232 690
8230 8242 89
8231 8189 440
8231 8199 997
8231 8184 1186
8232 8206 348
8232 8226 686
8232 8230 690
8232 8244 90
8233 8225 93
8233 8242 454
8233 8275 289
8234 8195 435
8234 8236 456
8234 8304 414
8235 8226 89
8235 8228 555
8235 8244 688
8235 8290 339
8236 8198 420
8236 8234 456
8236 8305 400
8237 8238 2985
8237 8243 41
8237 8308 605
8238 8237 2985
8238 7231 3852
8239 8223 150
8239 8229 528
8239 8279 283
8240 8241 3022
8240 7228 3840
8241 8240 3022
8241 8078 1430
8241 8243 28
8241 8294 398
8242 8233 454
8242 8230 89
8242 8244 702
8242 8289 300
8243 8237 41
8243 8241 28
8243 8293 385
8244 8232 90
8244 8235 688
8244 8242 702
8244 8300 306
8245 8224 196
8245 8246 104
8245 8266 137
8245 8278 305
8246 8245 104
8247 8155 1180
8247 8105 1366
8247 8268 259
8248 8212 487
8248 8254 22
8248 8266 581
8249 8250 2055
8249 13853 164
8250 8249 2055
8250 8252 11
8250 8269 122
8251 8205 538
8251 8265 1315
8251 8405 775
8252 8253 2051
8252 8250 11
8252 8262 23
8252 8271 135
8253 8252 2051
8253 13851 227
8254 8248 22
8254 8287 56
8255 8224 288
8255 8292 61
8256 8257 606
8256 8186 683
8256 8263 440
8256 8477 1309
8257 8256 606
8258 8259 238
8259 8258 238
8259 8260 560
8259 8269 67
8259 8286 269
8260 8259 560
8261 8262 99
8262 8261 99
8262 8252 23
8262 8303 251
8262 8354 556
8263 8256 440
8263 8158 996
8263 8270 1178
8264 8194 740
8264 8272 451
8264 8274 117
8265 8251 1315
8265 8210 629
8265 8305 1123
8266 8248 581
8266 8245 137
8266 8267 10
8266 8278 199
8267 8212 724
8267 8266 10
8267 8277 76
8267 8281 196
8268 8247 259
8268 8270 11
8268 8273 372
8269 8250 122
8269 8259 67
8269 8271 17
8269 8322 426
8270 8158 1444
8270 8268 11
8270 8263 1178
8270 8276 374
8271 8252 135
8271 8269 17
8271 8303 145
8271 8374 692
8272 8229 312
8272 8264 451
8272 8279 546
8272 8385 585
8273 8268 372
8273 8148 1107
8273 8276 11
8273 8280 746
8274 8181 879
8274 8264 117
8274 8372 517
8275 8233 289
8275 8289 472
8275 8331 363
8276 8270 374
8276 8273 11
8276 8282 746
8276 8482 1201
8277 8267 76
8277 8281 160
8277 8297 86
8277 8310 186
8278 8266 199
8278 8245 305
8278 8298 95
8279 8239 283
8279 8272 546
8279 8301 1028
8279 8390 596
8280 8273 746
8280 8153 1126
8280 8282 11
8280 8288 638
8281 8277 160
8281 8267 196
8281 8299 76
8282 8276 746
8282 8280 11
8282 8295 647
8282 8491 1213
8283 8284 502
8283 8285 29
8283 8294 705
8284 8283 502
8285 8283 29
8286 8259 269
8286 8287 113
8286 8291 23
8286 8313 131
8287 8286 113
8287 8254 56
8288 8280 638
8288 8152 1229
8288 8295 14
8288 8311 1889
8289 8275 472
8289 8242 300
8289 8300 745
8289 8341 316
8290 8235 339
8290 8296 565
8290 8300 683
8290 8364 401
8291 8286 23
8291 8292 122
8291 8297 18
8291 8307 70
8292 8291 122
8292 8255 61
8293 8243 385
8293 8294 22
8293 8469 1150
8294 8293 22
8294 8241 398
8294 8283 705
8294 8460 1024
8295 8282 647
8295 8288 14
8295 8316 1881
8295 8506 1489
8296 8290 565
8296 8228 411
8296 8302 504
8296 8371 427
8297 8291 18
8297 8277 86
8297 8307 58
8297 8310 146
8298 8278 95
8298 8306 58
8299 8281 76
8299 8309 86
8300 8244 306
8300 8290 683
8300 8289 745
8300 8349 335
8301 8279 1028
8301 8304 281
8301 8419 619
8302 8296 504
8302 8227 469
8302 8378 419
8303 8262 251
8303 8271 145
8303 8361 404
8304 8234 414
8304 8301 281
8304 8305 461
8305 8236 400
8305 8304 461
8305 8265 1123
8305 8399 492
8306 8298 58
8306 8332 219
8306 8333 218
8307 8291 70
8307 8297 58
8307 8312 45
8308 8237 605
8309 8299 86
8309 8326 166
8309 8334 184
8310 8297 146
8310 8277 186
8310 8326 180
8310 8329 177
8311 8288 1889
8311 8316 11
8311 8317 221
8312 8307 45
8312 8366 145
8313 8286 131
8313 8362 147
8314 8315 1669
8314 8056 199
8315 8314 1669
8315 8379 341
8315 8388 382
8316 8295 1881
8316 8311 11
8316 8318 221
8316 8321 391
8317 8311 221
8317 8136 1453
8317 8318 11
8317 8323 1730
8318 8316 221
8318 8317 11
8318 8325 1730
8319 8320 1738
8319 8373 252
8319 8387 313
8320 8319 1738
8320 8054 199
8321 8316 391
8322 8269 426
8322 8329 179
8322 8343 130
8323 8317 1730
8323 8207 1006
8323 8324 66
8323 8325 11
8324 8323 66
8324 8330 219
8325 8318 1730
8325 8323 11
8325 8327 66
8326 8310 180
8326 8309 166
8326 8329 40
8326 8339 50
8327 8325 66
8327 8338 218
8328 8215 848
8328 8336 748
8328 8346 1308
8328 8492 1775
8329 8310 177
8329 8326 40
8329 8322 179
8329 8340 35
8330 8331 352
8330 8324 219
8331 8330 352
8331 8275 363
8331 8337 11
8331 8341 495
8332 8306 219
8332 8353 31
8333 8306 218
8333 8348 43
8334 8309 184
8334 8351 41
8335 8336 151
8336 8335 151
8336 8328 748
8336 8339 68
8336 8377 168
8337 8338 353
8337 8331 11
8337 8344 495
8337 8415 355
8338 8337 353
8338 8327 218
8339 8326 50
8339 8336 68
8339 8340 43
8339 8347 32
8340 8329 35
8340 8339 43
8340 8343 93
8340 8350 68
8341 8331 495
8341 8289 316
8341 8344 11
8341 8349 782
8342 7801 3186
8342 8460 576
8343 8322 130
8343 8340 93
8343 8368 141
8344 8337 495
8344 8341 11
8344 8356 782
8344 8420 337
8345 7801 3187
8345 8461 622
8346 8328 1308
8346 8208 1054
8346 8447 1547
8346 8519 1114
8347 8339 32
8347 8348 3
8347 8352 47
8347 8355 48
8348 8347 3
8348 8333 43
8349 8341 782
8349 8300 335
8349 8356 11
8349 8364 661
8350 8340 68
8350 8351 46
8350 8355 8
8350 8359 26
8351 8350 46
8351 8334 41
8352 8347 47
8352 8353 57
8352 8369 59
8352 8377 96
8353 8352 57
8353 8332 31
8354 8262 556
8354 8376 1329
8354 8561 1316
8355 8350 8
8355 8347 48
8355 8360 22
8355 8369 70
8356 8344 782
8356 8349 11
8356 8367 661
8356 8435 328
8357 8358 1052
8358 8357 1052
8358 8672 37
8359 8350 26
8359 8368 44
8360 8355 22
8360 8398 111
8361 8303 404
8361 8362 128
8361 8365 21
8361 8556 1254
8362 8361 128
8362 8313 147
8363 8122 1853
8363 8370 1227
8363 8389 1708
8363 8511 998
8364 8349 661
8364 8290 401
8364 8367 11
8364 8371 546
8365 8361 21
8365 8366 145
8365 8391 205
8365 8557 1239
8366 8365 145
8366 8312 145
8367 8356 661
8367 8364 11
8367 8375 546
8367 8440 324
8368 8343 141
8368 8359 44
8368 8374 17
8368 8414 218
8369 8355 70
8369 8352 59
8369 8401 158
8369 8414 182
8370 8069 2603
8370 8128 1863
8370 8363 1227
8370 8504 925
8371 8364 546
8371 8296 427
8371 8375 11
8371 8378 453
8372 8274 517
8372 8376 11
8372 8385 457
8373 8319 252
8373 8393 111
8373 8416 229
8374 8271 692
8374 8368 17
8374 8384 50
8374 8396 138
8375 8367 546
8375 8371 11
8375 8380 453
8375 8445 320
8376 8372 11
8376 8354 1329
8376 8386 458
8376 8564 1313
8377 8352 96
8377 8336 168
8377 8401 112
8378 8371 453
8378 8302 419
8378 8380 11
8378 8381 187
8379 8315 341
8379 8392 88
8379 8417 212
8380 8375 453
8380 8378 11
8380 8383 185
8380 8449 344
8381 8378 187
8381 8394 181
8382 8176 1482
8382 8448 320
8382 8456 1606
8383 8380 185
8383 8403 181
8384 8374 50
8384 8391 62
8385 8272 585
8385 8372 457
8385 8386 11
8385 8390 577
8386 8385 11
8386 8376 458
8386 8400 576
8387 8319 313
8387 8467 80
8388 8315 382
8388 8453 78
8389 8363 1708
8389 8216 1100
8389 8521 921
8390 8279 596
8390 8385 577
8390 8400 11
8390 8419 1029
8391 8365 205
8391 8384 62
8391 8397 8
8391 8431 256
8392 8379 88
8392 8393 74
8392 8417 88
8393 8373 111
8393 8392 74
8393 8416 83
8394 8395 1076
8394 8381 181
8395 8394 1076
8395 8409 230
8396 8374 138
8396 8418 115
8396 8436 207
8397 8391 8
8397 8398 65
8397 8418 163
8397 8418 217
8398 8397 65
8398 8360 111
8399 8305 492
8399 8405 2549
8399 8406 11
8399 8419 810
8400 8390 11
8400 8386 576
8400 8424 1029
8400 8475 536
8401 8369 158
8401 8377 112
8401 8488 776
8402 8403 1093
8402 8413 224
8403 8402 1093
8403 8383 181
8404 8204 1313
8404 8405 11
8404 8408 12
8404 8410 410
8405 8404 11
8405 8251 775
8405 8399 2549
8405 8407 11
8406 8399 11
8406 8407 2550
8406 8424 812
8407 8405 11
8407 8406 2550
8407 8408 11
8407 8500 801
8408 8404 12
8408 8407 11
8408 8412 407
8408 8499 788
8409 8410 248
8409 8395 230
8410 8409 248
8410 8411 862
8410 8404 410
8410 8412 11
8411 8410 862
8412 8413 239
8412 8410 11
8412 8408 407
8412 8499 768
8413 8412 239
8413 8402 224
8414 8368 218
8414 8369 182
8414 8474 598
8415 8337 355
8415 8420 590
8415 8472 426
8416 8373 229
8416 8393 83
8416 8466 329
8417 8392 88
8417 8379 212
8417 8454 171
8418 8397 163
8418 8396 115
8418 8397 217
8418 8431 35
8419 8301 619
8419 8390 1029
8419 8424 11
8419 8399 810
8420 8415 590
8420 8344 337
8420 8435 775
8420 8485 481
8421 8422 56
8421 8423 203
8421 8425 30
8422 8421 56
8423 8421 203
8424 8419 11
8424 8400 1029
8424 8406 812
8424 8476 435
8425 8421 30
8425 8426 201
8425 8427 31
8426 8425 201
8427 8425 31
8427 8428 203
8427 8429 37
8428 8427 203
8429 8427 37
8429 8430 206
8429 8432 36
8430 8429 206
8431 8418 35
8431 8391 256
8431 8436 114
8431 8459 251
8432 8429 36
8432 8433 205
8432 8434 286
8432 8487 480
8433 8432 205
8434 8432 286
8435 8420 775
8435 8356 328
8435 8440 614
8435 8484 435
8436 8431 114
8436 8396 207
8436 8463 319
8437 8438 350
8438 8437 350
8438 8439 217
8438 8441 368
8438 8522 726
8439 8438 217
8440 8435 614
8440 8367 324
8440 8445 526
8440 8481 409
8441 8438 368
8441 8217 1270
8441 8442 408
8441 8527 733
8442 8441 408
8442 8443 323
8442 8444 162
8442 8529 725
8443 8442 323
8444 8442 162
8444 8134 2132
8444 8448 707
8445 8440 526
8445 8375 320
8445 8449 365
8445 8480 396
8446 7981 2830
8446 8447 25
8446 8464 1421
8446 8514 699
8447 7982 2822
8447 8446 25
8447 8346 1547
8447 8512 685
8448 8444 707
8448 8382 320
8448 8523 1581
8448 8530 713
8449 8445 365
8449 8380 344
8449 8483 427
8450 8451 187
8451 8450 187
8451 8452 133
8451 8455 245
8451 8462 166
8452 8451 133
8453 8454 225
8453 8388 78
8454 8453 225
8454 8417 171
8454 8497 466
8455 8451 245
8456 8382 1606
8456 8176 2361
8456 8457 702
8456 8470 733
8456 8523 669
8457 8456 702
8458 8459 605
8459 8458 605
8459 8431 251
8459 8463 165
8460 8294 1024
8460 8342 576
8460 8461 61
8460 8469 119
8461 8460 61
8461 8345 622
8461 8473 135
8461 8792 4646
8462 8451 166
8462 8468 203
8462 8479 208
8463 8459 165
8463 8436 319
8463 8474 145
8463 8550 868
8464 8446 1421
8464 8465 2960
8464 8489 771
8464 8526 507
8465 8464 2960
8466 8416 329
8466 8467 377
8466 8498 314
8467 8466 377
8467 8387 80
8468 8462 203
8469 8293 1150
8469 8460 119
8469 8473 77
8469 8509 426
8470 8456 733
8470 8169 2083
8470 8471 22
8470 8532 541
8471 8470 22
8471 8167 2090
8471 8490 1767
8471 8525 471
8472 8415 426
8472 8486 297
8472 8543 643
8473 8469 77
8473 8461 135
8473 8508 351
8473 8793 4519
8474 8463 145
8474 8414 598
8474 8488 168
8474 8548 733
8475 8400 536
8475 8476 1032
8475 8520 352
8476 8424 435
8476 8475 1032
8476 8531 395
8477 8256 1309
8477 8478 380
8477 8887 5182
8478 8477 380
8478 8479 712
8478 8545 472
8479 8478 712
8479 8462 208
8479 8482 1000
8480 8445 396
8480 8481 478
8480 8483 262
8481 8440 409
8481 8480 478
8481 8484 551
8481 8535 409
8482 8276 1201
8482 8479 1000
8482 8487 408
8483 8480 262
8483 8449 427
8483 8533 463
8484 8435 435
8484 8481 551
8484 8485 744
8484 8539 400
8485 8420 481
8485 8484 744
8485 8486 558
8485 8540 395
8486 8472 297
8486 8485 558
8486 8542 394
8487 8482 408
8487 8432 480
8487 8491 288
8487 8835 4460
8488 8474 168
8488 8401 776
8488 8547 581
8489 8464 771
8489 8495 241
8489 8526 825
8490 8471 1767
8490 7862 3553
8490 8496 3277
8490 8613 947
8491 8487 288
8491 8282 1213
8491 8506 1344
8492 8328 1775
8493 8494 378
8494 8493 378
8494 8603 943
8495 8489 241
8495 8528 902
8495 8593 1997
8496 8490 3277
8497 8454 466
8497 8621 68
8498 8466 314
8498 8620 67
8499 8412 768
8499 8408 788
8499 8500 13
8499 8658 1612
8500 8499 13
8500 8407 801
8500 8591 2516
8500 8659 1596
8501 8502 529
8501 8503 12
8501 8513 589
8502 8501 529
8502 8512 309
8503 8501 12
8503 8505 525
8503 8518 588
8503 8599 609
8504 8370 925
8504 8507 4785
8504 8511 1216
8504 8651 1258
8505 8503 525
8505 8510 182
8506 8491 1344
8506 8295 1489
8506 8652 1388
8507 8504 4785
8508 8473 351
8508 8706 6767
8509 8469 426
8510 8505 182
8510 8515 137
8510 8643 1133
8511 8504 1216
8511 8363 998
8511 8516 1386
8512 8502 309
8512 8447 685
8512 8514 37
8512 8515 15
8513 8501 589
8513 8518 12
8513 8519 242
8514 8512 37
8514 8446 699
8514 8517 11
8514 8526 1293
8515 8510 137
8515 8512 15
8515 8517 32
8515 8617 1501
8516 8511 1386
8516 8521 299
8516 8584 427
8517 8515 32
8517 8514 11
8517 8528 1295
8517 8616 1454
8518 8513 12
8518 8503 588
8518 8524 243
8518 8604 551
8519 8346 1114
8519 8513 242
8519 8524 12
8519 8547 1204
8520 8475 352
8520 8531 1028
8520 8567 889
8520 8570 336
8521 8516 299
8521 8389 921
8521 8522 397
8521 8589 449
8522 8521 397
8522 8438 726
8522 8527 407
8522 8577 379
8523 8448 1581
8523 8456 669
8523 8530 1442
8523 8532 841
8523 8711 2113
8524 8519 12
8524 8518 243
8524 8551 1195
8525 8471 471
8525 8534 68
8525 8541 133
8526 8464 507
8526 8489 825
8526 8528 12
8526 8514 1293
8527 8522 407
8527 8441 733
8527 8529 407
8527 8566 279
8528 8526 12
8528 8495 902
8528 8517 1295
8528 8616 767
8529 8527 407
8529 8442 725
8529 8530 807
8529 8562 219
8530 8529 807
8530 8448 713
8530 8523 1442
8530 8609 606
8531 8476 395
8531 8520 1028
8531 8537 553
8531 8576 332
8532 8523 841
8532 8470 541
8532 8534 22
8532 8648 1070
8533 8483 463
8533 8535 605
8533 8549 119
8534 8532 22
8534 8525 68
8534 8541 108
8534 8648 1073
8535 8481 409
8535 8533 605
8535 8539 507
8535 8552 107
8536 8537 81
8537 8536 81
8537 8531 553
8537 8538 328
8537 8579 327
8538 8537 328
8539 8484 400
8539 8535 507
8539 8540 661
8539 8555 104
8540 8485 395
8540 8539 661
8540 8542 560
8540 8558 102
8541 8534 108
8541 8525 133
8541 8613 2032
8542 8486 394
8542 8540 560
8542 8543 583
8542 8559 101
8543 8472 643
8543 8542 583
8543 8560 104
8543 8615 1293
8544 8545 120
8545 8544 120
8545 8478 472
8545 8546 138
8545 8568 173
8546 8545 138
8547 8488 581
8547 8519 1204
8547 8548 29
8547 8551 14
8548 8474 733
8548 8547 29
8548 8550 18
8548 8553 14
8549 8533 119
8549 8552 576
8549 8606 461
8550 8463 868
8550 8548 18
8550 8554 14
8550 8561 1504
8551 8547 14
8551 8524 1195
8551 8553 29
8551 8638 1463
8552 8535 107
8552 8549 576
8552 8555 490
8552 8607 423
8553 8548 14
8553 8551 29
8553 8554 17
8553 8640 1501
8554 8550 14
8554 8553 17
8554 8563 1512
8554 8968 8729
8555 8539 104
8555 8552 490
8555 8558 641
8555 8608 406
8556 8361 1254
8556 8688 115
8557 8365 1239
8557 8690 112
8558 8540 102
8558 8555 641
8558 8559 560
8558 8610 411
8559 8542 101
8559 8558 560
8559 8560 584
8559 8611 421
8560 8543 104
8560 8559 584
8560 8612 425
8561 8354 1316
8561 8550 1504
8561 8563 12
8561 8564 1137
8562 8529 219
8563 8561 12
8563 8554 1512
8563 8565 1130
8564 8376 1313
8564 8561 1137
8564 8565 14
8564 8567 616
8565 8564 14
8565 8563 1130
8565 8569 622
8565 8618 634
8566 8527 279
8566 8626 57
8567 8520 889
8567 8564 616
8567 8569 11
8567 8570 531
8568 8545 173
8569 8567 11
8569 8565 622
8569 8575 531
8569 8623 523
8570 8520 336
8570 8567 531
8570 8575 14
8570 8576 1026
8571 8572 146
8571 8591 105
8572 8571 146
8572 13858 527
8573 8574 140
8573 13860 651
8574 8573 140
8574 8590 104
8575 8570 14
8575 8569 531
8575 8578 1026
8575 8627 533
8576 8531 332
8576 8570 1026
8576 8578 12
8576 8579 543
8577 8522 379
8578 8576 12
8578 8575 1026
8578 8585 542
8578 8629 530
8579 8537 327
8579 8576 543
8579 8581 165
8579 8585 12
8580 8581 138
8580 13857 591
8581 8580 138
8581 8579 165
8581 8582 9
8581 8586 14
8582 8583 137
8582 8581 9
8582 8586 15
8582 8588 459
8583 8582 137
8583 13859 563
8584 8516 427
8584 8595 229
8584 8625 1468
8585 8579 12
8585 8578 542
8585 8586 169
8585 8628 508
8586 8582 15
8586 8581 14
8586 8585 169
8586 8594 478
8587 8588 167
8587 8590 168
8587 8598 131
8588 8587 167
8588 8582 459
8588 8594 21
8589 8521 449
8589 8592 14
8589 8595 26
8590 8574 104
8590 8587 168
8590 8591 8
8591 8571 105
8591 8590 8
8591 8500 2516
8592 8589 14
8592 8596 15
8593 8495 1997
8593 8602 58
8594 8588 21
8594 8586 478
8594 8598 88
8595 8584 229
8595 8589 26
8595 8596 103
8596 8592 15
8596 8597 144
8596 8595 103
8597 8596 144
8598 8594 88
8598 8587 131
8598 8630 470
8599 8503 609
8599 8601 285
8599 8654 729
8600 8601 194
8601 8600 194
8601 8599 285
8601 8604 290
8601 8650 609
8602 8603 85
8602 8593 58
8603 8602 85
8603 8494 943
8603 8686 1370
8604 8518 551
8604 8601 290
8604 8605 379
8604 8644 646
8605 8604 379
8605 8638 500
8606 8549 461
8606 8607 469
8607 8552 423
8607 8606 469
8607 8608 419
8607 8632 440
8608 8555 406
8608 8607 419
8608 8610 563
8608 8634 421
8609 8530 606
8609 8720 43
8610 8558 411
8610 8608 563
8610 8611 560
8610 8635 405
8611 8559 421
8611 8610 560
8611 8612 586
8611 8636 408
8612 8560 425
8612 8611 586
8612 8614 489
8612 8637 411
8613 8541 2032
8613 8490 947
8613 8856 8218
8613 8987 6265
8614 8612 489
8614 8615 613
8614 8639 412
8615 8543 1293
8615 8614 613
8615 8679 922
8616 8517 1454
8616 8528 767
8616 8617 27
8616 8631 488
8617 8515 1501
8617 8616 27
8617 8633 492
8617 8701 1136
8618 8565 634
8618 8624 541
8618 8656 463
8619 8620 958
8619 8823 180
8620 8619 958
8620 8498 67
8621 8622 958
8621 8497 68
8622 8621 958
8622 8824 177
8623 8569 523
8623 8624 385
8623 8627 530
8623 8661 464
8624 8623 385
8624 8618 541
8625 8584 1468
8625 8626 517
8625 8730 1387
8626 8625 517
8626 8566 57
8627 8575 533
8627 8623 530
8627 8629 1027
8627 8663 464
8628 8585 508
8628 8629 517
8628 8666 809
8629 8628 517
8629 8578 530
8629 8627 1027
8629 8666 463
8630 8598 470
8630 8684 1061
8630 8710 1629
8631 8616 488
8631 8633 28
8631 8669 2009
8632 8607 440
8632 8634 352
8632 8668 439
8633 8617 492
8633 8631 28
8633 8674 2011
8633 8701 1377
8634 8608 421
8634 8632 352
8634 8635 478
8634 8670 417
8635 8610 405
8635 8634 478
8635 8636 556
8635 8671 409
8636 8611 408
8636 8635 556
8636 8637 590
8636 8675 408
8637 8612 411
8637 8636 590
8637 8639 481
8637 8676 415
8638 8551 1463
8638 8605 500
8638 8640 27
8638 8644 185
8639 8614 412
8639 8637 481
8639 8677 412
8640 8553 1501
8640 8638 27
8640 8647 156
8641 8642 17
8641 8643 231
8641 8664 276
8642 8641 17
8643 8641 231
8643 8510 1133
8643 8680 444
8644 8638 185
8644 8604 646
8644 8647 35
8644 8654 847
8645 8646 680
8646 8645 680
8646 8649 35
8646 8655 149
8647 8640 156
8647 8644 35
8647 8657 877
8648 8532 1070
8648 8534 1073
8648 8712 590
8649 8646 35
8649 8653 120
8649 8692 767
8650 8601 609
8651 8504 1258
8651 8733 501
8652 8506 1388
8652 8679 1457
8652 8808 3098
8653 8649 120
8654 8644 847
8654 8599 729
8654 8657 24
8654 8664 367
8655 8646 149
8656 8618 463
8656 8661 1112
8656 8736 1248
8657 8647 877
8657 8654 24
8657 8667 364
8658 8499 1612
8658 8659 24
8658 8660 175
8658 8717 913
8659 8658 24
8659 8500 1596
8659 8719 913
8660 8658 175
8660 8662 341
8660 8715 864
8661 8623 464
8661 8656 1112
8661 8663 530
8661 8683 330
8662 8660 341
8662 8665 1714
8662 8742 1362
8663 8627 464
8663 8661 530
8663 8666 1028
8663 8759 1451
8664 8654 367
8664 8641 276
8664 8667 30
8664 8680 289
8665 8662 1714
8665 8668 975
8665 8770 1622
8666 8628 809
8666 8629 463
8666 8663 1028
8666 8710 683
8667 8657 364
8667 8664 30
8667 8681 290
8668 8632 439
8668 8665 975
8668 8670 277
8669 8631 2009
8669 8674 27
8669 8686 1246
8670 8634 417
8670 8668 277
8670 8671 399
8671 8635 409
8671 8670 399
8671 8675 557
8671 8694 375
8672 8673 3967
8672 8358 37
8673 8672 3967
8673 8682 714
8673 8697 731
8674 8633 2011
8674 8669 27
8674 8689 1233
8674 8773 1649
8675 8636 408
8675 8671 557
8675 8676 590
8675 8695 379
8676 8637 415
8676 8675 590
8676 8677 477
8676 8696 368
8677 8639 412
8677 8676 477
8677 8678 421
8677 8698 371
8678 8677 421
8678 8679 457
8678 8699 371
8679 8652 1457
8679 8615 922
8679 8678 457
8679 8700 369
8680 8664 289
8680 8643 444
8680 8681 31
8680 8723 1475
8681 8667 290
8681 8680 31
8681 8728 1101
8682 8673 714
8683 8661 330
8684 8685 474
8684 8630 1061
8684 8709 794
8684 8795 1871
8685 8684 474
8686 8669 1246
8686 8603 1370
8686 8697 1102
8687 8688 1542
8687 8705 77
8688 8687 1542
8688 8556 115
8689 8674 1233
8690 8691 1561
8690 8557 112
8691 8690 1561
8691 8713 77
8692 8649 767
8692 8693 195
8692 8707 246
8693 8692 195
8694 8671 375
8694 8695 560
8694 8716 385
8695 8675 379
8695 8694 560
8695 8696 587
8695 8718 385
8696 8676 368
8696 8695 587
8696 8698 477
8696 8722 384
8697 8673 731
8697 8686 1102
8697 8707 1668
8698 8677 371
8698 8696 477
8698 8699 414
8698 8727 384
8699 8678 371
8699 8698 414
8699 8700 459
8699 8729 381
8700 8679 369
8700 8699 459
8700 8731 389
8701 8617 1136
8701 8633 1377
8701 8723 342
8702 8703 872
8702 8709 122
8702 8741 767
8703 8702 872
8704 8705 143
8704 8735 429
8704 8739 841
8705 8704 143
8705 8687 77
8706 8508 6767
8706 8708 191
8706 8885 3491
8707 8692 246
8707 8708 120
8707 8697 1668
8708 8707 120
8708 8706 191
8709 8702 122
8709 8684 794
8709 8797 1499
8710 8630 1629
8710 8666 683
8710 8759 1093
8710 8951 3756
8711 8523 2113
8711 8712 1035
8711 8721 1492
8712 8711 1035
8712 8648 590
8713 8714 227
8713 8691 77
8714 8713 227
8714 8734 328
8714 8738 446
8715 8660 864
8715 8717 169
8715 8742 854
8716 8694 385
8716 8718 557
8717 8715 169
8717 8658 913
8717 8719 20
8717 8753 432
8718 8695 385
8718 8716 557
8718 8722 590
8718 8743 385
8719 8717 20
8719 8659 913
8719 8732 397
8719 8750 415
8720 8721 1714
8720 8609 43
8721 8720 1714
8721 8711 1492
8721 8730 793
8722 8696 384
8722 8718 590
8722 8727 471
8722 8744 385
8723 8680 1475
8723 8701 342
8723 8724 19
8723 8726 4
8724 8723 19
8724 8725 1767
8724 8726 19
8724 8773 2875
8725 8724 1767
8726 8723 4
8726 8724 19
8726 8728 410
8726 8757 449
8727 8698 384
8727 8722 471
8727 8729 420
8727 8752 384
8728 8681 1101
8728 8726 410
8728 8757 632
8729 8699 381
8729 8727 420
8729 8731 459
8729 8754 384
8730 8625 1387
8730 8721 793
8730 8733 3879
8730 8974 4193
8731 8700 389
8731 8729 459
8731 8755 376
8732 8719 397
8733 8730 3879
8733 8651 501
8734 8714 328
8734 8748 51
8735 8704 429
8735 8747 49
8736 8656 1248
8736 8737 164
8736 8889 2316
8737 8736 164
8737 8738 35
8737 8739 36
8738 8714 446
8738 8737 35
8738 8740 628
8739 8737 36
8739 8704 841
8739 8749 312
8740 8738 628
8740 8746 49
8741 8702 767
8741 8756 229
8741 8762 386
8742 8662 1362
8742 8715 854
8742 8765 349
8743 8718 385
8743 8744 589
8744 8722 385
8744 8743 589
8744 8752 473
8744 8802 1589
8745 8746 153
8745 8747 153
8745 8848 1593
8746 8745 153
8746 8740 49
8747 8745 153
8747 8735 49
8748 8749 158
8748 8734 51
8749 8748 158
8749 8739 312
8749 8852 1600
8750 8719 415
8750 8751 188
8750 8753 33
8751 8750 188
8751 8766 569
8751 8771 612
8752 8727 384
8752 8744 473
8752 8754 416
8753 8717 432
8753 8750 33
8753 8765 682
8754 8729 384
8754 8752 416
8754 8755 457
8754 8758 81
8755 8731 376
8755 8754 457
8756 8741 229
8756 8760 304
8756 8761 359
8757 8728 632
8757 8726 449
8757 8967 3808
8758 8754 81
8759 8710 1093
8759 8663 1451
8759 8902 3054
8760 8756 304
8760 8761 71
8760 8762 449
8760 8784 498
8761 8756 359
8761 8760 71
8761 8763 36
8762 8741 386
8762 8760 449
8762 8788 443
8763 8764 654
8763 8761 36
8763 8766 421
8763 8772 241
8764 8763 654
8765 8742 349
8765 8753 682
8765 8770 1298
8765 8805 996
8766 8751 569
8766 8763 421
8766 8767 26
8767 8766 26
8767 8772 235
8767 8780 184
8768 8769 169
8768 8772 119
8768 8774 128
8769 8768 169
8769 13860 3308
8770 8665 1622
8770 8765 1298
8770 8799 1861
8771 8751 612
8771 8781 161
8771 8783 264
8772 8763 241
8772 8768 119
8772 8767 235
8772 8783 295
8773 8724 2875
8773 8674 1649
8773 8876 2796
8773 8961 3154
8774 8768 128
8774 8790 412
8775 8776 251
8775 8782 489
8775 13859 3517
8776 8775 251
8776 8789 390
8777 8778 71
8777 8779 540
8777 8804 1740
8778 8777 71
8778 8785 2270
8779 8777 540
8780 8767 184
8780 8786 88
8781 8771 161
8781 8782 88
8782 8775 489
8782 8781 88
8783 8771 264
8783 8772 295
8783 8790 134
8784 8760 498
8784 8787 267
8784 8791 115
8785 8778 2270
8785 8873 5946
8785 8947 4377
8786 8787 553
8786 8780 88
8787 8786 553
8787 8784 267
8787 8789 80
8788 8762 443
8788 8791 664
8788 8796 215
8789 8776 390
8789 8787 80
8789 8794 199
8790 8783 134
8790 8774 412
8790 8801 599
8791 8784 115
8791 8788 664
8791 8800 318
8792 8461 4646
8792 8793 17
8792 8855 963
8793 8473 4519
8793 8792 17
8793 8858 1004
8793 8899 1319
8794 8789 199
8794 8798 155
8794 8798 213
8795 8684 1871
8795 8797 825
8795 9069 4673
8796 8788 215
8796 8797 546
8796 8800 703
8797 8709 1499
8797 8795 825
8797 8796 546
8797 9074 4727
8798 8794 155
8798 8794 213
8798 8803 328
8799 8770 1861
8799 8802 477
8799 8897 978
8800 8791 318
8800 8796 703
8800 8836 427
8801 8790 599
8801 8839 479
8801 8906 1309
8802 8744 1589
8802 8799 477
8802 8813 1050
8803 8798 328
8803 8842 414
8803 8904 1060
8804 8777 1740
8804 8812 275
8804 8941 2207
8805 8765 996
8805 8811 22
8806 8807 376
8806 8809 202
8806 8814 124
8807 8806 376
8808 8652 3098
8808 8809 48
8808 8816 138
8809 8806 202
8809 8808 48
8809 8815 121
8810 8811 139
8811 8810 139
8811 8805 22
8812 8804 275
8813 8802 1050
8813 8851 937
8813 8892 1337
8814 8806 124
8814 8815 203
8814 8850 186
8815 8814 203
8815 8809 121
8815 8816 109
8815 8853 184
8816 8815 109
8816 8808 138
8816 8851 177
8817 8818 86
8818 8817 86
8818 8819 74
8818 8820 109
8818 8841 107
8819 8818 74
8820 8818 109
8820 8821 71
8820 8826 53
8820 8844 109
8821 8820 71
8822 8823 3220
8822 9060 45
8823 8822 3220
8823 8619 180
8824 8825 3227
8824 8622 177
8825 8824 3227
8825 9055 43
8826 8820 53
8826 8827 75
8826 8828 61
8826 8846 110
8827 8826 75
8828 8826 61
8828 8829 72
8828 8832 260
8828 8847 112
8829 8828 72
8830 8831 57
8831 8830 57
8831 8833 128
8831 8837 65
8832 8828 260
8832 8867 3413
8833 8831 128
8833 8834 57
8833 8835 57
8833 8843 64
8834 8833 57
8835 8833 57
8835 8487 4460
8835 8845 64
8836 8800 427
8837 8838 109
8837 8831 65
8837 8843 127
8837 8865 248
8838 8837 109
8839 8801 479
8839 8942 1639
8840 8841 109
8841 8840 109
8841 8818 107
8841 8844 108
8841 8861 176
8842 8803 414
8842 8943 1638
8843 8837 127
8843 8833 64
8843 8845 69
8843 8854 66
8844 8841 108
8844 8820 109
8844 8846 54
8844 8862 175
8845 8843 69
8845 8835 64
8845 8866 217
8846 8844 54
8846 8826 110
8846 8847 61
8846 8863 173
8847 8846 61
8847 8828 112
8847 8864 171
8848 8745 1593
8848 8924 61
8849 8850 126
8849 8866 3664
8849 8874 239
8850 8849 126
8850 8814 186
8850 8853 201
8850 8857 86
8851 8816 177
8851 8813 937
8851 8853 182
8851 8892 398
8852 8749 1600
8852 8921 56
8853 8850 201
8853 8815 184
8853 8851 182
8853 8859 89
8854 8843 66
8855 8792 963
8855 8858 47
8855 8873 278
8856 8613 8218
8856 8870 220
8857 8850 86
8857 8859 205
8857 8881 157
8858 8793 1004
8858 8855 47
8858 8872 218
8858 8879 172
8859 8857 205
8859 8853 89
8859 8884 156
8860 8861 82
8861 8860 82
8861 8841 176
8861 8862 105
8861 8882 115
8862 8861 105
8862 8844 175
8862 8863 55
8862 8878 99
8863 8862 55
8863 8846 173
8863 8864 62
8863 8880 93
8864 8863 62
8864 8847 171
8864 8886 106
8865 8837 248
8865 8866 227
8865 8888 821
8866 8865 227
8866 8845 217
8866 8849 3664
8867 8832 3413
8868 8869 32
8868 8871 746
8868 8917 727
8869 8868 32
8869 8887 2455
8869 8933 912
8870 8871 56
8870 8856 220
8871 8870 56
8871 8868 746
8871 8925 792
8872 8858 218
8872 8873 25
8872 8879 94
8872 8948 2163
8873 8872 25
8873 8855 278
8873 8785 5946
8873 8947 2154
8874 8875 33
8874 8849 239
8874 8881 129
8874 8895 205
8875 8874 33
8876 8773 2796
8876 8877 55
8876 8960 1795
8876 8961 2578
8877 8876 55
8877 8885 72
8878 8862 99
8879 8858 172
8879 8872 94
8879 8899 1084
8879 8952 1613
8880 8863 93
8881 8874 129
8881 8857 157
8881 8883 49
8882 8861 115
8883 8881 49
8883 8884 162
8883 8894 180
8884 8883 162
8884 8859 156
8884 8893 154
8885 8877 72
8885 8706 3491
8885 8959 1875
8886 8864 106
8887 8869 2455
8887 8477 5182
8887 8900 1525
8888 8865 821
8888 8891 87
8888 8891 117
8889 8736 2316
8889 8890 1348
8889 8896 601
8889 8939 1041
8890 8889 1348
8891 8888 87
8891 8888 117
8891 8903 535
8892 8851 398
8892 8813 1337
8892 8893 132
8892 9073 5075
8893 8884 154
8893 8892 132
8893 8894 173
8894 8883 180
8894 8893 173
8894 8895 177
8895 8874 205
8895 8894 177
8895 8898 714
8896 8889 601
8896 8902 228
8896 8908 196
8897 8799 978
8898 8895 714
8899 8793 1319
8899 8879 1084
8899 8901 345
8899 8909 332
8900 8887 1525
8900 8903 104
8901 8899 345
8902 8759 3054
8902 8896 228
8902 8905 493
8903 8891 535
8903 8900 104
8904 8803 1060
8904 8907 208
8905 8902 493
8906 8801 1309
8906 8907 66
8906 9047 5239
8907 8906 66
8907 8904 208
8908 8896 196
8908 8916 269
8908 8939 1107
8909 8899 332
8910 8911 147
8911 8910 147
8911 8912 60
8911 8929 181
8912 8911 60
8912 8917 131
8912 8930 181
8913 8914 72
8913 8915 237
8913 8918 156
8913 8926 115
8914 8913 72
8915 8913 237
8916 8908 269
8916 8922 957
8916 8993 1844
8917 8912 131
8917 8868 727
8917 8932 179
8918 8913 156
8918 8919 240
8918 8920 167
8918 8927 111
8919 8918 240
8920 8918 167
8921 8922 949
8921 8852 56
8922 8921 949
8922 8916 957
8922 8923 15
8922 8936 322
8923 8924 957
8923 8922 15
8923 8935 316
8923 8953 1533
8924 8923 957
8924 8848 61
8925 8871 792
8925 8926 163
8925 8937 356
8926 8925 163
8926 8913 115
8926 8927 154
8926 8931 66
8927 8926 154
8927 8918 111
8927 8928 117
8927 8934 73
8928 8927 117
8928 8929 138
8928 8944 357
8929 8928 138
8929 8911 181
8929 8930 56
8930 8929 56
8930 8912 181
8930 8932 130
8931 8926 66
8932 8930 130
8932 8917 179
8932 8933 38
8932 8945 361
8933 8932 38
8933 8869 912
8933 8946 365
8934 8927 73
8935 8923 316
8935 8958 276
8936 8922 322
8936 8954 275
8937 8938 1620
8937 8925 356
8937 8940 104
8937 8992 1470
8938 8937 1620
8939 8908 1107
8939 8889 1041
8939 8982 1185
8940 8937 104
8940 8944 382
8940 9016 1681
8941 8804 2207
8942 8839 1639
8942 8979 32
8943 8842 1638
8943 8980 32
8944 8940 382
8944 8928 357
8944 8945 323
8944 9009 1456
8945 8944 323
8945 8932 361
8945 8946 35
8945 8986 1139
8946 8945 35
8946 8933 365
8946 8986 1131
8947 8873 2154
8947 8785 4377
8947 8948 25
8947 8970 922
8948 8872 2163
8948 8947 25
8948 8949 125
8948 8972 919
8949 8948 125
8949 8950 430
8949 8975 747
8950 8949 430
8950 8952 498
8950 8976 741
8951 8710 3756
8951 8953 1329
8951 9054 2209
8952 8879 1613
8952 8950 498
8952 8977 726
8953 8951 1329
8953 8923 1533
8953 8957 772
8954 8955 168
8954 8936 275
8955 8954 168
8955 8956 561
8955 8957 16
8955 9048 2573
8956 8955 561
8957 8958 174
8957 8955 16
8957 8953 772
8957 9049 2581
8958 8957 174
8958 8935 276
8959 8885 1875
8959 8960 418
8959 8990 1027
8960 8876 1795
8960 8959 418
8960 8965 1210
8960 9112 2993
8961 8773 3154
8961 8876 2578
8961 8962 57
8962 8961 57
8962 8966 1611
8962 8969 183
8963 8964 2062
8963 8973 220
8963 8982 1658
8964 8963 2062
8965 8960 1210
8965 8969 1273
8965 9123 2868
8966 8962 1611
8966 8967 343
8966 9138 3108
8967 8757 3808
8967 8966 343
8967 8968 15
8968 8554 8729
8968 8967 15
8968 8994 584
8969 8962 183
8969 8965 1273
8969 9127 2809
8970 8947 922
8970 8971 3058
8970 8972 15
8970 9043 1245
8971 8970 3058
8972 8948 919
8972 8970 15
8972 8975 594
8972 9042 1243
8973 8963 220
8974 8730 4193
8974 8984 3855
8974 9059 1650
8975 8949 747
8975 8972 594
8975 8976 363
8976 8950 741
8976 8975 363
8976 8977 439
8976 8988 386
8977 8952 726
8977 8976 439
8977 8991 393
8977 9112 11088
8978 8979 1125
8978 9072 80
8979 8978 1125
8979 8942 32
8980 8981 1132
8980 8943 32
8981 8980 1132
8981 9092 82
8982 8939 1185
8982 8963 1658
8982 8983 185
8983 8982 185
8983 8993 1358
8983 9011 383
8984 8974 3855
8984 8985 4704
8984 8987 1356
8985 8984 4704
8986 8945 1139
8986 8946 1131
8986 9041 855
8987 8984 1356
8987 8613 6265
8987 9000 1930
8987 9160 2687
8988 8976 386
8988 8989 670
8988 8991 391
8988 8996 130
8989 8988 670
8990 8959 1027
8991 8977 393
8991 8988 391
8991 9025 412
8992 8937 1470
8993 8916 1844
8993 8983 1358
8993 8999 536
8993 9012 204
8994 8968 584
8994 8995 12
8994 9002 1020
8995 8994 12
8995 9005 1018
8995 9027 380
8996 8988 130
8996 8997 130
8996 9013 191
8997 8996 130
8997 9014 244
8998 8999 468
8999 8998 468
8999 8993 536
8999 9008 536
8999 9029 422
9000 8987 1930
9000 9001 5103
9000 9105 6007
9000 9172 2680
9001 9000 5103
9002 9003 389
9002 8994 1020
9002 9004 0
9002 9005 14
9003 9002 389
9004 9002 0
9004 9006 14
9004 9007 14
9005 9002 14
9005 8995 1018
9005 9006 0
9005 9010 24
9006 9004 14
9006 9005 0
9006 9007 0
9006 9010 24
9007 9004 14
9007 9006 0
9007 9010 24
9008 8999 536
9009 8944 1456
9010 9007 24
9010 9006 24
9010 9005 24
9010 9028 287
9011 8983 383
9011 9020 1148
9011 9033 410
9012 8993 204
9013 8996 191
9013 9018 72
9013 9026 237
9014 8997 244
9014 9015 34
9014 9017 39
9015 9014 34
9015 9018 257
9015 9019 26
9016 8940 1681
9017 9014 39
9017 9019 36
9017 9036 298
9018 9013 72
9018 9015 257
9018 9024 77
9019 9015 26
9019 9017 36
9019 9021 111
9020 9011 1148
9020 9029 802
9020 9046 521
9021 9019 111
9022 9023 45
9023 9022 45
9023 9024 41
9023 9034 180
9024 9018 77
9024 9023 41
9024 9026 103
9024 9035 193
9025 8991 412
9025 9026 213
9025 9044 357
9026 9025 213
9026 9013 237
9026 9024 103
9026 9038 218
9027 8995 380
9027 9037 950
9027 9081 1036
9028 9010 287
9029 8999 422
9029 9020 802
9029 9040 773
9029 9050 579
9030 9031 1160
9031 9030 1160
9031 9032 121
9031 9065 773
9032 9031 121
9033 9011 410
9033 9046 1174
9033 9070 750
9034 9023 180
9035 9024 193
9036 9017 298
9037 9027 950
9037 9039 366
9037 9084 891
9038 9026 218
9039 9037 366
9039 9065 2760
9039 9086 866
9040 9029 773
9040 9045 408
9040 9068 600
9041 8986 855
9042 8972 1243
9042 9043 15
9042 9044 1144
9042 9192 2555
9043 9042 15
9043 8970 1245
9043 9191 2558
9044 9025 357
9044 9042 1144
9044 9395 3141
9045 9040 408
9045 9048 1342
9045 9075 610
9046 9020 521
9046 9033 1174
9046 9050 841
9046 9111 1161
9047 8906 5239
9047 9073 291
9047 9076 647
9048 8955 2573
9048 9045 1342
9048 9049 27
9048 9067 295
9049 8957 2581
9049 9048 27
9049 9054 340
9049 9066 272
9050 9029 579
9050 9046 841
9050 9068 808
9050 9121 1101
9051 9052 820
9052 9051 820
9052 9053 2519
9052 9074 1871
9052 9124 1122
9053 9052 2519
9054 8951 2209
9054 9049 340
9054 9057 613
9054 9196 2467
9055 9056 5411
9055 8825 43
9056 9055 5411
9056 9135 62
9057 9054 613
9057 9058 8
9057 9077 275
9058 9057 8
9058 9069 1516
9058 9078 282
9059 9060 5459
9059 8974 1650
9059 9064 29
9059 9126 1081
9060 9059 5459
9060 8822 45
9061 9062 1095
9061 9063 753
9061 9098 619
9062 9061 1095
9063 9061 753
9064 9059 29
9064 9133 2188
9065 9031 773
9065 9039 2760
9065 9070 243
9065 9101 536
9066 9049 272
9066 9080 101
9067 9048 295
9067 9094 101
9068 9040 600
9068 9050 808
9068 9075 504
9068 9129 1096
9069 8795 4673
9069 9058 1516
9069 9074 527
9069 9181 1570
9070 9033 750
9070 9065 243
9070 9102 489
9071 9072 2423
9071 9083 696
9071 9097 558
9072 9071 2423
9072 8978 80
9073 8892 5075
9073 9047 291
9073 9076 348
9073 9174 1591
9074 8797 4727
9074 9069 527
9074 9052 1871
9074 9113 656
9075 9045 610
9075 9068 504
9075 9108 437
9076 9073 348
9076 9047 647
9076 9082 237
9076 9164 1355
9077 9057 275
9077 9079 422
9077 9095 694
9078 9058 282
9078 9094 931
9078 9103 557
9079 9080 271
9079 9077 422
9079 9091 267
9080 9079 271
9080 9066 101
9081 9027 1036
9081 9084 920
9081 9128 850
9082 9076 237
9082 9085 109
9082 9116 605
9083 9071 696
9083 9085 84
9083 9087 52
9084 9037 891
9084 9081 920
9084 9086 450
9084 9161 1156
9085 9082 109
9085 9083 84
9085 9087 58
9086 9039 866
9086 9084 450
9086 9101 2431
9086 9136 875
9087 9085 58
9087 9083 52
9087 9088 6
9088 9087 6
9088 9089 51
9088 9090 56
9089 9088 51
9089 9090 82
9089 9097 611
9090 9088 56
9090 9089 82
9090 9096 153
9091 9079 267
9091 9104 74
9092 9093 2868
9092 8981 82
9093 9092 2868
9093 9109 437
9093 9115 661
9094 9095 538
9094 9078 931
9094 9067 101
9095 9094 538
9095 9077 694
9095 9119 74
9096 9090 153
9096 9099 87
9097 9089 611
9097 9071 558
9097 9116 604
9098 9061 619
9098 9323 3164
9098 10585 9281
9099 9100 217
9099 9096 87
9100 9099 217
9100 9107 302
9100 9109 242
9101 9065 536
9101 9086 2431
9101 9102 371
9101 9130 685
9102 9070 489
9102 9101 371
9102 9110 561
9102 9151 831
9103 9078 557
9103 9104 437
9103 9117 1334
9104 9103 437
9104 9091 74
9105 9106 359
9105 9000 6007
9105 9990 3697
9106 9105 359
9107 9100 302
9107 9124 3924
9107 9137 739
9108 9075 437
9108 9131 536
9108 9132 905
9109 9093 437
9109 9100 242
9109 9115 581
9110 9102 561
9110 9111 514
9110 9143 635
9111 9046 1161
9111 9110 514
9111 9114 243
9112 8960 2993
9112 8977 11088
9112 9122 1182
9112 9206 1202
9113 9074 656
9114 9111 243
9114 9121 652
9114 9139 424
9115 9093 661
9115 9109 581
9115 9118 59
9116 9082 605
9116 9097 604
9116 9118 15
9116 9163 724
9117 9103 1334
9117 9156 85
9118 9116 15
9118 9115 59
9118 9154 507
9118 9162 704
9119 9120 1775
9119 9095 74
9120 9119 1775
9120 9159 91
9121 9050 1101
9121 9114 652
9121 9129 872
9121 9140 303
9122 9112 1182
9122 9123 555
9122 9206 1645
9123 8965 2868
9123 9122 555
9123 9127 1205
9123 9216 1201
9124 9107 3924
9124 9052 1122
9124 9155 1369
9125 9126 8115
9126 9125 8115
9126 9059 1081
9126 9133 2006
9126 9175 584
9127 8969 2809
9127 9123 1205
9127 9138 1267
9127 9211 1079
9128 9081 850
9128 9142 291
9128 9145 214
9128 9147 286
9129 9068 1096
9129 9121 872
9129 9131 670
9129 9177 477
9130 9101 685
9130 9148 489
9131 9108 536
9131 9129 670
9131 9132 492
9131 9178 471
9132 9108 905
9132 9131 492
9132 9180 466
9133 9126 2006
9133 9064 2188
9133 9134 23
9133 9954 3493
9134 9133 23
9134 9135 2210
9134 9160 3364
9134 9952 3481
9135 9134 2210
9135 9056 62
9136 9086 875
9136 9148 1930
9136 9165 321
9137 9107 739
9137 9154 1388
9137 9322 1575
9138 8966 3108
9138 9127 1267
9138 9141 509
9138 9215 961
9139 9114 424
9139 9140 602
9139 9143 772
9139 9179 395
9140 9121 303
9140 9139 602
9140 9176 377
9141 9138 509
9141 9142 109
9141 9189 484
9142 9128 291
9142 9141 109
9142 9144 118
9142 9166 287
9143 9139 772
9143 9110 635
9143 9151 747
9143 9182 357
9144 9142 118
9144 9145 241
9144 9145 56
9144 9145 246
9145 9128 214
9145 9144 241
9145 9144 56
9145 9146 239
9145 9146 53
9145 9144 246
9145 9146 249
9145 9166 215
9146 9145 239
9146 9145 53
9146 9147 116
9146 9145 249
9147 9128 286
9147 9146 116
9147 9149 156
9147 9166 287
9148 9130 489
9148 9136 1930
9148 9151 700
9148 9193 456
9149 9150 175
9149 9147 156
9149 9152 220
9149 9169 209
9150 9149 175
9151 9143 747
9151 9102 831
9151 9148 700
9151 9188 378
9152 9149 220
9152 9153 91
9152 9170 207
9153 9152 91
9153 9157 64
9153 9171 197
9154 9118 507
9154 9137 1388
9154 9162 444
9154 9383 1237
9155 9124 1369
9155 9156 986
9155 9158 18
9155 9769 2707
9156 9155 986
9156 9117 85
9157 9153 64
9157 9161 326
9157 9173 191
9158 9155 18
9158 9159 966
9158 9181 832
9158 9772 2705
9159 9158 966
9159 9120 91
9160 9134 3364
9160 8987 2687
9160 9172 1953
9160 9444 1385
9161 9084 1156
9161 9157 326
9161 9165 482
9161 9237 843
9162 9118 704
9162 9154 444
9162 9163 11
9162 9333 1297
9163 9116 724
9163 9162 11
9163 9164 185
9163 9332 1294
9164 9076 1355
9164 9163 185
9164 9174 503
9165 9136 321
9165 9161 482
9165 9193 1865
9165 9251 813
9166 9147 287
9166 9145 215
9166 9142 287
9166 9200 315
9167 9168 1263
9168 9167 1263
9169 9149 209
9169 9170 222
9169 9202 341
9170 9152 207
9170 9169 222
9170 9171 98
9170 9184 74
9171 9153 197
9171 9170 98
9171 9173 46
9171 9185 79
9172 9160 1953
9172 9000 2680
9172 9212 547
9172 9225 2340
9173 9157 191
9173 9171 46
9173 9197 217
9174 9073 1591
9174 9164 503
9174 9209 500
9175 9126 584
9175 9183 654
9175 9459 1247
9176 9140 377
9176 9177 857
9176 9179 561
9176 9287 829
9177 9129 477
9177 9176 857
9177 9178 656
9177 9208 426
9178 9131 471
9178 9177 656
9178 9180 557
9178 9328 908
9179 9176 561
9179 9139 395
9179 9182 756
9179 9279 782
9180 9132 466
9180 9178 557
9180 9186 599
9180 9340 930
9181 9158 832
9181 9069 1570
9181 9195 1397
9181 9848 2297
9182 9179 756
9182 9143 357
9182 9188 872
9182 9255 710
9183 9175 654
9183 9187 701
9183 9482 1249
9184 9170 74
9185 9171 79
9186 9180 599
9186 9190 685
9186 9236 618
9187 9183 701
9188 9182 872
9188 9151 378
9188 9193 698
9188 9235 588
9189 9141 484
9189 9200 324
9189 9219 465
9190 9186 685
9190 9194 211
9190 9264 622
9191 9043 2558
9192 9042 2555
9193 9148 456
9193 9165 1865
9193 9188 698
9193 9201 108
9194 9190 211
9194 9199 437
9194 9199 824
9195 9181 1397
9195 9196 73
9195 9298 656
9196 9195 73
9196 9054 2467
9196 9199 147
9197 9173 217
9197 9198 259
9197 9203 141
9198 9197 259
9199 9196 147
9199 9194 437
9199 9194 824
9200 9166 315
9200 9189 324
9200 9202 316
9200 9226 392
9201 9193 108
9201 9231 77
9202 9169 341
9202 9200 316
9202 9203 373
9202 9228 336
9203 9197 141
9203 9202 373
9203 9233 311
9204 9205 232
9204 9207 56
9204 9395 2277
9205 9204 232
9206 9122 1645
9206 9112 1202
9206 9254 384
9206 9262 376
9207 9204 56
9207 9247 387
9207 9835 2020
9208 9177 426
9208 9314 449
9209 9174 500
9209 9210 56
9210 9209 56
9210 9213 31
9210 9320 397
9211 9127 1079
9211 9214 30
9211 9215 1280
9211 9216 1126
9212 9172 547
9212 9225 2280
9212 10197 2900
9213 9210 31
9213 9224 106
9213 9224 98
9214 9211 30
9214 9218 1273
9214 9220 1236
9215 9138 961
9215 9211 1280
9215 9218 23
9215 9219 403
9216 9211 1126
9216 9123 1201
9216 9217 111
9217 9216 111
9217 9258 1413
9218 9215 23
9218 9214 1273
9218 9426 603
9219 9189 465
9219 9215 403
9219 9226 389
9219 9317 307
9220 9214 1236
9220 9269 1403
9221 9222 111
9222 9221 111
9222 9223 61
9222 9256 154
9223 9222 61
9223 9227 62
9223 9265 153
9224 9213 106
9224 9213 98
9224 9288 362
9225 9212 2280
9225 9172 2340
9225 10221 3085
9226 9200 392
9226 9219 389
9226 9228 319
9226 9461 633
9227 9223 62
9227 9266 152
9228 9202 336
9228 9226 319
9228 9233 388
9228 9474 654
9229 9230 80
9229 9278 331
9229 9376 369
9230 9229 80
9230 9232 235
9230 9318 266
9231 9232 313
9231 9201 77
9232 9231 313
9232 9230 235
9232 9234 273
9232 9422 524
9233 9203 311
9233 9228 388
9233 9237 366
9233 9282 148
9234 9232 273
9234 9235 147
9234 9296 175
9235 9188 588
9235 9234 147
9235 9245 422
9235 9307 194
9236 9186 618
9236 9239 43
9236 9290 154
9237 9161 843
9237 9233 366
9237 9248 270
9237 9294 155
9238 9239 23
9239 9238 23
9239 9236 43
9239 9241 33
9239 9293 154
9240 9241 23
9241 9240 23
9241 9239 33
9241 9243 56
9241 9295 154
9242 9243 23
9243 9242 23
9243 9241 56
9243 9244 58
9243 9299 154
9244 9243 58
9245 9246 1
9245 9235 422
9245 9249 145
9245 9284 100
9246 9245 1
9247 9207 387
9247 9408 1883
9247 10361 3881
9248 9237 270
9248 9250 124
9248 9276 80
9249 9245 145
9249 9252 202
9249 9430 475
9250 9248 124
9250 9251 106
9250 9277 79
9251 9165 813
9251 9250 106
9251 9275 996
9251 9283 77
9252 9249 202
9252 9253 122
9252 9369 265
9253 9252 122
9253 9255 193
9253 9375 264
9254 9206 384
9254 9263 26
9254 9262 206
9254 9395 10729
9255 9182 710
9255 9253 193
9255 9267 409
9255 9433 445
9256 9222 154
9256 9257 113
9256 9265 61
9256 9304 112
9257 9256 113
9258 9217 1413
9258 9259 367
9258 9260 10
9258 9269 28
9259 9258 367
9260 9258 10
9260 9261 442
9260 9262 114
9260 9270 28
9261 9260 442
9262 9260 114
9262 9206 376
9262 9254 206
9262 9271 25
9263 9254 26
9263 9271 220
9263 9408 10719
9263 10065 2745
9264 9190 622
9264 9268 16
9264 9272 254
9265 9223 153
9265 9256 61
9265 9266 61
9265 9310 112
9266 9227 152
9266 9265 61
9266 9268 75
9266 9313 112
9267 9255 409
9267 9279 338
9267 9410 334
9268 9264 16
9268 9266 75
9268 9315 113
9269 9220 1403
9269 9258 28
9269 9270 10
9269 9335 180
9270 9269 10
9270 9260 28
9270 9271 123
9270 9343 194
9271 9270 123
9271 9262 25
9271 9263 220
9271 9280 14
9272 9264 254
9272 9397 308
9273 9274 752
9274 9273 752
9275 9251 996
9275 9286 281
9275 9594 721
9276 9248 80
9276 9277 120
9276 9321 124
9277 9250 79
9277 9276 120
9277 9283 105
9277 9363 190
9278 9229 331
9278 9286 157
9278 9301 56
9279 9179 782
9279 9267 338
9279 9287 479
9280 9271 14
9280 9281 28
9280 9343 272
9280 9576 666
9281 9280 28
9282 9233 148
9282 9289 210
9282 9345 161
9283 9251 77
9283 9277 105
9283 9405 300
9284 9245 100
9284 9285 260
9284 9316 85
9285 9284 260
9286 9275 281
9286 9278 157
9286 9368 185
9287 9176 829
9287 9279 479
9287 9303 502
9287 9460 418
9288 9224 362
9288 9320 391
9288 9439 853
9289 9282 210
9289 9294 173
9289 9354 139
9290 9236 154
9290 9293 57
9290 9334 100
9291 9292 124
9292 9291 124
9292 9316 197
9292 9330 84
9293 9239 154
9293 9290 57
9293 9295 33
9293 9337 101
9294 9237 155
9294 9289 173
9294 9362 141
9295 9241 154
9295 9293 33
9295 9299 58
9295 9338 101
9296 9234 175
9296 9297 27
9296 9307 130
9297 9296 27
9298 9195 656
9299 9243 154
9299 9295 58
9299 9300 119
9299 9339 101
9300 9299 119
9300 9305 25
9301 9278 56
9301 9302 78
9301 9379 163
9302 9301 78
9303 9287 502
9303 9306 129
9303 9501 465
9304 9256 112
9304 9305 147
9304 9310 61
9304 9423 299
9305 9304 147
9305 9300 25
9306 9303 129
9306 9311 63
9306 9319 43
9307 9235 194
9307 9296 130
9307 9384 176
9308 9309 167
9309 9308 167
9309 9317 233
9309 9434 326
9310 9265 112
9310 9304 61
9310 9313 61
9310 9380 148
9311 9306 63
9311 9312 60
9311 9324 43
9312 9311 60
9312 9314 77
9312 9325 43
9313 9266 112
9313 9310 61
9313 9315 64
9313 9365 108
9314 9208 449
9314 9312 77
9314 9328 642
9314 9413 235
9315 9268 113
9315 9313 64
9315 9391 178
9316 9284 85
9316 9292 197
9316 9342 67
9317 9219 307
9317 9309 233
9317 9447 323
9318 9230 266
9318 9327 168
9318 9350 65
9319 9306 43
9319 9324 63
9319 9406 197
9320 9288 391
9320 9210 397
9320 9332 88
9320 10001 2069
9321 9276 124
9322 9137 1575
9322 9382 1464
9322 9769 2662
9323 9098 3164
9324 9311 43
9324 9319 63
9324 9325 61
9324 9411 198
9325 9312 43
9325 9324 61
9325 9329 56
9325 9412 196
9326 9327 59
9327 9326 59
9327 9318 168
9327 9374 79
9328 9178 908
9328 9314 642
9328 9340 553
9328 9450 295
9329 9325 56
9330 9292 84
9330 9331 85
9330 9342 194
9331 9330 85
9332 9320 88
9332 9163 1294
9332 9333 11
9332 9373 102
9333 9332 11
9333 9162 1297
9333 9378 118
9333 9383 1223
9334 9290 100
9334 9337 66
9334 9344 23
9335 9336 237
9335 9269 180
9335 9492 375
9336 9335 237
9337 9293 101
9337 9334 66
9337 9338 33
9337 9346 23
9338 9295 101
9338 9337 33
9338 9339 57
9338 9347 23
9339 9299 101
9339 9338 57
9339 9341 71
9339 9348 23
9340 9180 930
9340 9328 553
9340 9351 358
9341 9339 71
9342 9316 67
9342 9330 194
9342 9385 87
9343 9270 194
9343 9280 272
9343 9466 306
9344 9334 23
9344 9346 68
9344 9370 32
9345 9282 161
9345 9354 193
9345 9486 334
9346 9337 23
9346 9344 68
9346 9347 33
9347 9338 23
9347 9346 33
9347 9348 56
9348 9339 23
9348 9347 56
9348 9349 60
9348 9366 19
9349 9348 60
9350 9318 65
9350 9374 172
9350 9394 109
9351 9340 358
9351 9370 204
9351 9475 300
9352 9353 25
9353 9352 25
9354 9289 139
9354 9345 193
9354 9399 119
9355 9356 186
9355 9357 72
9355 9360 72
9355 9402 114
9356 9355 186
9357 9355 72
9357 9358 170
9357 9362 73
9357 9401 113
9358 9357 170
9359 9360 96
9360 9359 96
9360 9361 170
9360 9355 72
9360 9403 114
9361 9360 170
9362 9357 73
9362 9294 141
9362 9398 111
9363 9277 190
9363 9364 29
9363 9367 77
9363 9404 116
9364 9363 29
9365 9313 108
9366 9348 19
9367 9363 77
9368 9286 185
9368 9379 169
9368 9381 32
9369 9252 265
9369 9372 43
9369 9396 91
9370 9344 32
9370 9351 204
9370 9409 116
9371 9372 202
9372 9371 202
9372 9369 43
9372 9375 78
9372 9393 76
9373 9332 102
9373 9612 56
9374 9327 79
9374 9350 172
9374 9377 46
9375 9253 264
9375 9372 78
9375 9388 55
9376 9229 369
9377 9374 46
9377 9416 117
9378 9333 118
9378 9618 47
9379 9301 163
9379 9368 169
9379 9432 292
9380 9310 148
9381 9368 32
9382 9322 1464
9382 9383 743
9382 9383 1285
9383 9333 1223
9383 9154 1237
9383 9382 743
9383 9382 1285
9384 9307 176
9384 9415 335
9384 9425 138
9385 9342 87
9385 9386 62
9385 9419 104
9386 9387 81
9386 9385 62
9386 9389 51
9386 9420 112
9387 9386 81
9388 9375 55
9389 9390 89
9389 9386 51
9389 9392 46
9389 9424 111
9390 9389 89
9391 9315 178
9391 9397 304
9391 9428 121
9392 9389 46
9393 9372 76
9394 9350 109
9394 9416 217
9394 9457 171
9395 9044 3141
9395 9204 2277
9395 9408 25
9395 9254 10729
9396 9369 91
9397 9272 308
9397 9391 304
9397 9526 257
9398 9362 111
9398 9399 176
9398 9431 95
9399 9398 176
9399 9354 119
9399 9400 168
9399 9495 219
9400 9399 168
9401 9357 113
9401 9402 72
9401 9513 240
9402 9355 114
9402 9401 72
9402 9403 73
9402 9449 119
9403 9360 114
9403 9402 73
9403 9404 181
9403 9438 102
9404 9363 116
9404 9403 181
9404 9405 91
9405 9283 300
9405 9404 91
9405 9536 267
9406 9319 197
9406 9407 113
9406 9411 61
9407 9406 113
9408 9395 25
9408 9247 1883
9408 9263 10719
9408 10361 2875
9409 9370 116
9409 9423 445
9409 9479 177
9410 9267 334
9410 9421 304
9410 9448 103
9411 9324 198
9411 9406 61
9411 9412 60
9412 9325 196
9412 9411 60
9412 9414 52
9413 9314 235
9413 9418 301
9413 9520 230
9414 9412 52
9415 9384 335
9416 9377 117
9416 9394 217
9416 9417 3
9417 9416 3
9417 9422 218
9417 9440 76
9418 9413 301
9419 9385 104
9420 9386 112
9421 9410 304
9421 9429 117
9421 9469 102
9422 9232 524
9422 9417 218
9422 9507 177
9423 9304 299
9423 9409 445
9423 9428 152
9423 9489 136
9424 9389 111
9425 9384 138
9425 9458 260
9425 9517 174
9426 9218 603
9426 9427 292
9426 9434 211
9426 9661 468
9427 9426 292
9428 9391 121
9428 9423 152
9428 9496 141
9429 9421 117
9429 9437 106
9429 9476 102
9430 9249 475
9430 9436 67
9430 9523 161
9431 9398 95
9432 9379 292
9433 9255 445
9433 9467 413
9433 9577 266
9434 9309 326
9434 9426 211
9434 9447 233
9435 9436 139
9436 9435 139
9436 9430 67
9436 9441 55
9436 9493 114
9437 9429 106
9437 9460 301
9437 9485 102
9438 9403 102
9439 9288 853
9439 9453 181
9439 9453 75
9440 9417 76
9440 9451 91
9440 9471 191
9440 9478 82
9441 9442 120
9441 9436 55
9441 9445 47
9441 9468 58
9442 9441 120
9443 9444 227
9443 9535 181
9444 9443 227
9444 9160 1385
9444 9541 181
9444 9541 678
9445 9446 117
9445 9441 47
9445 9452 84
9445 9470 52
9446 9445 117
9447 9317 323
9447 9434 233
9447 9461 410
9447 9670 461
9448 9410 103
9448 9456 123
9448 9467 48
9449 9402 119
9450 9328 295
9450 9462 547
9450 9542 173
9451 9440 91
9452 9445 84
9453 9439 181
9453 9439 75
9453 9641 1400
9454 9455 699
9455 9454 699
9455 9644 38
9456 9448 123
9456 9469 170
9456 9477 47
9457 9394 171
9457 9465 83
9458 9425 260
9458 9487 59
9458 9523 405
9459 9175 1247
9459 9482 641
9459 9602 286
9460 9287 418
9460 9437 301
9460 9501 494
9460 9545 152
9461 9226 633
9461 9447 410
9461 9474 292
9461 9820 787
9462 9450 547
9462 9463 14
9462 9554 171
9463 9462 14
9463 9472 299
9463 9555 172
9464 9465 35
9465 9464 35
9465 9457 83
9465 9471 66
9465 9521 96
9466 9343 306
9466 9500 292
9466 9576 289
9467 9448 48
9467 9433 413
9467 9477 119
9467 9609 287
9468 9441 58
9469 9421 102
9469 9456 170
9469 9473 60
9469 9491 48
9470 9445 52
9471 9440 191
9471 9465 66
9471 9478 114
9471 9528 96
9472 9463 299
9472 9475 56
9472 9565 170
9473 9469 60
9473 9476 58
9473 9498 48
9474 9228 654
9474 9461 292
9474 9481 251
9474 9829 782
9475 9351 300
9475 9472 56
9475 9479 175
9476 9429 102
9476 9473 58
9476 9485 105
9476 9504 48
9477 9456 47
9477 9467 119
9477 9491 170
9477 9557 151
9478 9440 82
9478 9471 114
9478 9507 297
9478 9538 95
9479 9409 177
9479 9475 175
9479 9497 34
9480 9481 308
9481 9480 308
9481 9474 251
9481 9486 148
9482 9459 641
9482 9183 1249
9482 9516 691
9482 9613 266
9483 9484 18
9484 9483 18
9484 9489 25
9484 9518 50
9485 9437 102
9485 9476 105
9485 9490 55
9485 9519 49
9486 9345 334
9486 9481 148
9486 9495 193
9486 9664 360
9487 9458 59
9487 9488 232
9487 9494 74
9487 9540 88
9488 9487 232
9489 9423 136
9489 9484 25
9489 9496 146
9490 9485 55
9491 9469 48
9491 9477 170
9491 9498 59
9491 9571 149
9492 9335 375
9492 9586 248
9492 9699 457
9493 9436 114
9494 9487 74
9494 9499 68
9494 9543 88
9495 9399 219
9495 9486 193
9495 9505 176
9496 9428 141
9496 9489 146
9496 9503 79
9496 9631 264
9497 9479 34
9497 9502 132
9497 9568 137
9498 9473 48
9498 9491 59
9498 9504 58
9498 9582 149
9499 9494 68
9499 9514 73
9499 9548 89
9500 9466 292
9501 9303 465
9501 9460 494
9501 9520 320
9501 9627 256
9502 9497 132
9502 9506 33
9502 9570 127
9503 9496 79
9503 9525 226
9503 9637 262
9504 9476 48
9504 9498 58
9504 9512 45
9504 9589 149
9505 9495 176
9505 9513 91
9505 9849 782
9506 9502 33
9506 9508 33
9506 9573 127
9507 9422 177
9507 9478 297
9507 9517 76
9508 9509 43
9508 9506 33
9508 9510 58
9508 9581 134
9509 9508 43
9510 9511 65
9510 9508 58
9510 9515 56
9510 9584 135
9511 9510 65
9512 9504 45
9512 9519 59
9512 9593 149
9513 9401 240
9513 9505 91
9513 9536 401
9514 9499 73
9514 9524 69
9514 9556 88
9515 9510 56
9515 9518 124
9515 9587 134
9516 9482 691
9517 9425 174
9517 9507 76
9517 9688 375
9518 9484 50
9518 9515 124
9518 9547 63
9519 9485 49
9519 9512 59
9519 9545 319
9519 9595 149
9520 9413 230
9520 9501 320
9520 9534 318
9520 9563 91
9521 9465 96
9521 9522 85
9521 9528 64
9522 9521 85
9523 9430 161
9523 9458 405
9523 9544 238
9523 9705 414
9524 9514 69
9524 9529 63
9524 9560 88
9525 9503 226
9525 9526 34
9525 9649 264
9526 9397 257
9526 9525 34
9526 9527 27
9527 9526 27
9528 9471 96
9528 9521 64
9528 9538 114
9529 9524 63
9529 9532 26
9529 9566 88
9530 9531 292
9531 9530 292
9531 9536 307
9531 9537 39
9531 9632 228
9532 9529 26
9533 9534 218
9534 9533 218
9534 9520 318
9534 9542 327
9534 9574 92
9535 9443 181
9535 9539 153
9535 9539 560
9536 9405 267
9536 9513 401
9536 9531 307
9536 9861 776
9537 9531 39
9537 9546 126
9537 9638 229
9538 9478 95
9538 9528 114
9538 9665 285
9539 9535 153
9539 9541 77
9539 9535 560
9540 9487 88
9540 9543 72
9540 9639 214
9541 9539 77
9541 9444 181
9541 9444 678
9542 9450 173
9542 9534 327
9542 9554 546
9542 9662 261
9543 9494 88
9543 9540 72
9543 9548 71
9543 9569 56
9544 9523 238
9544 9577 288
9544 9621 176
9545 9460 152
9545 9519 319
9545 9610 149
9546 9537 126
9546 9550 59
9546 9654 229
9547 9518 63
9548 9499 89
9548 9543 71
9548 9556 71
9548 9596 97
9549 9550 106
9550 9549 106
9550 9546 59
9550 9559 88
9551 9552 32
9551 9553 214
9551 9578 688
9551 9669 252
9552 9551 32
9553 9551 214
9554 9462 171
9554 9542 546
9554 9555 12
9554 9677 265
9555 9463 172
9555 9554 12
9555 9565 303
9556 9514 88
9556 9548 71
9556 9560 70
9556 9597 94
9557 9477 151
9557 9558 58
9557 9564 54
9557 9605 105
9558 9557 58
9559 9550 88
9559 9585 185
9559 9663 231
9560 9524 88
9560 9556 70
9560 9566 63
9560 9601 94
9561 9562 441
9562 9561 441
9563 9520 91
9563 9574 318
9563 9646 166
9564 9557 54
9565 9472 170
9565 9555 303
9565 9568 218
9566 9529 88
9566 9560 63
9566 9567 32
9566 9607 94
9567 9566 32
9568 9497 137
9568 9565 218
9568 9691 269
9569 9543 56
9570 9502 127
9571 9491 149
9571 9572 81
9571 9575 18
9571 9616 106
9572 9571 81
9573 9506 127
9574 9534 92
9574 9563 318
9574 9655 168
9575 9571 18
9576 9466 289
9576 9280 666
9576 9580 415
9576 9586 9
9577 9433 266
9577 9544 288
9577 9609 415
9577 9713 333
9578 9551 688
9578 9579 297
9578 9643 555
9578 9694 261
9579 9578 297
9580 9576 415
9581 9508 134
9581 9584 59
9581 9599 61
9582 9498 149
9582 9583 11
9582 9589 58
9582 9620 106
9583 9582 11
9584 9510 135
9584 9581 59
9584 9587 56
9584 9600 59
9585 9559 185
9585 9594 76
9585 9715 349
9586 9492 248
9586 9576 9
9586 9588 515
9586 10086 1526
9587 9515 134
9587 9584 56
9587 9590 124
9587 9604 61
9588 9586 515
9589 9504 149
9589 9582 58
9589 9593 46
9589 9614 84
9590 9591 35
9590 9587 124
9590 9592 17
9590 9603 52
9591 9590 35
9592 9590 17
9593 9512 149
9593 9589 46
9593 9595 61
9593 9634 107
9594 9275 721
9594 9585 76
9594 9598 89
9595 9519 149
9595 9593 61
9595 9610 336
9595 9640 107
9596 9548 97
9597 9556 94
9598 9594 89
9598 9692 62
9599 9581 61
9600 9584 59
9601 9560 94
9602 9459 286
9602 9964 1055
9603 9590 52
9604 9587 61
9605 9557 105
9605 9606 54
9605 9608 49
9605 9628 48
9606 9605 54
9607 9566 94
9608 9605 49
9609 9467 287
9609 9577 415
9609 9615 14
9610 9545 149
9610 9595 336
9610 9622 353
9610 9727 289
9611 9612 1309
9611 9668 20
9612 9611 1309
9612 9373 56
9613 9482 266
9614 9589 84
9615 9609 14
9615 9628 89
9615 9724 258
9616 9571 106
9616 9617 87
9616 9620 59
9616 9648 46
9617 9616 87
9618 9619 1317
9618 9378 47
9619 9618 1317
9619 9625 21
9620 9582 106
9620 9616 59
9620 9624 39
9620 9652 46
9621 9544 176
9622 9610 353
9622 9623 15
9622 9642 30
9623 9622 15
9623 9627 104
9623 9645 30
9624 9620 39
9625 9626 31
9625 9619 21
9626 9625 31
9626 9700 881
9626 9729 459
9627 9501 256
9627 9623 104
9627 9646 334
9628 9605 48
9628 9615 89
9628 9633 7
9628 9648 169
9629 9630 73
9630 9629 73
9630 9636 78
9630 9696 146
9631 9496 264
9631 9637 76
9631 9760 336
9632 9531 228
9633 9628 7
9633 13861 15
9634 9593 107
9634 9635 44
9634 9640 61
9635 9634 44
9635 9652 101
9636 9630 78
9636 9642 158
9636 9698 145
9637 9503 262
9637 9631 76
9637 9649 224
9638 9537 229
9638 9654 128
9638 9726 246
9639 9540 214
9640 9595 107
9640 9634 61
9640 9647 56
9640 9656 42
9641 9453 1400
9641 9666 230
9641 9718 211
9642 9622 30
9642 9636 158
9642 9645 14
9642 9675 81
9643 9578 555
9643 9644 349
9643 9681 459
9643 9812 488
9644 9643 349
9644 9455 38
9645 9623 30
9645 9642 14
9645 9650 141
9645 9676 81
9646 9563 166
9646 9627 334
9646 9655 317
9646 9687 105
9647 9640 56
9648 9616 46
9648 9628 169
9648 9652 59
9649 9525 264
9649 9637 224
9649 9651 37
9650 9645 141
9650 9653 143
9650 9679 79
9651 9649 37
9652 9620 46
9652 9648 59
9652 9635 101
9653 9650 143
9653 9672 58
9653 9678 192
9654 9546 229
9654 9638 128
9654 9663 141
9654 9744 247
9655 9574 168
9655 9646 317
9655 9662 329
9655 9697 105
9656 9640 42
9657 9658 58
9657 9673 243
9657 13861 243
9657 9683 75
9658 9657 58
9658 9684 77
9658 9686 63
9659 9660 136
9660 9659 136
9661 9426 468
9661 9670 434
9661 9845 448
9662 9542 261
9662 9655 329
9662 9677 537
9662 9704 100
9663 9559 231
9663 9654 141
9663 9755 249
9664 9486 360
9664 9671 256
9664 9839 422
9665 9538 285
9665 9688 371
9665 9693 650
9666 9641 230
9666 9708 393
9666 9738 191
9667 9668 571
9667 9674 655
9667 9709 550
9668 9667 571
9668 9611 20
9669 9551 252
9669 9694 681
9669 9758 248
9670 9447 461
9670 9661 434
9670 9737 197
9671 9664 256
9672 9653 58
9672 9678 135
9672 9689 41
9673 9657 243
9673 13861 243
9673 9680 116
9673 9712 117
9674 9667 655
9674 9742 110
9675 9642 81
9675 9676 14
9675 9701 64
9676 9645 81
9676 9675 14
9676 9679 142
9676 9702 64
9677 9554 265
9677 9662 537
9677 9691 518
9677 9733 160
9678 9653 192
9678 9672 135
9678 9695 39
9679 9650 79
9679 9676 142
9679 9685 13
9680 9673 116
9680 9682 16
9680 9717 116
9681 9643 459
9681 9690 89
9681 10192 1745
9682 9680 16
9683 9657 75
9683 9686 56
9683 9721 115
9684 9658 77
9684 9686 54
9684 9747 205
9685 9679 13
9685 9689 139
9685 9706 52
9686 9658 63
9686 9683 56
9686 9684 54
9686 9725 115
9687 9646 105
9687 9697 318
9687 9825 332
9688 9517 375
9688 9665 371
9688 9703 514
9688 9934 713
9689 9672 41
9689 9685 139
9689 9695 134
9689 9707 52
9690 9681 89
9690 9778 87
9691 9568 269
9691 9677 518
9691 9779 236
9692 9693 345
9692 9598 62
9693 9692 345
9693 9665 650
9693 9805 304
9694 9669 681
9694 9578 261
9694 9783 247
9695 9678 39
9695 9689 134
9695 9711 54
9696 9630 146
9696 9698 80
9696 9732 183
9697 9655 105
9697 9687 318
9697 9704 329
9697 9719 84
9698 9636 145
9698 9696 80
9698 9701 156
9698 9735 118
9699 9492 457
9700 9626 881
9700 9741 651
9700 9776 1042
9701 9675 64
9701 9698 156
9701 9702 13
9701 9743 118
9702 9676 64
9702 9701 13
9702 9706 143
9702 9745 118
9703 9688 514
9703 9705 178
9703 9714 55
9704 9662 100
9704 9697 329
9704 9837 326
9705 9523 414
9705 9703 178
9705 9713 546
9705 9925 631
9706 9685 52
9706 9702 143
9706 9707 139
9706 9748 119
9707 9689 52
9707 9706 139
9707 9711 132
9707 9751 119
9708 9666 393
9708 9782 974
9708 9981 4075
9709 9710 817
9709 9667 550
9709 9775 836
9710 9709 817
9710 9728 110
9711 9695 54
9711 9707 132
9711 9754 117
9712 9673 117
9712 9716 22
9712 9717 131
9713 9577 333
9713 9705 546
9713 9724 412
9713 9916 559
9714 9703 55
9714 9858 347
9714 9859 329
9715 9585 349
9716 9712 22
9716 9724 47
9716 9756 92
9717 9680 116
9717 9712 131
9717 9721 58
9717 9764 114
9718 9641 211
9718 9944 28
9719 9697 84
9719 9720 319
9719 9831 243
9720 9719 319
9721 9683 115
9721 9717 58
9721 9725 56
9721 9761 105
9722 9723 86
9723 9722 86
9723 9730 64
9723 9752 74
9724 9716 47
9724 9615 258
9724 9713 412
9724 9826 226
9725 9686 115
9725 9721 56
9725 9750 63
9726 9638 246
9726 9744 128
9726 9768 99
9727 9610 289
9727 9732 40
9727 9854 293
9728 9729 167
9728 9710 110
9729 9728 167
9729 9626 459
9729 9801 253
9730 9731 202
9730 9723 64
9730 9740 70
9730 9757 73
9731 9730 202
9732 9696 183
9732 9727 40
9732 9735 147
9733 9677 160
9733 9734 193
9733 9846 258
9734 9733 193
9735 9698 118
9735 9732 147
9735 9743 156
9735 9862 295
9736 9737 265
9737 9736 265
9737 9670 197
9737 9832 208
9738 9666 191
9738 9942 29
9739 9740 39
9740 9739 39
9740 9730 70
9740 9746 56
9740 9767 75
9741 9700 651
9741 9742 189
9741 9811 241
9742 9741 189
9742 9674 110
9743 9701 118
9743 9735 156
9743 9745 13
9743 9785 109
9744 9654 247
9744 9726 128
9744 9755 137
9744 9781 104
9745 9702 118
9745 9743 13
9745 9748 146
9745 9762 57
9746 9740 56
9747 9684 205
9747 9771 62
9748 9706 119
9748 9745 146
9748 9749 69
9748 9770 55
9749 9748 69
9749 9751 67
9749 9790 101
9750 9725 63
9751 9707 119
9751 9749 67
9751 9754 135
9751 9791 102
9752 9723 74
9752 9753 86
9752 9757 64
9752 9838 194
9753 9752 86
9754 9711 117
9754 9751 135
9754 9819 135
9755 9663 249
9755 9744 137
9755 9759 81
9755 9807 126
9756 9716 92
9756 9764 143
9756 9828 148
9757 9730 73
9757 9752 64
9757 9767 70
9757 9842 192
9758 9669 248
9758 9783 672
9758 10275 1806
9759 9755 81
9760 9631 336
9760 9763 390
9760 9822 118
9761 9721 105
9762 9745 57
9762 9770 145
9762 9786 51
9763 9760 390
9764 9717 114
9764 9756 143
9764 9792 69
9765 9766 4
9765 9773 125
9766 9765 4
9766 9771 86
9766 9784 45
9767 9740 75
9767 9757 70
9767 9780 127
9767 9850 191
9768 9726 99
9769 9322 2662
9769 9155 2707
9769 9772 16
9769 10140 1278
9770 9748 55
9770 9762 145
9770 9798 78
9771 9747 62
9771 9766 86
9771 9789 48
9772 9769 16
9772 9158 2705
9772 9815 901
9772 10112 1174
9773 9765 125
9773 9774 40
9774 9773 40
9775 9709 836
9775 9876 24
9776 9700 1042
9776 9877 24
9777 9778 1956
9777 9782 1126
9777 9972 688
9778 9777 1956
9778 9690 87
9779 9691 236
9779 9788 273
9779 9857 178
9780 9767 127
9780 9863 190
9781 9744 104
9782 9777 1126
9782 9708 974
9782 10231 1565
9783 9758 672
9783 9694 247
9783 9812 369
9783 10213 1578
9784 9766 45
9784 9789 90
9784 9810 51
9785 9743 109
9785 9786 13
9785 9823 92
9786 9762 51
9786 9785 13
9786 9793 38
9787 9788 91
9788 9787 91
9788 9779 273
9788 9794 30
9789 9771 48
9789 9784 90
9789 9851 140
9790 9749 101
9790 9791 67
9790 9806 33
9791 9751 102
9791 9790 67
9791 9809 32
9792 9764 69
9792 9810 185
9792 9836 81
9793 9786 38
9793 9798 118
9793 9804 12
9794 9788 30
9794 9795 61
9794 9865 152
9795 9794 61
9795 9797 4
9795 9868 153
9796 9797 124
9797 9796 124
9797 9795 4
9797 9800 69
9798 9770 78
9798 9793 118
9798 9806 71
9798 9814 13
9799 9800 127
9800 9799 127
9800 9797 69
9800 9803 59
9800 9869 157
9801 9729 253
9801 10000 50
9802 9803 162
9803 9802 162
9803 9800 59
9803 9818 85
9804 9793 12
9804 9808 8
9804 9814 117
9805 9693 304
9805 9830 156
9805 9872 175
9805 9874 722
9806 9790 33
9806 9798 71
9806 9809 66
9806 9816 13
9807 9755 126
9808 9804 8
9808 9824 34
9809 9791 32
9809 9806 66
9809 9819 135
9809 9821 13
9810 9784 51
9810 9792 185
9810 9847 83
9811 9741 241
9811 10006 52
9812 9783 369
9812 9643 488
9812 9813 189
9812 10213 1682
9813 9812 189
9814 9798 13
9814 9804 117
9814 9816 71
9814 9870 147
9815 9772 901
9815 9848 843
9815 10310 2499
9816 9806 13
9816 9814 71
9816 9821 66
9817 9818 174
9818 9817 174
9818 9803 85
9818 9822 135
9818 9930 376
9819 9754 135
9819 9809 135
9819 9827 14
9820 9461 787
9820 9829 257
9820 9832 417
9820 9897 314
9821 9809 13
9821 9816 66
9821 9827 136
9821 9871 146
9822 9760 118
9822 9818 135
9822 9932 384
9823 9785 92
9823 9824 12
9823 9866 120
9824 9808 34
9824 9823 12
9824 9867 119
9825 9687 332
9825 9831 320
9825 9907 311
9826 9724 226
9826 9828 14
9826 9898 305
9827 9819 14
9827 9821 136
9827 9873 145
9828 9756 148
9828 9826 14
9828 9836 148
9829 9474 782
9829 9820 257
9829 9839 338
9830 9805 156
9830 9838 92
9830 9896 296
9831 9719 243
9831 9825 320
9831 9837 333
9831 9908 294
9832 9820 417
9832 9737 208
9832 9845 545
9832 9913 291
9833 9834 1543
9834 9833 1543
9834 10525 3539
9835 9207 2020
9835 9999 905
9836 9792 81
9836 9828 148
9836 9840 40
9836 9899 281
9837 9704 326
9837 9831 333
9837 9846 528
9837 9906 276
9838 9752 194
9838 9830 92
9838 9842 60
9838 9879 173
9839 9664 422
9839 9829 338
9839 9844 138
9839 9924 306
9840 9836 40
9840 9841 41
9840 9900 274
9841 9840 41
9841 9847 104
9841 9901 266
9842 9757 192
9842 9838 60
9842 9850 71
9842 9881 175
9843 9844 232
9844 9843 232
9844 9839 138
9844 9849 227
9845 9832 545
9845 9661 448
9845 10085 902
9846 9733 258
9846 9837 528
9846 9857 490
9846 9904 249
9847 9810 83
9847 9841 104
9847 9851 92
9847 9902 248
9848 9815 843
9848 9181 2297
9848 9920 1424
9848 10369 1947
9849 9505 782
9849 9844 227
9849 9861 492
9849 9931 299
9850 9767 191
9850 9842 71
9850 9863 139
9850 9885 175
9851 9789 140
9851 9847 92
9851 9860 108
9852 9853 130
9853 9852 130
9853 9856 70
9853 9858 148
9853 9880 115
9854 9727 293
9854 9855 214
9854 9917 222
9855 9854 214
9856 9853 70
9857 9779 178
9857 9846 490
9857 9919 230
9858 9714 347
9858 9853 148
9858 9859 48
9859 9714 329
9859 9858 48
9859 9928 265
9860 9851 108
9861 9536 776
9861 9849 492
9861 9936 298
9861 10010 1181
9862 9735 295
9862 9866 156
9862 9882 123
9863 9780 190
9863 9850 139
9863 9864 21
9863 9894 182
9864 9863 21
9865 9794 152
9865 9868 61
9865 9923 229
9866 9823 120
9866 9862 156
9866 9867 13
9866 9884 124
9867 9824 119
9867 9866 13
9867 9870 144
9867 9886 124
9868 9795 153
9868 9865 61
9868 9869 75
9869 9800 157
9869 9868 75
9869 9927 226
9870 9814 147
9870 9867 144
9870 9871 137
9870 9887 121
9871 9821 146
9871 9870 137
9871 9873 135
9871 9889 112
9872 9805 175
9873 9827 145
9873 9871 135
9873 9888 101
9874 9805 722
9874 9890 98
9874 9895 321
9875 9876 977
9875 10082 47
9876 9875 977
9876 9775 24
9877 9878 972
9877 9776 24
9878 9877 972
9878 10087 47
9879 9838 173
9879 9881 63
9880 9853 115
9881 9842 175
9881 9879 63
9881 9885 70
9881 9922 105
9882 9862 123
9882 9883 150
9882 9884 156
9883 9882 150
9884 9866 124
9884 9882 156
9884 9886 13
9884 9912 70
9885 9850 175
9885 9881 70
9885 9894 143
9885 9959 281
9886 9867 124
9886 9884 13
9886 9887 144
9886 9911 69
9887 9870 121
9887 9886 144
9887 9889 138
9888 9873 101
9888 9889 137
9889 9871 112
9889 9887 138
9889 9888 137
9890 9874 98
9890 9895 227
9890 9949 190
9891 9892 91
9892 9891 91
9892 9893 18
9892 9935 186
9893 9892 18
9894 9863 182
9894 9885 143
9894 9918 137
9894 9956 203
9895 9874 321
9895 9890 227
9895 9953 190
9896 9830 296
9897 9820 314
9897 9913 433
9897 9924 554
9897 9929 56
9898 9826 305
9898 9899 131
9898 9903 88
9899 9836 281
9899 9898 131
9899 9900 42
9900 9840 274
9900 9899 42
9900 9901 43
9901 9841 266
9901 9900 43
9901 9902 109
9902 9847 248
9902 9901 109
9902 9917 514
9903 9898 88
9903 9910 152
9903 9947 129
9904 9846 249
9904 9905 83
9904 9919 472
9905 9904 83
9905 9906 441
9905 9978 277
9906 9905 441
9906 9837 276
9906 9908 334
9906 9980 278
9907 9825 311
9907 9908 320
9907 9909 370
9907 9979 277
9908 9906 334
9908 9831 294
9908 9907 320
9908 9975 276
9909 9907 370
9909 9911 72
9909 9973 275
9910 9903 152
9910 9915 104
9910 9940 107
9911 9909 72
9911 9886 69
9911 9912 14
9912 9911 14
9912 9884 70
9912 9914 142
9913 9897 433
9913 9832 291
9913 10009 429
9914 9912 142
9914 9917 189
9914 10142 831
9915 9910 104
9915 9916 73
9915 9939 98
9916 9915 73
9916 9713 559
9916 9921 129
9916 9955 169
9917 9914 189
9917 9854 222
9917 9902 514
9917 10141 829
9918 9894 137
9919 9857 230
9919 9904 472
9919 9923 296
9919 9983 278
9920 9848 1424
9920 9937 455
9920 10280 1360
9921 9916 129
9921 9925 437
9921 9985 292
9922 9881 105
9923 9865 229
9923 9919 296
9923 9926 132
9924 9839 306
9924 9897 554
9924 9931 366
9924 9961 191
9925 9921 437
9925 9705 631
9925 9928 153
9925 9986 256
9926 9923 132
9926 9927 6
9926 9991 276
9927 9869 226
9927 9926 6
9927 9930 130
9928 9925 153
9928 9859 265
9928 9934 513
9928 9976 230
9929 9897 56
9929 9968 190
9929 10021 405
9929 10022 408
9930 9818 376
9930 9927 130
9930 9932 153
9931 9849 299
9931 9924 366
9931 9936 493
9931 9970 191
9932 9822 384
9932 9930 153
9932 9933 67
9933 9932 67
9933 9937 1339
9933 10154 797
9934 9928 513
9934 9688 713
9934 9946 319
9934 10002 321
9935 9892 186
9936 9861 298
9936 9931 493
9936 10012 355
9937 9920 455
9937 9938 341
9937 9933 1339
9938 9937 341
9939 9915 98
9939 9941 97
9939 9957 82
9940 9910 107
9940 9941 4
9940 9947 148
9941 9940 4
9941 9939 97
9941 9958 84
9942 9943 798
9942 9738 29
9943 9942 798
9943 9944 631
9943 9945 136
9943 9981 1428
9944 9943 631
9944 9718 28
9945 9943 136
9946 9934 319
9946 9956 297
9946 10011 310
9947 9903 129
9947 9940 148
9947 9948 64
9947 9960 88
9948 9947 64
9949 9890 190
9949 9950 138
9949 9951 117
9949 10008 287
9950 9949 138
9951 9949 117
9951 9953 110
9951 10007 268
9952 9134 3481
9952 9993 218
9952 10134 705
9953 9895 190
9953 9951 110
9953 10004 252
9954 9133 3493
9954 10125 799
9954 10132 696
9955 9916 169
9955 9957 73
9955 9965 63
9956 9946 297
9956 9894 203
9956 9959 162
9957 9939 82
9957 9955 73
9957 9958 95
9957 9967 62
9958 9941 84
9958 9957 95
9958 9960 150
9958 9971 65
9959 9956 162
9959 9885 281
9959 9969 120
9960 9947 88
9960 9958 150
9960 9963 73
9960 10015 237
9961 9924 191
9961 9962 73
9961 9966 193
9961 10030 248
9962 9961 73
9963 9960 73
9964 9602 1055
9964 9987 109
9964 10092 431
9965 9955 63
9965 9967 70
9965 9985 49
9966 9961 193
9966 9970 173
9966 10026 229
9967 9957 62
9967 9965 70
9967 9971 94
9968 9929 190
9968 10164 459
9969 9959 120
9969 9992 266
9969 10039 255
9970 9931 191
9970 9966 173
9970 10025 212
9971 9958 65
9971 9967 94
9971 9974 17
9972 9777 688
9972 10251 32
9973 9909 275
9973 9979 379
9973 10058 285
9974 9971 17
9974 9984 50
9974 10018 181
9975 9908 276
9975 9979 320
9975 9980 339
9975 10056 279
9976 9928 230
9976 9977 330
9976 9986 142
9976 10020 182
9977 9976 330
9978 9905 277
9978 9983 515
9978 10059 281
9979 9975 320
9979 9907 277
9979 9973 379
9979 10057 278
9980 9906 278
9980 9975 339
9980 10055 277
9981 9982 1472
9981 9943 1428
9981 9708 4075
9982 9981 1472
9983 9919 278
9983 9978 515
9983 9991 461
9983 10066 295
9984 9974 50
9984 9988 82
9984 10016 171
9985 9965 49
9985 9921 292
9985 9997 95
9986 9925 256
9986 9976 142
9986 9989 140
9986 10029 181
9987 9964 109
9987 10033 183
9987 10035 185
9988 9984 82
9989 9986 140
9990 9105 3697
9991 9926 276
9991 9983 461
9991 10070 271
9992 9969 266
9992 10004 248
9992 10442 1480
9993 9952 218
9993 10133 492
9993 10155 822
9994 9995 126
9995 9994 126
9995 9996 46
9995 9998 144
9995 10046 163
9996 9995 46
9997 9985 95
9997 9998 21
9997 10019 97
9998 9997 21
9998 9995 144
9998 10052 161
9999 9835 905
9999 10003 19
9999 10024 100
10000 10001 1951
10000 9801 50
10001 10000 1951
10001 9320 2069
10001 10005 29
10001 10267 3568
10002 9934 321
10002 10020 481
10002 10078 223
10003 9999 19
10003 10031 98
10003 10526 2613
10004 9992 248
10004 9953 252
10004 10007 109
10005 10006 1973
10005 10001 29
10005 10274 3548
10005 10274 4384
10006 10005 1973
10006 9811 52
10007 10004 109
10007 9951 268
10007 10008 122
10008 10007 122
10008 9949 287
10008 10010 437
10008 10089 215
10009 9913 429
10010 10008 437
10010 9861 1181
10010 10012 313
10011 9946 310
10012 10010 313
10012 9936 355
10012 10013 65
10013 10012 65
10013 10014 79
10013 10062 120
10014 10013 79
10014 10017 103
10014 10051 89
10015 9960 237
10015 10016 78
10015 10098 235
10016 10015 78
10016 9984 171
10016 10018 78
10017 10014 103
10017 10025 248
10017 10060 114
10018 10016 78
10018 9974 181
10018 10019 62
10019 10018 62
10019 9997 97
10019 10054 104
10020 9976 182
10020 10002 481
10020 10029 142
10020 10084 172
10021 9929 405
10021 10022 31
10021 10032 22
10022 9929 408
10022 10021 31
10022 10036 35
10023 10024 85
10024 10023 85
10024 9999 100
10024 10031 20
10024 10114 396
10025 10017 248
10025 9970 212
10025 10026 173
10025 10210 630
10026 10025 173
10026 9966 229
10026 10030 192
10027 10028 313
10027 10037 108
10027 10076 137
10028 10027 313
10029 9986 181
10029 10020 142
10029 10038 256
10029 10090 178
10030 10026 192
10030 9961 248
10030 10034 29
10031 10024 20
10031 10003 98
10031 10053 90
10031 10120 399
10032 10021 22
10032 10048 58
10032 10093 520
10033 9987 183
10033 10069 259
10033 10072 121
10034 10030 29
10034 10036 432
10034 10235 710
10035 9987 185
10035 10073 119
10035 10118 421
10036 10034 432
10036 10022 35
10036 10049 49
10037 10027 108
10038 10029 256
10038 10042 65
10038 10099 189
10039 9969 255
10039 10041 117
10039 10061 58
10040 10041 59
10041 10040 59
10041 10039 117
10041 10043 69
10041 10063 59
10042 10038 65
10042 10047 53
10043 10044 35
10043 10041 69
10043 10045 64
10043 10064 59
10044 10043 35
10045 10043 64
10046 9995 163
10046 10047 71
10046 10052 148
10047 10046 71
10047 10042 53
10048 10032 58
10048 10050 11
10048 10097 517
10049 10036 49
10049 10050 20
10049 10163 399
10050 10048 11
10050 10049 20
10050 10163 399
10051 10014 89
10051 10062 70
10051 10074 68
10052 9998 161
10052 10046 148
10052 10054 122
10053 10031 90
10053 10075 107
10053 10077 141
10054 10019 104
10054 10052 122
10054 10094 137
10055 9980 277
10055 10056 342
10055 10059 443
10055 10148 283
10056 10055 342
10056 9975 279
10056 10057 321
10056 10144 279
10057 10056 321
10057 9979 278
10057 10058 394
10057 10145 281
10058 10057 394
10058 9973 285
10058 10143 278
10059 9978 281
10059 10055 443
10059 10068 476
10059 10147 280
10060 10017 114
10060 10074 100
10060 10100 143
10061 10039 58
10061 10063 117
10061 10107 150
10062 10013 120
10062 10051 70
10062 10071 78
10062 10080 67
10063 10041 59
10063 10061 117
10063 10064 70
10063 10108 151
10064 10043 59
10064 10063 70
10064 10067 68
10064 10109 151
10065 9263 2745
10065 10086 2038
10065 10604 2675
10066 9983 295
10066 10068 5
10066 10070 495
10067 10064 68
10068 10066 5
10068 10059 476
10068 10146 266
10069 10033 259
10069 10101 3112
10069 10118 520
10070 9991 271
10070 10066 495
10070 10149 267
10071 10062 78
10072 10033 121
10072 10123 78
10073 10035 119
10073 10124 78
10074 10051 68
10074 10060 100
10074 10080 70
10074 10116 148
10075 10053 107
10075 10077 245
10075 10217 861
10076 10027 137
10076 10083 102
10076 10106 103
10077 10053 141
10077 10075 245
10077 10129 256
10078 10002 223
10078 10079 348
10078 10181 414
10079 10078 348
10080 10062 67
10080 10074 70
10080 10091 75
10080 10116 220
10081 10082 1912
10081 10394 972
10082 10081 1912
10082 9875 47
10083 10076 102
10084 10020 172
10084 10090 141
10084 10150 229
10085 9845 902
10085 10105 553
10085 10159 286
10086 9586 1526
10086 10065 2038
10086 10180 3858
10086 10647 3135
10087 10088 1914
10087 9878 47
10088 10087 1914
10088 10397 971
10089 10008 215
10090 10029 178
10090 10084 141
10090 10099 263
10091 10080 75
10092 9964 431
10092 10500 98
10093 10032 520
10093 10097 12
10093 10105 105
10094 10054 137
10094 10098 95
10094 10136 154
10095 10096 606
10095 10104 2812
10095 10124 618
10096 10095 606
10096 10123 517
10096 10407 4900
10097 10048 517
10097 10093 12
10097 10127 292
10097 10186 377
10098 10015 235
10098 10094 95
10098 10106 307
10099 10038 189
10099 10090 263
10099 10150 616
10100 10060 143
10100 10116 106
10100 10178 332
10101 10069 3112
10101 10115 315
10102 10103 329
10103 10102 329
10103 10541 148
10104 10095 2812
10104 10121 263
10105 10093 105
10105 10085 553
10105 10126 190
10106 10076 103
10106 10098 307
10106 10110 83
10106 10138 117
10107 10061 150
10107 10108 118
10107 10117 27
10108 10063 151
10108 10107 118
10108 10109 70
10108 10122 32
10109 10064 151
10109 10108 70
10109 10111 66
10109 10119 19
10110 10106 83
10111 10109 66
10112 9772 1174
10112 10135 91
10112 10137 96
10113 10114 220
10114 10113 220
10114 10024 396
10114 10120 18
10114 10160 236
10115 10101 315
10115 10125 263
10115 10161 1406
10116 10074 148
10116 10100 106
10116 10080 220
10116 10169 217
10117 10107 27
10118 10035 421
10118 10069 520
10118 10403 4694
10119 10109 19
10120 10114 18
10120 10031 399
10120 10129 86
10120 10165 236
10121 10104 263
10121 10130 316
10121 10172 1697
10122 10108 32
10123 10096 517
10123 10072 78
10124 10095 618
10124 10073 78
10125 10115 263
10125 9954 799
10125 10128 288
10126 10105 190
10126 10127 12
10126 10159 427
10127 10097 292
10127 10126 12
10127 10166 433
10127 10220 352
10128 10125 288
10128 10131 386
10128 10139 187
10129 10120 86
10129 10077 256
10129 10218 810
10130 10121 316
10130 10153 419
10130 10311 927
10131 10128 386
10131 10179 84
10132 9954 696
10132 10312 85
10133 9993 492
10133 10139 414
10133 10167 87
10134 9952 705
10134 10359 85
10135 10112 91
10135 10176 59
10136 10094 154
10136 10138 317
10136 10162 117
10137 10112 96
10137 10504 59
10138 10106 117
10138 10136 317
10138 10141 676
10139 10128 187
10139 10133 414
10139 10155 392
10140 9769 1278
10140 10175 62
10141 9917 829
10141 10138 676
10141 10142 184
10141 10295 549
10142 9914 831
10142 10141 184
10142 10143 166
10142 10157 69
10143 10058 278
10143 10142 166
10143 10145 408
10143 10151 25
10144 10056 279
10144 10145 323
10144 10148 346
10144 10189 234
10145 10144 323
10145 10057 281
10145 10143 408
10145 10252 459
10146 10068 266
10146 10147 449
10146 10149 523
10146 10264 485
10147 10146 449
10147 10059 280
10147 10148 441
10147 10244 405
10148 10147 441
10148 10055 283
10148 10144 346
10148 10191 232
10149 10070 267
10149 10146 523
10149 10154 356
10149 10307 569
10150 10084 229
10150 10099 616
10150 10185 189
10151 10143 25
10151 10152 61
10151 10158 183
10151 10173 104
10152 10151 61
10153 10130 419
10153 10156 176
10153 10179 420
10154 9933 797
10154 10149 356
10155 10139 392
10155 9993 822
10155 10161 275
10156 10153 176
10156 10171 385
10156 10168 341
10157 10142 69
10158 10151 183
10159 10126 427
10159 10085 286
10159 10166 13
10159 10180 329
10160 10114 236
10160 10165 16
10161 10115 1406
10161 10155 275
10161 10197 2233
10162 10136 117
10162 10170 187
10162 10195 172
10163 10049 399
10163 10164 223
10163 10050 399
10163 10240 278
10164 10163 223
10164 9968 459
10165 10160 16
10165 10120 236
10165 10261 549
10166 10127 433
10166 10159 13
10166 10262 379
10166 10396 1660
10167 10168 46
10167 10133 87
10168 10167 46
10168 10156 341
10168 10247 333
10169 10116 217
10169 10182 110
10169 10187 153
10170 10162 187
10171 10156 385
10171 10172 404
10171 10247 594
10172 10171 404
10172 10121 1697
10172 10212 1995
10173 10151 104
10173 10184 277
10173 10193 120
10174 10175 91
10174 10277 428
10174 10395 737
10175 10174 91
10175 10140 62
10176 10177 114
10176 10135 59
10177 10176 114
10177 10326 502
10177 10384 848
10178 10100 332
10178 10182 104
10178 10183 49
10179 10153 420
10179 10131 84
10180 10159 329
10180 10086 3858
10180 10392 1342
10181 10078 414
10181 10185 362
10181 10255 263
10182 10169 110
10182 10178 104
10182 10187 45
10182 10198 53
10183 10178 49
10183 10198 104
10183 10210 56
10184 10173 277
10185 10150 189
10185 10181 362
10185 10201 443
10186 10097 377
10186 10220 282
10186 10297 337
10186 10305 707
10187 10169 153
10187 10182 45
10187 10188 33
10187 10214 53
10188 10187 33
10189 10144 234
10189 10190 112
10189 10191 340
10189 10254 228
10190 10189 112
10191 10148 232
10191 10189 340
10191 10257 231
10192 9681 1745
10193 10173 120
10193 10194 147
10193 10211 16
10194 10193 147
10195 10162 172
10195 10196 210
10195 10278 304
10196 10195 210
10196 10199 214
10196 10236 109
10197 10161 2233
10197 9212 2900
10197 10212 13
10197 10227 2076
10198 10182 53
10198 10183 104
10198 10214 45
10198 10226 84
10199 10196 214
10200 10201 154
10201 10200 154
10201 10185 443
10201 10202 56
10201 10232 93
10202 10203 148
10202 10201 56
10202 10205 32
10202 10234 95
10203 10202 148
10204 10205 146
10205 10204 146
10205 10202 32
10205 10206 47
10205 10239 112
10206 10205 47
10206 10208 4
10206 10228 76
10207 10208 95
10208 10207 95
10208 10206 4
10208 10209 52
10209 10208 52
10210 10183 56
10210 10025 630
10210 10216 30
10211 10193 16
10211 10260 211
10211 10265 376
10212 10172 1995
10212 10197 13
10212 10229 2077
10212 10564 1671
10213 9783 1578
10213 9812 1682
10213 10275 417
10214 10187 53
10214 10198 45
10214 10215 33
10214 10230 85
10215 10214 33
10216 10210 30
10216 10226 102
10216 10233 68
10217 10218 714
10217 10219 202
10217 10075 861
10218 10217 714
10218 10219 97
10218 10129 810
10219 10218 97
10219 10217 202
10219 10256 218
10220 10186 282
10220 10127 352
10220 10223 200
10220 10279 238
10221 9225 3085
10221 10222 618
10221 10224 9
10221 10242 860
10222 10221 618
10222 10227 149
10223 10220 200
10223 10269 198
10224 10221 9
10224 10225 614
10224 10246 858
10224 10943 4661
10225 10224 614
10225 10229 152
10226 10198 84
10226 10216 102
10226 10230 47
10226 10241 67
10227 10197 2076
10227 10222 149
10228 10206 76
10229 10212 2077
10229 10225 152
10230 10214 85
10230 10226 47
10230 10238 45
10230 10243 67
10231 9782 1565
10231 10251 1925
10231 10624 2161
10232 10201 93
10233 10216 68
10233 10237 12
10233 10241 101
10234 10202 95
10235 10034 710
10235 10237 327
10235 10240 417
10235 10304 220
10236 10196 109
10237 10233 12
10237 10235 327
10237 10266 152
10238 10230 45
10239 10205 112
10240 10235 417
10240 10163 278
10240 10309 222
10241 10226 67
10241 10233 101
10241 10243 46
10242 10221 860
10242 10362 965
10243 10230 67
10243 10241 46
10243 10248 45
10244 10147 405
10244 10245 107
10244 10249 44
10244 10250 244
10245 10244 107
10245 10293 160
10246 10224 858
10246 10366 965
10247 10168 333
10247 10171 594
10247 10360 349
10248 10243 45
10249 10244 44
10250 10244 244
10250 10258 82
10250 10355 272
10251 10231 1925
10251 9972 32
10252 10253 206
10252 10145 459
10252 10342 233
10253 10252 206
10253 10254 118
10253 10339 230
10254 10189 228
10254 10253 118
10254 10257 334
10254 10340 228
10255 10181 263
10255 10259 429
10255 10299 89
10256 10219 218
10256 10261 51
10256 10282 113
10257 10191 231
10257 10254 334
10257 10319 149
10258 10250 82
10258 10264 74
10258 10357 277
10259 10255 429
10260 10211 211
10260 10265 172
10260 10271 32
10261 10165 549
10261 10256 51
10261 10263 5
10262 10166 379
10262 10269 286
10262 10356 260
10263 10261 5
10263 10282 62
10264 10146 485
10264 10258 74
10264 10270 121
10264 10364 286
10265 10211 376
10265 10260 172
10265 10272 36
10265 10308 93
10266 10237 152
10267 10001 3568
10267 10268 2325
10267 10274 15
10267 10306 810
10268 10267 2325
10269 10223 198
10269 10262 286
10269 10273 118
10269 10373 293
10270 10264 121
10270 10283 169
10270 10352 214
10271 10260 32
10272 10265 36
10273 10269 118
10273 10279 158
10273 10381 305
10274 10005 3548
10274 10267 15
10274 10318 967
10274 10005 4384
10275 9758 1806
10275 10213 417
10275 10276 1486
10275 10314 79
10276 10275 1486
10277 10174 428
10277 10313 373
10277 10399 438
10278 10195 304
10278 10284 350
10278 10350 260
10279 10220 238
10279 10273 158
10279 10297 283
10279 10390 328
10280 9920 1360
10280 10281 106
10280 10292 125
10281 10280 106
10282 10263 62
10282 10256 113
10282 10467 651
10283 10270 169
10283 10307 287
10283 10358 211
10284 10278 350
10284 10285 52
10284 10286 47
10284 10320 105
10285 10284 52
10286 10284 47
10286 10287 59
10286 10288 34
10286 10323 110
10287 10286 59
10288 10286 34
10288 10289 61
10288 10290 45
10289 10288 61
10290 10288 45
10290 10291 63
10290 10327 115
10291 10290 63
10292 10280 125
10292 10296 65
10292 10322 103
10293 10245 160
10293 10294 189
10293 10331 117
10294 10293 189
10295 10141 549
10295 10302 287
10295 10419 387
10296 10292 65
10297 10186 337
10297 10279 283
10297 10305 222
10297 10408 354
10298 10299 184
10298 10300 420
10298 10385 287
10299 10298 184
10299 10255 89
10299 10451 433
10300 10301 1
10300 10298 420
10300 10303 64
10300 10439 414
10301 10300 1
10302 10295 287
10303 10300 64
10304 10235 220
10305 10186 707
10305 10297 222
10305 10309 201
10305 10429 379
10306 10267 810
10306 10310 193
10306 10315 164
10307 10149 569
10307 10283 287
10307 10372 196
10308 10265 93
10309 10240 222
10309 10305 201
10309 10452 397
10310 10306 193
10310 9815 2499
10310 10313 9
10310 10592 1922
10311 10130 927
10311 10312 571
10311 10549 1210
10312 10311 571
10312 10132 85
10313 10310 9
10313 10277 373
10313 10321 240
10314 10275 79
10314 10317 758
10314 10367 177
10315 10306 164
10315 10324 35
10316 10317 3057
10317 10316 3057
10317 10314 758
10317 10329 677
10318 10274 967
10318 10333 30
10319 10257 149
10319 10331 319
10319 10341 79
10320 10284 105
10321 10313 240
10321 10335 59
10322 10292 103
10322 10354 376
10322 10416 284
10323 10286 110
10323 10327 74
10323 10430 307
10324 10325 238
10324 10315 35
10325 10324 238
10325 10337 62
10326 10177 502
10326 10353 312
10326 10370 124
10327 10323 74
10327 10290 115
10327 10328 64
10328 10327 64
10329 10330 2984
10329 10317 677
10329 10334 137
10329 10349 42
10330 10329 2984
10331 10293 117
10331 10319 319
10331 10355 360
10331 10444 316
10332 10333 248
10332 10348 62
10333 10332 248
10333 10491 848
10333 10318 30
10334 10329 137
10335 10336 102
10335 10321 59
10336 10335 102
10336 10395 568
10336 10353 110
10337 10338 102
10337 10325 62
10338 10337 102
10338 10410 109
10339 10253 230
10339 10340 118
10339 10342 207
10340 10254 228
10340 10339 118
10340 10341 329
10340 10413 233
10341 10319 79
10341 10340 329
10341 10424 249
10342 10339 207
10342 10252 233
10342 10406 211
10343 10344 250
10344 10343 250
10344 10345 69
10344 10374 101
10345 10346 68
10345 10344 69
10345 10351 88
10345 10375 101
10346 10345 68
10347 10348 105
10347 10391 109
10348 10347 105
10348 10332 62
10349 10329 42
10350 10278 260
10350 10383 159
10350 10425 238
10351 10345 88
10352 10270 214
10352 10358 176
10352 10371 75
10353 10326 312
10353 10384 424
10353 10336 110
10354 10322 376
10354 10369 471
10355 10250 272
10355 10331 360
10355 10357 70
10355 10402 174
10356 10262 260
10356 10373 294
10356 10474 379
10357 10258 277
10357 10355 70
10357 10364 74
10358 10283 211
10358 10352 176
10358 10372 300
10358 10431 222
10359 10360 732
10359 10134 85
10360 10359 732
10360 10247 349
10360 10550 1046
10361 9408 2875
10361 9247 3881
10361 10530 910
10361 10659 3061
10362 10363 1779
10362 10242 965
10363 10362 1779
10363 10422 57
10364 10264 286
10364 10357 74
10364 10371 125
10364 10400 128
10365 10366 1778
10365 10428 59
10366 10365 1778
10366 10246 965
10367 10314 177
10367 10368 218
10367 10472 321
10368 10367 218
10368 10393 363
10368 10414 466
10369 9848 1947
10369 10354 471
10369 10524 779
10370 10326 124
10370 10391 314
10370 10483 402
10371 10352 75
10371 10364 125
10371 10460 274
10372 10307 196
10372 10358 300
10372 10453 215
10373 10269 293
10373 10356 294
10373 10381 119
10373 10479 345
10374 10344 101
10374 10375 67
10374 10434 171
10375 10345 101
10375 10374 67
10375 10379 110
10375 10433 164
10376 10377 56
10376 10378 59
10376 10418 130
10377 10376 56
10377 10462 330
10377 10466 272
10378 10376 59
10378 10380 120
10378 10469 271
10379 10375 110
10380 10378 120
10380 10459 230
10381 10273 305
10381 10373 119
10381 10390 195
10382 10383 195
10383 10382 195
10383 10350 159
10383 10421 166
10384 10353 424
10384 10177 848
10384 10411 228
10385 10298 287
10385 10387 102
10385 10450 145
10386 10387 191
10387 10386 191
10387 10385 102
10387 10389 22
10388 10389 188
10389 10388 188
10389 10387 22
10390 10279 328
10390 10381 195
10390 10408 267
10390 10482 305
10391 10370 314
10391 10415 648
10391 10347 109
10392 10180 1342
10392 10396 12
10392 10495 547
10393 10368 363
10393 10394 1871
10393 10414 350
10394 10393 1871
10394 10081 972
10395 10336 568
10395 10174 737
10395 10491 401
10396 10166 1660
10396 10392 12
10396 10449 146
10396 10498 546
10397 10398 1841
10397 10088 971
10398 10397 1841
10398 10412 254
10398 10461 411
10399 10277 438
10399 10405 100
10400 10364 128
10400 10401 73
10400 10409 111
10401 10400 73
10402 10355 174
10403 10118 4694
10404 10405 73
10404 10415 600
10404 10483 329
10405 10404 73
10405 10399 100
10406 10342 211
10406 10413 324
10406 10419 739
10407 10096 4900
10408 10297 354
10408 10390 267
10408 10429 230
10408 10489 303
10409 10400 111
10410 10411 652
10410 10338 109
10411 10410 652
10411 10384 228
10411 10533 1632
10412 10398 254
10412 10426 232
10412 10461 299
10413 10340 233
10413 10406 324
10413 10424 322
10414 10368 466
10414 10393 350
10414 10420 102
10415 10404 600
10415 10391 648
10415 10534 1612
10416 10322 284
10416 10417 265
10416 10511 484
10417 10416 265
10418 10376 130
10419 10406 739
10419 10295 387
10419 10421 278
10420 10414 102
10420 10423 86
10421 10419 278
10421 10383 166
10421 10425 264
10421 10954 5078
10422 10423 2392
10422 10363 57
10423 10422 2392
10423 10420 86
10424 10341 249
10424 10413 322
10424 10436 228
10424 10477 196
10425 10421 264
10425 10350 238
10425 10430 542
10426 10412 232
10426 10427 87
10427 10428 2392
10427 10426 87
10428 10427 2392
10428 10365 59
10429 10305 379
10429 10408 230
10429 10452 191
10429 10490 301
10430 10425 542
10430 10323 307
10430 10433 414
10430 10475 159
10431 10358 222
10431 10432 55
10431 10453 304
10432 10431 55
10433 10430 414
10433 10375 164
10433 10434 68
10434 10433 68
10434 10374 171
10434 10437 107
10435 10436 193
10436 10435 193
10436 10424 228
10436 10444 65
10437 10434 107
10437 10438 384
10437 10439 78
10438 10437 384
10439 10437 78
10439 10300 414
10439 10440 59
10440 10439 59
10440 10441 81
10440 10445 71
10441 10440 81
10442 9992 1480
10442 10443 667
10442 10476 840
10442 10532 647
10443 10442 667
10444 10331 316
10444 10436 65
10444 10458 272
10444 10485 216
10445 10440 71
10445 10446 328
10445 10447 76
10446 10445 328
10447 10445 76
10447 10448 317
10447 10450 195
10448 10447 317
10449 10396 146
10449 10481 265
10449 10506 542
10450 10447 195
10450 10385 145
10450 10451 205
10451 10450 205
10451 10299 433
10451 10480 193
10452 10309 397
10452 10429 191
10452 10492 297
10453 10372 215
10453 10431 304
10453 10473 100
10454 10455 187
10454 10456 454
10454 10478 134
10455 10454 187
10456 10454 454
10457 10458 150
10458 10457 150
10458 10444 272
10458 10460 383
10459 10380 230
10460 10371 274
10460 10458 383
10460 10473 476
10461 10412 299
10461 10398 411
10461 10472 171
10462 10377 330
10462 10463 60
10462 10466 66
10462 10494 245
10463 10462 60
10464 10465 542
10464 10481 114
10465 10464 542
10465 10474 572
10465 10493 518
10466 10377 272
10466 10462 66
10466 10469 103
10467 10282 651
10467 10468 377
10467 10471 331
10467 10581 1011
10468 10467 377
10468 10507 129
10469 10378 271
10469 10466 103
10469 10470 82
10470 10469 82
10471 10467 331
10472 10367 321
10472 10461 171
10472 10595 1091
10473 10453 100
10473 10460 476
10473 10494 1488
10474 10356 379
10474 10465 572
10474 10479 312
10474 10537 708
10475 10430 159
10476 10442 840
10476 10478 287
10477 10424 196
10478 10454 134
10478 10476 287
10478 10480 149
10478 10499 197
10479 10373 345
10479 10474 312
10479 10482 312
10480 10451 193
10480 10478 149
10480 10484 303
10480 10523 383
10481 10464 114
10481 10449 265
10481 10493 194
10481 10527 534
10482 10390 305
10482 10479 312
10482 10489 252
10483 10370 402
10483 10404 329
10483 10505 204
10484 10480 303
10485 10444 216
10485 10486 51
10485 10487 79
10485 10514 238
10486 10485 51
10487 10485 79
10487 10488 73
10487 10516 238
10488 10487 73
10489 10408 303
10489 10482 252
10489 10490 234
10490 10429 301
10490 10489 234
10490 10492 182
10491 10333 848
10491 10395 401
10491 10569 698
10492 10452 297
10492 10490 182
10492 10522 185
10493 10465 518
10493 10481 194
10493 10510 191
10494 10462 245
10494 10473 1488
10494 10503 319
10494 10521 158
10495 10392 547
10495 10498 12
10495 10546 522
10496 10497 249
10496 10536 345
10497 10496 249
10497 10529 337
10498 10396 546
10498 10495 12
10498 10506 118
10498 10547 523
10499 10478 197
10500 10501 1433
10500 10092 98
10501 10500 1433
10501 10540 4179
10501 10743 2482
10502 10503 137
10503 10502 137
10503 10494 319
10503 10511 425
10504 10505 1340
10504 10137 59
10505 10504 1340
10505 10483 204
10505 10568 596
10506 10449 542
10506 10498 118
10506 10527 265
10507 10508 797
10507 10468 129
10508 10507 797
10508 10542 127
10509 10510 348
10510 10509 348
10510 10493 191
10510 10537 377
10510 10553 521
10511 10416 484
10511 10503 425
10511 10524 643
10512 10513 129
10513 10512 129
10513 10518 202
10513 10548 320
10514 10485 238
10514 10515 54
10514 10516 79
10514 10535 215
10515 10514 54
10516 10487 238
10516 10514 79
10516 10517 65
10516 10528 127
10517 10516 65
10518 10513 202
10518 10523 386
10518 10551 338
10519 10520 75
10520 10519 75
10520 10532 731
10521 10494 158
10522 10492 185
10522 10529 367
10522 10631 1165
10523 10480 383
10523 10518 386
10523 10558 374
10524 10369 779
10524 10511 643
10524 10533 845
10524 11245 5519
10525 9834 3539
10526 10003 2613
10527 10481 534
10527 10506 265
10527 10553 381
10527 10567 524
10528 10516 127
10529 10497 337
10529 10522 367
10529 10536 255
10530 10361 910
10530 10531 2523
10530 10576 1312
10530 10768 2590
10531 10530 2523
10532 10442 647
10532 10520 731
10532 10538 247
10532 10584 463
10533 10411 1632
10533 10524 845
10533 10534 22
10533 10621 1425
10534 10415 1612
10534 10533 22
10534 10568 2341
10534 10623 1438
10535 10514 215
10536 10496 345
10536 10529 255
10536 10545 186
10537 10474 708
10537 10510 377
10537 10583 509
10538 10539 289
10538 10532 247
10538 10548 306
10538 10563 268
10539 10538 289
10540 10501 4179
10540 10541 1661
10540 10549 1077
10541 10540 1661
10541 10103 148
10542 10543 286
10542 10508 127
10543 10542 286
10543 10544 506
10543 10557 205
10543 10588 764
10544 10543 506
10545 10536 186
10545 10552 500
10546 10495 522
10546 10547 12
10546 10589 499
10547 10498 523
10547 10546 12
10547 10567 357
10547 10591 499
10548 10513 320
10548 10538 306
10548 10551 199
10548 10575 266
10549 10540 1077
10549 10311 1210
10549 10550 16
10549 11879 11981
10550 10549 16
10550 10360 1046
10550 10564 2240
10550 11881 11988
10551 10518 338
10551 10548 199
10551 10558 347
10551 10578 264
10552 10545 500
10552 10554 166
10552 10561 93
10553 10510 521
10553 10527 381
10553 10583 390
10553 10597 530
10554 10552 166
10554 10562 90
10554 10584 887
10555 10556 298
10555 10616 1278
10555 10689 1838
10556 10555 298
10557 10543 205
10558 10523 374
10558 10551 347
10558 10586 260
10559 10560 227
10560 10559 227
10560 10561 68
10560 10565 59
10561 10552 93
10561 10560 68
10561 10562 166
10561 10572 85
10562 10554 90
10562 10561 166
10562 10577 136
10563 10538 268
10563 10575 313
10563 10590 194
10564 10550 2240
10564 10212 1671
10564 10788 2159
10565 10560 59
10565 10566 375
10565 10574 55
10566 10565 375
10567 10527 524
10567 10547 357
10567 10597 375
10567 10611 501
10568 10505 596
10568 10534 2341
10568 10569 14
10568 11049 4511
10569 10491 698
10569 10568 14
10569 10592 1295
10569 11048 4511
10570 10571 23
10571 10570 23
10571 10573 176
10571 10602 308
10572 10561 85
10573 10571 176
10573 10574 22
10573 10594 179
10574 10565 55
10574 10573 22
10574 10577 207
10575 10548 266
10575 10563 313
10575 10578 197
10575 10596 195
10576 10530 1312
10577 10562 136
10577 10574 207
10577 10598 177
10578 10551 264
10578 10575 197
10578 10586 326
10579 10580 238
10579 10582 105
10580 10579 238
10580 10587 103
10581 10467 1011
10581 10582 286
10581 10599 183
10582 10581 286
10582 10579 105
10583 10537 509
10583 10553 390
10583 10600 886
10583 10622 533
10584 10532 463
10584 10554 887
10584 10590 209
10584 10618 377
10585 9098 9281
10585 10608 545
10586 10558 260
10586 10578 326
10586 10606 199
10587 10588 297
10587 10580 103
10588 10587 297
10588 10543 764
10588 10593 82
10588 10650 845
10589 10546 499
10589 10591 12
10589 10612 288
10590 10563 194
10590 10584 209
10590 10596 320
10591 10547 499
10591 10589 12
10591 10611 335
10591 10614 287
10592 10310 1922
10592 10569 1295
10592 10610 1385
10592 10629 440
10593 10588 82
10594 10573 179
10594 10598 196
10594 10601 85
10595 10472 1091
10595 10705 4832
10595 11101 3672
10596 10575 195
10596 10590 320
10596 10606 509
10597 10553 530
10597 10567 375
10597 10622 406
10597 10628 491
10598 10577 177
10598 10594 196
10598 10603 73
10599 10581 183
10600 10583 886
10601 10594 85
10601 10603 187
10601 10607 65
10602 10571 308
10602 10607 177
10602 10615 115
10603 10598 73
10603 10601 187
10603 10613 71
10604 10065 2675
10604 10605 285
10604 10647 2073
10605 10604 285
10605 10659 6712
10605 10698 2750
10606 10586 199
10606 10596 509
10606 10633 344
10607 10601 65
10607 10602 177
10607 10613 186
10608 10609 4611
10608 10585 545
10608 10697 1210
10609 10608 4611
10610 10592 1385
10611 10567 501
10611 10591 335
10611 10628 369
10612 10589 288
10612 10676 98
10613 10603 71
10613 10607 186
10613 10620 99
10614 10591 287
10614 10679 98
10615 10602 115
10615 10620 364
10615 10627 171
10616 10555 1278
10616 10617 28
10617 10616 28
10617 10625 434
10617 10632 206
10618 10584 377
10618 10619 403
10618 10633 1025
10618 10649 378
10619 10618 403
10620 10613 99
10620 10615 364
10620 10634 189
10621 10533 1425
10621 10978 134
10622 10583 533
10622 10597 406
10622 10636 891
10622 10672 651
10623 10534 1438
10623 10994 135
10624 10231 2161
10624 10706 40
10625 10626 126
10625 10617 434
10625 10645 245
10625 10657 499
10626 10625 126
10627 10615 171
10627 10634 365
10627 10654 350
10628 10597 491
10628 10611 369
10629 10592 440
10629 10630 888
10629 10818 3211
10630 10629 888
10631 10522 1165
10631 10639 40
10631 10640 73
10632 10617 206
10632 10635 53
10632 10643 164
10633 10606 344
10633 10618 1025
10633 10651 205
10633 10687 701
10634 10620 189
10634 10627 365
10634 10638 105
10635 10632 53
10636 10622 891
10636 10658 1270
10636 10688 773
10637 10638 179
10638 10637 179
10638 10634 105
10638 10642 210
10639 10631 40
10639 10640 60
10639 10641 42
10640 10631 73
10640 10639 60
10640 10641 74
10640 10654 919
10641 10640 74
10641 10639 42
10641 10658 204
10642 10638 210
10642 10649 578
10642 10663 265
10643 10632 164
10643 10644 67
10643 10646 393
10644 10643 67
10644 10648 118
10644 10662 250
10645 10625 245
10646 10643 393
10646 10657 421
10646 10660 117
10647 10086 3135
10647 10604 2073
10647 10656 278
10647 10698 761
10648 10644 118
10648 10653 97
10648 10661 141
10649 10618 378
10649 10642 578
10649 10655 157
10649 10668 230
10650 10588 845
10651 10633 205
10651 10652 346
10651 10666 217
10652 10651 346
10653 10648 97
10654 10627 350
10654 10640 919
10654 10663 749
10654 10693 613
10655 10649 157
10656 10647 278
10656 10677 741
10657 10625 499
10657 10646 421
10657 10685 397
10658 10641 204
10658 10636 1270
10658 10686 398
10659 10605 6712
10659 10361 3061
10659 10768 3474
10659 11085 2792
10660 10646 117
10660 10661 300
10660 10665 80
10661 10660 300
10661 10648 141
10661 10662 28
10661 10664 41
10662 10661 28
10662 10644 250
10662 10859 1792
10663 10642 265
10663 10654 749
10663 10673 521
10663 10703 593
10664 10661 41
10665 10660 80
10666 10651 217
10666 10667 202
10666 10684 322
10667 10666 202
10668 10649 230
10668 10673 67
10668 10674 46
10668 10675 68
10669 10670 493
10669 10671 242
10669 10672 47
10669 10681 110
10670 10669 493
10671 10669 242
10672 10622 651
10672 10669 47
10672 10683 111
10673 10668 67
10673 10663 521
10673 10674 48
10673 10680 70
10674 10668 46
10674 10673 48
10674 10675 47
10674 10680 51
10675 10668 68
10675 10674 47
10675 10680 69
10675 10684 734
10676 10677 852
10676 10612 98
10677 10676 852
10677 10656 741
10677 10678 15
10677 10711 692
10678 10679 844
10678 10677 15
10678 10691 1625
10678 10713 691
10679 10678 844
10679 10614 98
10680 10675 69
10680 10674 51
10680 10673 70
10680 10708 516
10681 10669 110
10681 10682 241
10681 10683 30
10682 10681 241
10683 10672 111
10683 10681 30
10683 10691 225
10684 10666 322
10684 10675 734
10684 10687 221
10684 10729 575
10685 10657 397
10685 10690 521
10685 10834 1103
10686 10658 398
10686 10693 979
10686 10704 313
10687 10633 701
10687 10684 221
10687 10740 442
10688 10636 773
10688 10691 918
10689 10555 1838
10689 10700 386
10689 10720 319
10690 10685 521
10690 10692 530
10690 10833 999
10691 10683 225
10691 10678 1625
10691 10688 918
10691 10699 162
10692 10690 530
10692 10781 647
10693 10654 613
10693 10686 979
10693 10696 174
10693 10707 196
10694 10695 2223
10695 10694 2223
10696 10693 174
10696 10703 583
10696 10712 191
10697 10608 1210
10697 10944 1560
10697 11087 3958
10697 11242 6177
10698 10647 761
10698 10605 2750
10698 10711 878
10698 10755 412
10699 10691 162
10699 10702 154
10699 10714 115
10700 10701 73
10700 10689 386
10700 10771 408
10701 10700 73
10701 10723 547
10701 10728 202
10702 10699 154
10703 10663 593
10703 10696 583
10703 10708 537
10703 10916 1328
10704 10686 313
10704 10727 739
10704 10760 320
10705 10595 4832
10705 10706 1090
10705 10818 6153
10706 10705 1090
10706 10624 40
10707 10693 196
10707 10709 89
10707 10741 132
10708 10680 516
10708 10703 537
10708 10729 554
10708 10838 794
10709 10710 78
10709 10707 89
10709 10712 92
10709 10744 166
10710 10709 78
10711 10677 692
10711 10698 878
10711 10713 21
10711 10867 1282
10712 10696 191
10712 10709 92
10712 10746 169
10713 10678 691
10713 10711 21
10713 10763 1532
10713 10831 920
10714 10699 115
10714 10724 45
10714 10736 562
10715 10716 213
10716 10715 213
10717 10718 229
10718 10717 229
10718 10719 86
10718 10722 154
10718 10769 288
10719 10718 86
10719 10763 284
10720 10689 319
10721 10722 250
10722 10721 250
10722 10718 154
10722 10724 201
10722 10774 295
10723 10701 547
10723 10725 87
10723 10761 223
10724 10714 45
10724 10722 201
10724 10745 111
10725 10723 87
10725 10726 142
10725 10762 215
10726 10725 142
10726 10728 103
10726 10766 212
10727 10704 739
10727 10738 141
10727 10792 402
10728 10726 103
10728 10701 202
10728 10767 219
10729 10684 575
10729 10708 554
10729 10730 7
10729 10997 1894
10730 10729 7
10730 10732 97
10730 10749 130
10731 10732 68
10732 10731 68
10732 10730 97
10732 10734 93
10732 10751 128
10733 10734 166
10734 10733 166
10734 10732 93
10734 10735 100
10734 10752 130
10735 10734 100
10735 10740 162
10735 10753 130
10736 10737 103
10736 10714 562
10736 10764 190
10736 10772 573
10737 10736 103
10738 10739 75
10738 10727 141
10738 10741 100
10738 10750 122
10739 10738 75
10740 10687 442
10740 10735 162
10740 10754 129
10741 10707 132
10741 10738 100
10741 10742 34
10742 10741 34
10742 10744 90
10742 10773 174
10743 10501 2482
10744 10709 166
10744 10742 90
10744 10746 90
10744 10759 100
10745 10724 111
10745 10748 212
10745 10782 207
10746 10712 169
10746 10744 90
10746 10747 4
10747 10746 4
10748 10745 212
10748 10764 319
10748 10785 218
10749 10730 130
10749 10751 103
10749 10778 147
10750 10738 122
10751 10732 128
10751 10749 103
10751 10752 92
10751 10784 164
10752 10734 130
10752 10751 92
10752 10753 97
10752 10770 79
10753 10735 130
10753 10752 97
10753 10754 142
10753 10765 60
10754 10740 129
10754 10753 142
10754 10789 224
10755 10698 412
10755 10756 466
10755 10757 12
10755 10776 201
10756 10755 466
10757 10755 12
10757 10758 499
10757 10786 280
10757 10983 1365
10758 10757 499
10759 10744 100
10760 10704 320
10760 10780 381
10760 10805 267
10761 10723 223
10761 10762 98
10761 10775 78
10762 10761 98
10762 10725 215
10762 10766 143
10762 10779 94
10763 10719 284
10763 10713 1532
10763 10769 85
10764 10736 190
10764 10748 319
10764 10791 174
10765 10753 60
10766 10762 143
10766 10726 212
10766 10767 105
10767 10766 105
10767 10728 219
10767 10771 50
10768 10659 3474
10768 10530 2590
10768 10790 343
10768 10847 555
10769 10718 288
10769 10763 85
10769 10774 152
10770 10752 79
10771 10767 50
10771 10700 408
10771 10779 404
10772 10736 573
10773 10742 174
10774 10722 295
10774 10769 152
10774 10782 237
10775 10761 78
10775 10779 104
10775 10917 893
10776 10777 398
10776 10755 201
10776 10820 426
10777 10776 398
10778 10749 147
10778 10784 104
10779 10775 104
10779 10762 94
10779 10771 404
10780 10760 381
10780 10783 91
10780 10800 153
10781 10692 647
10781 10829 319
10782 10745 207
10782 10774 237
10782 10785 201
10782 10846 518
10783 10780 91
10784 10751 164
10784 10778 104
10784 10789 296
10785 10748 218
10785 10782 201
10785 10787 133
10786 10757 280
10786 10806 415
10786 10822 343
10787 10785 133
10787 10791 173
10787 10836 342
10788 10564 2159
10788 11739 10013
10789 10754 224
10789 10784 296
10789 10798 73
10790 10768 343
10790 10794 20
10790 10853 438
10791 10764 174
10791 10787 173
10791 10797 277
10792 10727 402
10792 10793 26
10792 10796 94
10792 10809 79
10793 10792 26
10794 10790 20
10794 10801 39
10795 10796 93
10796 10795 93
10796 10792 94
10796 10812 79
10797 10791 277
10797 10813 227
10797 10836 767
10798 10789 73
10798 10799 341
10798 10860 468
10799 10798 341
10800 10780 153
10800 10804 92
10800 10819 100
10801 10802 146
10801 10794 39
10802 10801 146
10802 10816 196
10802 10840 246
10803 10804 47
10804 10803 47
10804 10800 92
10804 10808 95
10804 10821 112
10805 10760 267
10805 10819 396
10805 10848 337
10806 10786 415
10807 10808 99
10808 10807 99
10808 10804 95
10808 10811 56
10808 10823 119
10809 10792 79
10809 10810 26
10809 10812 93
10809 10826 136
10810 10809 26
10811 10808 56
10812 10796 79
10812 10809 93
10812 10814 90
10812 10827 136
10813 10797 227
10813 10832 670
10813 10963 1308
10814 10815 53
10814 10812 90
10814 10817 83
10814 10828 136
10815 10814 53
10816 10802 196
10816 10824 834
10816 10842 241
10817 10814 83
10818 10705 6153
10818 10629 3211
10818 11048 1816
10818 11347 9943
10819 10800 100
10819 10805 396
10819 10821 93
10820 10776 426
10821 10804 112
10821 10819 93
10821 10823 92
10822 10786 343
10823 10808 119
10823 10821 92
10823 10825 121
10824 10816 834
10824 10829 148
10824 10844 166
10825 10823 121
10825 10826 39
10825 10871 345
10826 10809 136
10826 10825 39
10826 10827 91
10827 10812 136
10827 10826 91
10827 10828 92
10827 10835 72
10828 10814 136
10828 10827 92
10828 10830 111
10828 10843 109
10829 10824 148
10829 10781 319
10829 10833 528
10829 10857 244
10830 10828 111
10831 10713 920
10831 10987 1202
10832 10813 670
10832 10841 285
10832 10856 193
10833 10829 528
10833 10690 999
10833 10834 444
10833 10877 330
10834 10833 444
10834 10685 1103
10834 10859 962
10834 10873 306
10835 10827 72
10836 10787 342
10836 10837 148
10836 10797 767
10836 10858 181
10837 10836 148
10837 10855 182
10838 10708 794
10839 10840 69
10840 10839 69
10840 10802 246
10840 10842 208
10840 10852 117
10841 10832 285
10841 10848 307
10841 10863 190
10842 10840 208
10842 10816 241
10842 10967 653
10843 10828 109
10844 10845 542
10844 10824 166
10844 10857 212
10844 10934 451
10845 10844 542
10846 10782 518
10846 10855 319
10846 10984 775
10847 10768 555
10847 10849 127
10847 10989 735
10848 10805 337
10848 10841 307
10848 10851 14
10849 10847 127
10849 10850 145
10849 10853 131
10850 10849 145
10851 10848 14
10851 10861 345
10851 10874 175
10852 10840 117
10853 10849 131
10853 10790 438
10853 10854 12
10854 10853 12
10855 10837 182
10855 10846 319
10855 10858 147
10855 10864 73
10856 10832 193
10856 10863 267
10856 10923 351
10857 10844 212
10857 10829 244
10857 10878 477
10857 10928 339
10858 10836 181
10858 10855 147
10858 10870 73
10859 10834 962
10859 10662 1792
10859 10887 516
10860 10798 468
10860 10901 230
10860 10918 1559
10861 10862 157
10861 10851 345
10861 10866 116
10861 10884 139
10862 10861 157
10863 10841 190
10863 10856 267
10863 10874 323
10863 10942 347
10864 10855 73
10864 10870 148
10864 10882 221
10865 10866 160
10866 10865 160
10866 10861 116
10866 10869 55
10866 10886 137
10867 10711 1282
10867 10983 812
10868 10869 93
10869 10868 93
10869 10866 55
10869 10871 212
10870 10858 73
10870 10864 148
10870 10882 75
10871 10825 345
10871 10869 212
10871 10872 6
10872 10871 6
10873 10834 306
10873 10875 172
10873 10887 1441
10874 10851 175
10874 10863 323
10874 10941 254
10875 10873 172
10875 10876 196
10875 10908 153
10876 10875 196
10876 10877 66
10876 10909 150
10877 10833 330
10877 10876 66
10877 10878 68
10877 10910 147
10878 10877 68
10878 10857 477
10878 10907 144
10879 10880 144
10880 10879 144
10880 10881 52
10880 10893 89
10881 10880 52
10882 10870 75
10882 10864 221
10882 10883 46
10882 11014 615
10883 10882 46
10884 10861 139
10884 10885 108
10884 10886 116
10884 10891 39
10885 10884 108
10886 10866 137
10886 10884 116
10886 10888 84
10886 10962 266
10887 10859 516
10887 10873 1441
10887 10894 119
10888 10886 84
10889 10890 36
10889 10901 208
10889 10915 61
10890 10889 36
10891 10884 39
10892 10893 226
10893 10892 226
10893 10880 89
10893 10900 501
10893 10920 84
10894 10887 119
10894 10899 50
10894 11045 674
10895 10896 927
10896 10895 927
10896 11001 556
10897 10898 897
10897 11005 569
10898 10897 897
10899 10894 50
10899 10917 137
10899 11053 668
10900 10893 501
10901 10860 230
10901 10889 208
10901 10922 59
10902 10903 43
10903 10902 43
10903 10904 142
10903 10905 69
10903 10924 67
10904 10903 142
10905 10903 69
10905 10906 127
10905 10907 67
10905 10926 67
10906 10905 127
10907 10905 67
10907 10878 144
10907 10910 68
10907 10927 67
10908 10875 153
10908 10913 82
10908 10939 96
10909 10876 150
10909 10910 66
10909 10911 66
10909 10930 67
10910 10907 68
10910 10877 147
10910 10909 66
10910 10929 67
10911 10909 66
10911 10912 43
10911 10913 51
10911 10931 68
10912 10911 43
10913 10911 51
10913 10914 18
10913 10908 82
10913 10932 68
10914 10913 18
10915 10889 61
10915 10921 39
10915 10922 209
10916 10703 1328
10917 10899 137
10917 10775 893
10917 10935 183
10917 11061 651
10918 10860 1559
10919 10920 228
10920 10919 228
10920 10893 84
10920 10948 101
10921 10915 39
10921 10936 41
10921 10937 210
10922 10901 59
10922 10915 209
10922 10937 39
10923 10856 351
10923 10942 223
10923 10963 130
10924 10925 166
10924 10903 67
10924 10926 69
10924 10950 84
10925 10924 166
10925 10928 138
10925 10955 94
10926 10924 69
10926 10905 67
10926 10927 66
10926 10951 86
10927 10926 66
10927 10907 67
10927 10929 68
10927 10938 22
10928 10857 339
10928 10925 138
10928 10933 201
10928 10956 94
10929 10927 68
10929 10910 67
10929 10930 66
10929 10988 297
10930 10929 66
10930 10909 67
10930 10931 67
10930 10946 64
10931 10930 67
10931 10911 68
10931 10932 52
10931 10949 64
10932 10931 52
10932 10913 68
10932 10939 113
10933 10928 201
10933 10934 74
10933 10957 93
10934 10844 451
10934 10933 74
10934 10958 94
10935 10917 183
10935 11062 1020
10935 11071 615
10936 10921 41
10937 10922 39
10937 10921 210
10937 11175 1186
10938 10927 22
10939 10908 96
10939 10940 155
10939 10932 113
10939 10960 71
10940 10939 155
10941 10874 254
10941 10952 380
10941 10964 92
10942 10863 347
10942 10923 223
10942 10964 351
10942 10982 236
10943 10224 4661
10944 10945 1497
10944 10697 1560
10944 11214 2454
10944 11261 6476
10945 10944 1497
10946 10930 64
10947 10948 221
10948 10947 221
10948 10920 101
10948 11081 564
10949 10931 64
10950 10924 84
10951 10926 86
10951 10986 193
10952 10953 189
10952 10941 380
10952 10961 103
10953 10952 189
10954 10421 5078
10954 10959 8
10954 11011 354
10955 10925 94
10955 10956 138
10955 10980 161
10956 10928 94
10956 10955 138
10956 10957 197
10956 10973 116
10957 10933 93
10957 10956 197
10957 10958 93
10957 10975 117
10958 10934 94
10958 10957 93
10958 10966 76
10959 10954 8
10959 11010 346
10959 11245 2948
10960 10939 71
10961 10952 103
10961 10962 13
10961 11060 463
10962 10886 266
10962 10961 13
10962 10972 455
10963 10923 130
10963 10813 1308
10963 10977 120
10964 10941 92
10964 10942 351
10964 10992 210
10965 10966 729
10965 10967 57
10965 11012 233
10966 10965 729
10966 10958 76
10966 10976 44
10967 10842 653
10967 10965 57
10967 10971 115
10967 11009 222
10968 10969 61
10969 10968 61
10969 10970 40
10969 10989 616
10969 11003 207
10970 10969 40
10970 10971 32
10970 11004 206
10971 10970 32
10971 10967 115
10971 11006 205
10972 10962 455
10972 10997 1019
10972 11090 499
10973 10956 116
10973 10974 45
10973 10975 194
10973 10981 47
10974 10973 45
10975 10957 117
10975 10973 194
10975 10976 113
10976 10966 44
10976 10975 113
10976 11000 144
10977 10963 120
10977 10982 183
10977 11017 205
10978 10979 3457
10978 10621 134
10979 10978 3457
10979 10990 124
10979 10991 125
10980 10955 161
10980 10981 143
10980 10986 199
10980 11022 194
10981 10973 47
10981 10980 143
10981 10998 94
10982 10942 236
10982 10977 183
10982 10992 377
10982 11027 204
10983 10867 812
10983 10757 1365
10983 10987 21
10983 11876 9067
10984 10846 775
10984 10985 722
10984 11014 584
10984 11030 201
10985 10984 722
10986 10980 199
10986 10951 193
10986 10988 168
10986 10995 61
10987 10831 1202
10987 10983 21
10987 11600 4396
10987 11875 9013
10988 10986 168
10988 10929 297
10988 11089 365
10989 10847 735
10989 10969 616
10989 10996 177
10989 11134 587
10990 10979 124
10990 11026 67
10991 10979 125
10991 11039 66
10992 10964 210
10992 10982 377
10992 11032 168
10993 10994 3584
10993 11044 65
10994 10993 3584
10994 10623 135
10995 10986 61
10995 11018 138
10995 11033 180
10996 10989 177
10997 10729 1894
10997 10972 1019
10997 11208 1554
10998 10981 94
10998 10999 90
10998 11000 323
10998 11023 101
10999 10998 90
11000 10976 144
11000 10998 323
11000 11041 173
11001 10896 556
11001 11005 12
11001 11177 1579
11002 11003 37
11003 11002 37
11003 10969 207
11003 11004 39
11003 11028 81
11004 11003 39
11004 10970 206
11004 11006 32
11004 11021 61
11005 10897 569
11005 11001 12
11005 11110 412
11005 11180 1574
11006 11004 32
11006 10971 205
11006 11007 53
11006 11029 81
11007 11006 53
11007 11008 125
11007 11009 48
11007 11050 159
11008 11007 125
11009 11007 48
11009 10967 222
11009 11012 56
11009 11057 160
11010 10959 346
11010 11026 362
11010 11135 851
11011 10954 354
11011 11099 359
11011 11100 630
11012 11009 56
11012 10965 233
11012 11013 47
11012 11059 158
11013 11012 47
11014 10882 615
11014 10984 584
11014 11037 341
11015 11016 29
11016 11015 29
11016 11017 121
11016 11063 176
11017 10977 205
11017 11016 121
11017 11027 157
11017 11070 178
11018 10995 138
11019 11020 37
11019 11024 55
11019 11037 161
11019 11042 93
11020 11019 37
11021 11004 61
11022 10980 194
11022 11023 146
11022 11034 70
11023 10998 101
11023 11022 146
11023 11025 169
11023 11035 72
11024 11019 55
11025 11023 169
11026 11010 362
11026 10990 67
11027 10982 204
11027 11017 157
11027 11031 129
11027 11082 174
11028 11003 81
11029 11006 81
11030 10984 201
11031 11027 129
11031 11036 268
11031 11088 174
11032 10992 168
11032 11036 31
11032 11038 47
11033 10995 180
11033 11034 154
11033 11089 268
11033 11123 329
11034 11022 70
11034 11033 154
11034 11035 145
11035 11023 72
11035 11034 145
11035 11041 330
11036 11032 31
11036 11031 268
11036 11038 34
11036 11054 30
11037 11019 161
11037 11014 341
11037 11042 72
11037 11077 104
11038 11032 47
11038 11036 34
11038 11054 47
11038 11067 413
11039 11040 242
11039 10991 66
11040 11039 242
11040 11098 65
11041 11000 173
11041 11035 330
11042 11019 93
11042 11037 72
11042 11056 106
11042 11076 90
11043 11044 242
11043 11100 63
11044 11043 242
11044 10993 65
11045 10894 674
11045 11053 52
11046 11047 69
11047 11046 69
11047 11052 141
11047 11091 130
11048 10818 1816
11048 10569 4511
11048 11049 21
11048 11354 4240
11049 11048 21
11049 10568 4511
11049 11273 5037
11049 11355 4253
11050 11007 159
11051 11052 71
11052 11051 71
11052 11047 141
11052 11058 148
11052 11094 125
11053 11045 52
11053 10899 668
11053 11061 172
11054 11038 47
11054 11036 30
11054 11145 386
11055 11056 113
11056 11055 113
11056 11042 106
11056 11148 1106
11057 11009 160
11058 11052 148
11059 11012 158
11060 10961 463
11060 11067 54
11060 11068 38
11060 11069 56
11061 11053 172
11061 10917 651
11061 11065 53
11062 10935 1020
11062 11080 76
11062 11147 401
11063 11016 176
11063 11064 27
11063 11070 120
11063 11096 127
11064 11063 27
11065 11061 53
11065 11066 400
11065 11071 112
11066 11065 400
11067 11060 54
11067 11038 413
11067 11068 36
11067 11086 56
11068 11060 38
11068 11067 36
11068 11069 40
11068 11086 41
11069 11060 56
11069 11068 40
11069 11086 58
11069 11090 426
11070 11017 178
11070 11063 120
11070 11102 126
11071 11065 112
11071 10935 615
11071 11074 27
11072 11073 68
11072 11081 131
11072 11109 157
11073 11072 68
11074 11071 27
11074 11075 499
11074 11078 51
11075 11074 499
11076 11042 90
11077 11037 104
11078 11074 51
11078 11079 438
11078 11084 32
11079 11078 438
11080 11062 76
11080 11095 170
11080 11111 167
11081 11072 131
11081 10948 564
11081 11112 158
11082 11027 174
11082 11083 70
11082 11088 127
11082 11105 130
11083 11082 70
11084 11078 32
11085 10659 2792
11086 11069 58
11086 11068 41
11086 11067 56
11086 11158 377
11087 10697 3958
11087 11125 363
11088 11031 174
11088 11082 127
11088 11144 280
11089 11033 268
11089 10988 365
11089 11183 631
11090 10972 499
11090 11069 426
11090 11166 426
11091 11047 130
11091 11092 35
11091 11094 139
11091 11114 120
11092 11091 35
11093 11094 164
11094 11093 164
11094 11052 125
11094 11091 139
11094 11113 118
11095 11080 170
11095 11103 70
11095 11160 350
11096 11063 127
11096 11097 29
11096 11102 123
11096 11124 148
11097 11096 29
11098 11099 230
11098 11040 65
11099 11098 230
11099 11011 359
11099 11417 6710
11100 11011 630
11100 11135 491
11100 11043 63
11101 10595 3672
11101 11193 810
11101 11347 3103
11102 11070 126
11102 11096 123
11102 11105 155
11102 11131 148
11103 11095 70
11103 11104 201
11103 11110 73
11104 11103 201
11105 11082 130
11105 11102 155
11105 11106 23
11106 11105 23
11107 11108 219
11108 11107 219
11108 11109 88
11108 11120 47
11109 11108 88
11109 11072 157
11109 11112 132
11109 11121 45
11110 11103 73
11110 11005 412
11110 11163 726
11110 11165 313
11111 11080 167
11111 11150 219
11111 11151 262
11112 11109 132
11112 11081 158
11112 11122 46
11113 11094 118
11113 11114 138
11113 11126 70
11113 11128 209
11114 11113 138
11114 11091 120
11114 11115 373
11114 11127 69
11115 11114 373
11115 11116 411
11115 11210 841
11116 11115 411
11116 11117 269
11116 11118 126
11116 11136 241
11117 11116 269
11118 11116 126
11118 11119 268
11118 11120 116
11118 11136 96
11119 11118 268
11120 11118 116
11120 11108 47
11120 11121 87
11121 11120 87
11121 11109 45
11121 11122 133
11121 11130 58
11122 11121 133
11122 11112 46
11122 11139 83
11123 11033 329
11123 11142 81
11123 11143 149
11124 11096 148
11124 11131 124
11124 11148 133
11125 11087 363
11125 11162 59
11126 11113 70
11126 11127 138
11126 11128 136
11126 11252 1067
11127 11126 138
11127 11114 69
11127 11152 132
11128 11113 209
11128 11126 136
11128 11129 77
11128 11159 153
11129 11128 77
11130 11121 58
11131 11102 148
11131 11124 124
11131 11144 281
11132 11133 34
11133 11132 34
11133 11136 174
11133 11137 21
11134 10989 587
11134 11174 40
11135 11010 851
11135 11100 491
11135 11420 6456
11136 11118 96
11136 11133 174
11136 11116 241
11136 11140 18
11137 11133 21
11137 11138 71
11137 11139 163
11138 11137 71
11138 11140 104
11138 11154 99
11139 11137 163
11139 11122 83
11139 11155 99
11140 11136 18
11140 11138 104
11140 11146 126
11140 11153 92
11141 11142 76
11142 11141 76
11142 11123 81
11142 11143 94
11142 11168 185
11143 11123 149
11143 11142 94
11143 11171 204
11144 11088 280
11144 11131 281
11144 11149 241
11145 11054 386
11145 11149 42
11145 11158 506
11146 11140 126
11147 11062 401
11147 11150 75
11148 11124 133
11148 11056 1106
11148 11178 283
11149 11145 42
11149 11144 241
11149 11190 426
11150 11147 75
11150 11111 219
11150 11151 53
11151 11150 53
11151 11111 262
11151 11156 72
11152 11127 132
11153 11140 92
11153 11154 105
11153 11184 285
11154 11153 105
11154 11138 99
11154 11155 232
11154 11164 53
11155 11154 232
11155 11139 99
11155 11169 97
11156 11151 72
11156 11157 192
11156 11160 39
11157 11156 192
11158 11086 377
11158 11145 506
11158 11166 464
11158 11194 459
11159 11128 153
11160 11156 39
11160 11095 350
11160 11165 180
11161 11162 299
11161 11170 50
11162 11161 299
11162 11125 59
11163 11110 726
11163 11181 808
11163 11207 551
11164 11154 53
11165 11160 180
11165 11110 313
11165 11182 214
11166 11090 426
11166 11158 464
11166 11201 458
11167 11168 53
11168 11167 53
11168 11142 185
11168 11171 85
11169 11155 97
11169 11170 83
11169 11172 38
11170 11169 83
11170 11161 50
11171 11168 85
11171 11143 204
11171 11183 234
11172 11169 38
11172 11184 353
11172 11286 1156
11173 11174 248
11173 11209 1073
11173 11318 1166
11174 11173 248
11174 11134 40
11175 10937 1186
11175 11176 728
11175 11272 872
11176 11175 728
11177 11001 1579
11177 11180 15
11177 11340 3705
11178 11148 283
11178 11179 273
11178 11192 163
11179 11178 273
11180 11005 1574
11180 11177 15
11180 11181 35
11180 11191 249
11181 11163 808
11181 11180 35
11181 11191 255
11182 11165 214
11182 11195 312
11182 11236 583
11183 11171 234
11183 11089 631
11183 11329 1175
11184 11153 285
11184 11172 353
11184 11185 48
11185 11184 48
11185 11210 649
11185 11321 1669
11186 11187 47
11187 11186 47
11187 11189 17
11187 11196 137
11188 11189 196
11189 11188 196
11189 11187 17
11189 11192 195
11190 11149 426
11190 11194 582
11190 11217 337
11191 11181 255
11191 11180 249
11191 11270 1282
11192 11178 163
11192 11189 195
11192 11200 149
11193 11101 810
11193 11206 135
11194 11158 459
11194 11190 582
11194 11201 467
11194 11249 456
11195 11182 312
11195 11198 317
11195 11216 190
11196 11187 137
11196 11197 83
11196 11200 211
11197 11196 83
11198 11195 317
11198 11199 35
11198 11218 149
11199 11198 35
11199 11202 63
11199 11220 151
11200 11192 149
11200 11196 211
11200 11224 457
11201 11166 458
11201 11194 467
11201 11203 45
11202 11199 63
11202 11204 64
11202 11223 151
11203 11201 45
11203 11208 293
11203 11232 271
11204 11202 64
11204 11205 65
11204 11226 152
11205 11204 65
11205 11207 87
11205 11228 152
11206 11193 135
11206 11255 407
11207 11205 87
11207 11163 551
11207 11231 154
11208 10997 1554
11208 11203 293
11208 11232 177
11209 11173 1073
11210 11115 841
11210 11185 649
11210 11252 615
11210 11427 1847
11211 11212 53
11212 11211 53
11212 11213 16
11212 11215 27
11212 11238 191
11213 11212 16
11214 10944 2454
11214 11487 2527
11214 11506 2343
11215 11212 27
11215 11219 80
11215 11235 150
11216 11195 190
11216 11221 94
11216 11241 258
11216 11244 206
11217 11190 337
11217 11224 68
11217 11227 46
11217 11229 62
11218 11198 149
11218 11219 3
11218 11220 45
11219 11215 80
11219 11218 3
11219 11230 63
11220 11218 45
11220 11199 151
11220 11223 64
11220 11239 151
11221 11216 94
11221 11222 95
11221 11225 37
11221 11248 203
11222 11221 95
11223 11220 64
11223 11202 151
11223 11226 66
11223 11240 151
11224 11217 68
11224 11200 457
11224 11227 48
11224 11233 69
11225 11221 37
11226 11223 66
11226 11204 152
11226 11228 64
11226 11243 151
11227 11217 46
11227 11224 48
11227 11229 42
11227 11233 51
11228 11226 64
11228 11205 152
11228 11231 73
11228 11246 151
11229 11217 62
11229 11227 42
11229 11233 68
11229 11250 499
11230 11219 63
11231 11228 73
11231 11207 154
11231 11247 150
11232 11208 177
11232 11203 271
11232 11272 2203
11232 11274 409
11233 11229 68
11233 11227 51
11233 11224 69
11233 11276 395
11234 11235 5
11234 11251 128
11235 11234 5
11235 11215 150
11235 11237 108
11236 11182 583
11236 11241 122
11236 11350 914
11237 11235 108
11237 11239 35
11237 11257 125
11238 11212 191
11239 11237 35
11239 11220 151
11239 11240 64
11239 11254 96
11240 11239 64
11240 11223 151
11240 11243 65
11240 11264 151
11241 11236 122
11241 11216 258
11241 11244 56
11241 11265 160
11242 10697 6177
11242 11359 51
11243 11240 65
11243 11226 151
11243 11246 64
11243 11266 151
11244 11241 56
11244 11216 206
11244 11248 91
11244 11280 318
11245 10524 5519
11245 10959 2948
11245 11380 1182
11246 11243 64
11246 11228 151
11246 11247 61
11246 11268 153
11247 11246 61
11247 11231 150
11247 11434 1753
11248 11244 91
11248 11221 203
11248 11251 128
11248 11258 72
11249 11194 456
11249 11250 57
11249 11253 39
11249 11256 52
11250 11249 57
11250 11229 499
11250 11253 39
11250 11259 55
11251 11248 128
11251 11234 128
11251 11257 123
11251 11278 259
11252 11126 1067
11252 11210 615
11252 11267 199
11253 11249 39
11253 11250 39
11253 11256 42
11253 11259 40
11254 11239 96
11255 11206 407
11255 11746 4909
11256 11249 52
11256 11253 42
11256 11259 63
11256 11274 619
11257 11251 123
11257 11237 125
11257 11262 26
11258 11248 72
11259 11256 63
11259 11253 40
11259 11250 55
11259 11313 360
11260 11261 338
11261 11260 338
11261 10944 6476
11261 11360 871
11262 11257 26
11262 11263 30
11262 11271 91
11263 11262 30
11263 11264 67
11263 11282 208
11264 11263 67
11264 11240 151
11264 11266 63
11264 11292 240
11265 11241 160
11266 11264 63
11266 11243 151
11266 11268 65
11266 11303 246
11267 11252 199
11267 11335 62
11268 11266 65
11268 11246 153
11268 11269 42
11268 11305 241
11269 11268 42
11270 11191 1282
11270 11342 1823
11270 11366 907
11271 11262 91
11272 11175 872
11272 11232 2203
11272 11275 125
11272 11393 1119
11273 11049 5037
11274 11232 409
11274 11256 619
11274 11397 1405
11275 11272 125
11276 11233 395
11276 11277 30
11276 11281 44
11277 11276 30
11277 11281 36
11277 11285 31
11278 11279 46
11278 11251 259
11278 11283 68
11278 11287 56
11279 11278 46
11280 11244 318
11281 11276 44
11281 11277 36
11281 11285 51
11281 11317 505
11282 11263 208
11283 11278 68
11283 11284 138
11283 11288 72
11283 11304 71
11284 11283 138
11285 11281 51
11285 11277 31
11285 11333 388
11286 11172 1156
11286 11290 84
11286 11308 199
11286 11309 76
11287 11278 56
11288 11283 72
11288 11289 89
11288 11291 34
11288 11306 57
11289 11288 89
11290 11286 84
11290 11310 315
11291 11288 34
11292 11264 240
11293 11294 42
11294 11293 42
11294 11295 63
11294 11297 56
11294 11312 62
11295 11294 63
11296 11297 73
11297 11296 73
11297 11294 56
11297 11299 56
11297 11314 62
11298 11299 75
11299 11298 75
11299 11297 56
11299 11300 51
11299 11315 62
11300 11301 74
11300 11299 51
11300 11302 32
11300 11316 62
11301 11300 74
11302 11300 32
11303 11266 246
11304 11283 71
11305 11268 241
11306 11288 57
11307 11308 24
11308 11307 24
11308 11286 199
11308 11309 134
11308 11321 153
11309 11308 134
11309 11286 76
11309 11310 313
11309 11322 143
11310 11309 313
11310 11290 315
11310 11311 47
11310 11328 151
11311 11310 47
11312 11294 62
11312 11314 56
11312 11364 1817
11313 11259 360
11313 11317 55
11313 11319 34
11314 11297 62
11314 11312 56
11314 11315 56
11314 11323 134
11315 11299 62
11315 11314 56
11315 11316 51
11315 11325 133
11316 11300 62
11316 11315 51
11316 11318 309
11316 11326 134
11317 11313 55
11317 11281 505
11317 11319 40
11317 11320 55
11318 11173 1166
11318 11316 309
11318 11448 1297
11319 11313 34
11319 11317 40
11319 11320 42
11320 11319 42
11320 11317 55
11320 11352 377
11321 11308 153
11321 11322 136
11321 11185 1669
11322 11321 136
11322 11309 143
11322 11328 320
11322 11346 229
11323 11314 134
11323 11324 154
11323 11325 57
11323 11339 135
11324 11323 154
11325 11315 133
11325 11323 57
11325 11326 50
11325 11331 77
11326 11316 134
11326 11325 50
11326 11327 31
11326 11332 75
11327 11326 31
11328 11322 320
11328 11310 151
11328 11330 72
11329 11183 1175
11329 11336 1109
11329 11364 459
11330 11328 72
11331 11325 77
11332 11326 75
11333 11285 388
11333 11352 588
11333 11369 445
11334 11335 1245
11334 11338 67
11335 11334 1245
11335 11267 62
11336 11329 1109
11337 11338 32
11337 11341 112
11338 11337 32
11338 11334 67
11339 11323 135
11340 11177 3705
11340 11341 103
11340 11343 334
11340 11348 52
11341 11340 103
11341 11337 112
11342 11270 1823
11342 11343 25
11342 11344 41
11343 11342 25
11343 11340 334
11343 11348 336
11344 11345 126
11344 11342 41
11344 11351 480
11344 11357 185
11345 11344 126
11346 11322 229
11346 11386 652
11346 11409 716
11347 11101 3103
11347 10818 9943
11347 11949 5988
11348 11343 336
11348 11340 52
11348 11349 121
11349 11348 121
11349 11351 39
11349 11353 338
11350 11236 914
11351 11344 480
11351 11349 39
11351 11385 385
11352 11320 377
11352 11333 588
11352 11387 416
11353 11349 338
11353 11398 1128
11353 11518 1300
11354 11048 4240
11354 11908 150
11355 11049 4253
11355 11904 152
11356 11357 641
11357 11356 641
11357 11344 185
11357 11358 10
11358 11357 10
11358 11363 292
11358 11375 164
11359 11360 1251
11359 11242 51
11360 11359 1251
11360 11261 871
11360 11733 3489
11360 11741 3493
11361 11362 16
11361 11366 273
11361 11377 145
11362 11361 16
11363 11358 292
11364 11312 1817
11364 11329 459
11364 11365 174
11364 11464 788
11365 11364 174
11366 11361 273
11366 11270 907
11366 11367 6
11367 11366 6
11367 11368 58
11367 11382 124
11368 11367 58
11368 11370 222
11368 11383 128
11369 11333 445
11369 11371 62
11369 11373 39
11369 11378 53
11370 11368 222
11371 11369 62
11371 11372 756
11371 11373 42
11371 11381 53
11372 11371 756
11373 11369 39
11373 11371 42
11373 11378 42
11373 11381 38
11374 11375 546
11375 11374 546
11375 11358 164
11375 11379 119
11375 11395 194
11376 11377 15
11377 11376 15
11377 11361 145
11377 11382 275
11377 11401 253
11378 11369 53
11378 11373 42
11378 11381 61
11378 11390 502
11379 11375 119
11380 11245 1182
11380 11905 14929
11380 11939 5462
11381 11378 61
11381 11373 38
11381 11371 53
11381 11507 975
11382 11377 275
11382 11367 124
11382 11383 58
11382 11472 739
11383 11382 58
11383 11368 128
11383 11388 183
11383 11399 172
11384 11385 283
11385 11384 283
11385 11351 385
11385 11402 196
11386 11346 652
11387 11352 416
11387 11390 64
11387 11391 40
11387 11392 58
11388 11383 183
11388 11389 86
11388 11408 246
11389 11388 86
11390 11387 64
11390 11378 502
11390 11391 44
11391 11387 40
11391 11390 44
11391 11392 46
11392 11387 58
11392 11391 46
11392 11397 294
11393 11272 1119
11393 11396 7
11393 11406 435
11394 11395 446
11395 11394 446
11395 11375 194
11395 11402 458
11395 11412 206
11396 11393 7
11396 11404 391
11396 11899 4701
11397 11274 1405
11397 11392 294
11397 11735 3306
11398 11353 1128
11398 11400 46
11398 11414 188
11399 11383 172
11400 11398 46
11400 11403 141
11400 11415 177
11401 11377 253
11402 11395 458
11402 11385 196
11402 11426 202
11403 11400 141
11403 11405 59
11403 11418 140
11404 11396 391
11404 11424 483
11404 11445 869
11405 11403 59
11405 11407 63
11405 11421 125
11406 11393 435
11406 11443 525
11406 11446 685
11407 11405 63
11407 11413 149
11407 11422 105
11408 11388 246
11409 11346 716
11409 11410 460
11409 11474 378
11410 11409 460
11410 11411 42
11410 11481 371
11411 11410 42
11412 11395 206
11412 11426 470
11412 11573 1007
11412 11576 1596
11413 11407 149
11413 11416 48
11413 11429 77
11414 11398 188
11414 11415 49
11414 11423 44
11415 11414 49
11415 11400 177
11415 11418 149
11415 11425 44
11416 11413 48
11416 11419 42
11416 11447 162
11417 11099 6710
11417 11424 78
11418 11415 149
11418 11403 140
11418 11421 49
11418 11430 51
11419 11416 42
11419 11427 55
11419 11449 149
11420 11135 6456
11420 11436 80
11421 11418 49
11421 11405 125
11421 11422 60
11421 11433 53
11422 11421 60
11422 11407 105
11422 11429 140
11422 11437 55
11423 11414 44
11423 11425 49
11423 11440 77
11424 11404 483
11424 11431 375
11424 11417 78
11425 11423 49
11425 11415 44
11425 11430 151
11425 11441 82
11426 11412 470
11426 11402 202
11426 11569 897
11427 11419 55
11427 11210 1847
11427 11428 41
11427 11450 135
11428 11427 41
11428 11432 32
11428 11452 157
11429 11422 140
11429 11413 77
11429 11444 98
11430 11425 151
11430 11418 51
11430 11433 50
11430 11462 187
11431 11424 375
11431 11442 67
11432 11428 32
11432 11438 40
11432 11454 147
11433 11430 50
11433 11421 53
11433 11437 61
11433 11467 189
11434 11247 1753
11434 11532 1165
11435 11436 379
11435 11446 66
11436 11435 379
11436 11420 80
11437 11433 61
11437 11422 55
11437 11468 199
11438 11432 40
11438 11439 40
11438 11457 136
11439 11438 40
11439 11458 124
11439 11484 610
11440 11423 77
11441 11425 82
11442 11443 392
11442 11431 67
11443 11442 392
11443 11406 525
11443 11568 3279
11444 11429 98
11444 11447 49
11444 11453 59
11445 11446 497
11445 11404 869
11445 11570 3182
11446 11445 497
11446 11406 685
11446 11435 66
11447 11444 49
11447 11416 162
11447 11449 41
11447 11471 141
11448 11318 1297
11448 11516 1801
11448 11596 999
11449 11447 41
11449 11419 149
11449 11450 53
11449 11473 139
11450 11449 53
11450 11427 135
11450 11451 33
11451 11450 33
11451 11452 40
11451 11475 103
11452 11451 40
11452 11428 157
11452 11454 30
11452 11476 103
11453 11444 59
11454 11452 30
11454 11432 147
11454 11457 39
11454 11477 102
11455 11456 65
11456 11455 65
11456 11459 76
11456 11489 150
11457 11454 39
11457 11438 136
11457 11458 37
11457 11478 102
11458 11457 37
11458 11439 124
11458 11460 31
11458 11479 102
11459 11456 76
11459 11461 77
11459 11490 151
11460 11458 31
11461 11459 77
11461 11465 259
11461 11491 152
11462 11430 187
11462 11467 65
11462 11486 108
11463 11464 213
11464 11463 213
11464 11364 788
11464 11502 162
11465 11461 259
11465 11466 76
11465 11498 151
11466 11465 76
11466 11472 576
11466 11500 150
11467 11462 65
11467 11433 189
11467 11468 70
11467 11480 69
11468 11467 70
11468 11437 199
11468 11469 53
11468 11486 212
11469 11468 53
11469 11470 130
11469 11471 140
11469 11485 58
11470 11469 130
11471 11469 140
11471 11447 141
11471 11473 40
11472 11466 576
11472 11382 739
11472 11505 158
11473 11471 40
11473 11449 139
11473 11475 53
11473 11492 89
11474 11409 378
11474 11481 461
11474 11483 506
11474 11535 450
11475 11473 53
11475 11451 103
11475 11476 39
11475 11527 366
11476 11475 39
11476 11452 103
11476 11477 31
11476 11493 81
11477 11476 31
11477 11454 102
11477 11478 39
11477 11496 80
11478 11477 39
11478 11457 102
11478 11479 37
11478 11497 79
11479 11478 37
11479 11458 102
11479 11482 32
11479 11499 80
11480 11467 69
11481 11474 461
11481 11410 371
11481 11487 186
11482 11479 32
11483 11474 506
11483 11484 27
11484 11439 610
11484 11483 27
11485 11469 58
11486 11462 108
11486 11468 212
11486 11504 362
11487 11481 186
11487 11214 2527
11487 11506 574
11487 11534 377
11488 11489 68
11489 11488 68
11489 11456 150
11489 11490 76
11489 11509 147
11490 11489 76
11490 11459 151
11490 11491 77
11490 11510 149
11491 11490 77
11491 11461 152
11491 11494 187
11492 11473 89
11493 11476 81
11494 11491 187
11494 11495 98
11494 11498 76
11494 11512 151
11495 11494 98
11496 11477 80
11497 11478 79
11498 11494 76
11498 11465 151
11498 11500 76
11498 11513 150
11499 11479 80
11500 11498 76
11500 11466 150
11500 11503 51
11500 11514 150
11501 11502 117
11502 11501 117
11502 11464 162
11502 11516 175
11503 11500 51
11503 11505 511
11503 11515 149
11504 11486 362
11504 11522 365
11504 11525 214
11505 11503 511
11505 11472 158
11505 11521 150
11506 11487 574
11506 11214 2343
11506 11536 306
11506 11547 1889
11507 11381 975
11507 11554 536
11507 11560 402
11507 11567 521
11508 11509 79
11509 11508 79
11509 11489 147
11509 11510 78
11509 11517 65
11510 11509 78
11510 11490 149
11510 11511 145
11511 11510 145
11511 11512 122
11511 11520 68
11512 11511 122
11512 11494 151
11512 11513 75
11513 11512 75
11513 11498 150
11513 11514 77
11513 11526 114
11514 11513 77
11514 11500 150
11514 11515 52
11514 11530 141
11515 11514 52
11515 11503 149
11515 11521 499
11516 11448 1801
11516 11502 175
11516 11519 22
11517 11509 65
11518 11353 1300
11518 11522 558
11518 11566 414
11519 11516 22
11519 11524 147
11519 11656 1128
11520 11511 68
11520 11523 63
11520 11528 211
11520 11548 203
11521 11515 499
11521 11505 150
11521 11529 88
11522 11518 558
11522 11504 365
11522 11525 178
11522 11531 93
11523 11520 63
11524 11519 147
11525 11522 178
11525 11504 214
11525 11533 92
11526 11513 114
11527 11475 366
11527 11533 846
11527 11535 1285
11528 11520 211
11528 11530 88
11528 11553 131
11529 11521 88
11529 11530 545
11529 11562 187
11530 11528 88
11530 11514 141
11530 11529 545
11531 11522 93
11531 11533 176
11531 11726 1651
11532 11434 1165
11532 11537 454
11532 11611 1248
11533 11531 176
11533 11525 92
11533 11527 846
11534 11487 377
11534 11546 74
11535 11527 1285
11535 11474 450
11535 11546 623
11535 11629 871
11536 11506 306
11536 11563 702
11536 11601 526
11537 11532 454
11537 11538 49
11538 11537 49
11538 11539 149
11538 11540 62
11539 11538 149
11540 11538 62
11540 11541 132
11540 11542 64
11540 11574 170
11541 11540 132
11542 11540 64
11542 11543 139
11542 11544 77
11542 11577 179
11543 11542 139
11544 11542 77
11544 11545 100
11544 11548 80
11544 11572 145
11545 11544 100
11546 11535 623
11546 11534 74
11546 11607 532
11547 11506 1889
11548 11544 80
11548 11520 203
11548 11549 92
11548 11591 201
11549 11548 92
11549 11550 160
11549 11553 101
11549 11571 127
11550 11549 160
11551 11552 166
11551 11580 192
11551 11586 503
11552 11551 166
11552 11557 116
11553 11549 101
11553 11528 131
11553 11558 387
11553 11593 301
11554 11555 117
11554 11507 536
11554 11561 150
11555 11554 117
11555 11556 227
11556 11555 227
11556 11575 414
11556 11579 149
11557 11552 116
11557 11564 149
11557 11592 328
11558 11553 387
11558 11559 133
11558 11562 229
11559 11558 133
11560 11507 402
11560 11565 464
11560 11592 266
11561 11554 150
11561 11565 84
11562 11558 229
11562 11529 187
11562 11681 942
11563 11536 702
11564 11557 149
11564 11567 86
11565 11560 464
11565 11561 84
11566 11518 414
11566 11569 533
11566 11732 1504
11567 11507 521
11567 11564 86
11568 11443 3279
11568 11584 49
11569 11426 897
11569 11566 533
11569 11573 486
11570 11445 3182
11570 11588 48
11571 11549 127
11572 11544 145
11573 11412 1007
11573 11569 486
11573 11576 253
11574 11540 170
11575 11556 414
11575 11578 305
11575 11610 2706
11576 11412 1596
11576 11573 253
11577 11542 179
11578 11575 305
11578 11579 23
11579 11556 149
11579 11578 23
11579 11580 10
11579 11583 500
11580 11551 192
11580 11579 10
11580 11581 34
11580 11582 688
11581 11580 34
11581 11586 404
11582 11583 510
11582 11580 688
11582 11612 2498
11583 11582 510
11583 11579 500
11583 11589 69
11584 11585 610
11584 11568 49
11585 11584 610
11585 11586 120
11586 11551 503
11586 11581 404
11586 11585 120
11587 11588 606
11587 11590 118
11588 11587 606
11588 11570 48
11589 11590 404
11589 11583 69
11590 11589 404
11590 11587 118
11591 11548 201
11592 11560 266
11592 11557 328
11592 11625 444
11593 11553 301
11593 11662 629
11594 11595 367
11594 11597 93
11594 11599 228
11595 11594 367
11596 11448 999
11596 11622 1166
11596 11736 1622
11597 11594 93
11597 11599 162
11597 11600 179
11597 11610 169
11598 11599 302
11599 11598 302
11599 11594 228
11599 11597 162
11600 11597 179
11600 10987 4396
11600 11602 75
11600 11618 219
11601 11536 526
11601 11604 65
11601 11912 3725
11602 11600 75
11602 11603 385
11602 11621 238
11602 11621 243
11603 11602 385
11604 11601 65
11604 11608 449
11605 11606 59
11606 11605 59
11606 11615 522
11606 11691 572
11607 11546 532
11607 11608 40
11607 11609 37
11608 11607 40
11608 11604 449
11608 11609 40
11609 11607 37
11609 11608 40
11609 11627 559
11610 11575 2706
11610 11597 169
11610 11612 13
11610 11618 212
11611 11532 1248
11611 11628 342
11611 11638 1123
11612 11582 2498
11612 11610 13
11612 11616 29
11612 11619 212
11613 11614 391
11614 11613 391
11615 11606 522
11615 11620 425
11615 11707 571
11616 11617 136
11616 11612 29
11616 11633 269
11616 11633 263
11617 11616 136
11618 11610 212
11618 11600 219
11618 11619 13
11618 11623 200
11619 11612 212
11619 11618 13
11619 11624 201
11619 11635 181
11620 11615 425
11620 11625 332
11620 11717 571
11621 11602 238
11621 11602 243
11621 11623 51
11621 11626 179
11622 11596 1166
11622 11652 150
11622 11656 553
11623 11618 200
11623 11621 51
11623 11624 14
11623 11906 4585
11624 11619 201
11624 11623 14
11624 11636 121
11624 11909 4567
11625 11592 444
11625 11620 332
11625 11723 568
11626 11621 179
11627 11609 559
11627 11630 12
11628 11611 342
11628 11775 1555
11629 11535 871
11629 11630 111
11629 11688 619
11630 11629 111
11630 11627 12
11631 11632 68
11631 11634 155
11631 11665 151
11632 11631 68
11632 11664 146
11633 11616 269
11633 11616 263
11633 11635 61
11633 11696 247
11634 11631 155
11634 11637 136
11634 11668 150
11635 11633 61
11635 11619 181
11635 11636 154
11635 11937 3271
11636 11624 121
11636 11635 154
11636 11655 236
11636 11663 123
11637 11634 136
11637 11653 70
11637 11682 150
11638 11611 1123
11638 11640 144
11639 11640 132
11640 11639 132
11640 11641 51
11640 11638 144
11640 11678 141
11641 11642 132
11641 11640 51
11641 11644 50
11641 11677 140
11642 11641 132
11643 11644 128
11644 11643 128
11644 11641 50
11644 11645 59
11644 11673 140
11645 11646 118
11645 11644 59
11645 11648 44
11645 11672 139
11646 11645 118
11647 11648 186
11648 11647 186
11648 11645 44
11648 11650 62
11648 11671 139
11649 11650 135
11650 11649 135
11650 11648 62
11650 11651 60
11650 11674 139
11651 11650 60
11652 11622 150
11652 11654 50
11652 11657 172
11653 11637 70
11654 11652 50
11655 11636 236
11655 11659 205
11655 11663 318
11656 11622 553
11656 11519 1128
11656 11683 135
11657 11652 172
11657 11658 84
11657 11660 56
11657 11667 84
11658 11657 84
11659 11655 205
11660 11657 56
11660 11661 97
11660 11683 294
11661 11660 97
11662 11593 629
11662 11679 353
11662 11693 141
11663 11636 123
11663 11655 318
11663 11722 329
11664 11632 146
11664 11665 69
11664 11688 154
11664 11694 105
11665 11631 151
11665 11664 69
11665 11668 154
11665 11703 127
11666 11667 201
11667 11666 201
11667 11657 84
11667 11685 113
11668 11634 150
11668 11665 154
11668 11682 133
11668 11686 44
11669 11670 50
11670 11669 50
11670 11674 179
11670 11676 100
11670 11701 84
11671 11648 139
11671 11672 44
11671 11674 62
11671 11702 84
11672 11671 44
11672 11645 139
11672 11673 60
11672 11698 81
11673 11672 60
11673 11644 140
11673 11677 49
11673 11697 80
11674 11670 179
11674 11650 139
11674 11671 62
11674 11700 83
11675 11676 128
11676 11675 128
11676 11670 100
11676 11699 82
11677 11673 49
11677 11641 140
11677 11678 51
11677 11695 78
11678 11677 51
11678 11640 141
11678 11680 89
11679 11662 353
11679 11681 123
11679 11704 112
11680 11678 89
11681 11679 123
11681 11562 942
11681 11705 124
11682 11637 150
11682 11668 133
11682 11684 26
11682 11689 41
11683 11660 294
11683 11656 135
11683 11687 35
11684 11682 26
11685 11667 113
11686 11668 44
11686 11690 130
11686 11706 126
11687 11683 35
11687 11712 629
11687 11798 1415
11688 11664 154
11688 11629 619
11688 11694 69
11689 11682 41
11689 11690 3
11689 11715 290
11690 11689 3
11690 11686 130
11690 11708 118
11691 11606 572
11691 11692 143
11691 11707 521
11692 11691 143
11693 11662 141
11693 11704 359
11693 11714 150
11694 11664 105
11694 11688 69
11694 11703 75
11695 11677 78
11696 11633 247
11697 11673 80
11698 11672 81
11699 11676 82
11699 11701 103
11699 11720 1281
11700 11674 83
11700 11701 178
11700 11702 62
11701 11670 84
11701 11700 178
11701 11699 103
11702 11700 62
11702 11671 84
11702 11742 864
11703 11665 127
11703 11694 75
11703 11706 150
11704 11693 359
11704 11679 112
11704 11705 125
11704 11719 149
11705 11704 125
11705 11681 124
11705 11721 149
11706 11686 126
11706 11703 150
11706 11715 266
11706 11724 163
11707 11615 571
11707 11691 521
11707 11717 427
11708 11690 118
11709 11710 840
11709 11759 1745
11710 11709 840
11710 11711 238
11710 11757 883
11711 11710 238
11712 11687 629
11712 11716 119
11712 11728 253
11713 11714 62
11714 11713 62
11714 11693 150
11714 11719 369
11715 11689 290
11715 11706 266
11715 11726 578
11716 11712 119
11716 11718 91
11716 11725 115
11717 11620 571
11717 11707 427
11717 11723 327
11718 11716 91
11718 11720 67
11718 11729 250
11719 11714 369
11719 11704 149
11719 11721 128
11719 11727 102
11720 11718 67
11720 11699 1281
11720 11730 241
11721 11719 128
11721 11705 149
11721 11795 1137
11722 11663 329
11723 11625 568
11723 11717 327
11723 11735 430
11724 11706 163
11725 11716 115
11726 11531 1651
11726 11715 578
11726 11732 1008
11726 11935 2632
11727 11719 102
11728 11712 253
11728 11729 217
11729 11728 217
11729 11718 250
11729 11730 104
11730 11729 104
11730 11720 241
11730 11731 67
11730 11829 1682
11731 11730 67
11732 11566 1504
11732 11726 1008
11732 11734 421
11733 11360 3489
11734 11732 421
11734 11795 3117
11734 11976 6363
11735 11397 3306
11735 11723 430
11735 11799 899
11735 11811 849
11736 11596 1622
11736 11796 1868
11736 11919 1909
11737 11738 178
11737 11755 128
11738 11737 178
11738 11740 75
11738 11751 126
11739 10788 10013
11739 11744 2553
11739 11934 2070
11740 11738 75
11740 11750 121
11741 11360 3493
11741 11912 8151
11741 11926 3833
11742 11702 864
11742 11743 191
11742 11867 1259
11743 11742 191
11744 11739 2553
11744 11745 4905
11744 11746 15
11744 11748 19
11745 11744 4905
11746 11744 15
11746 11255 4909
11746 11747 80
11746 11749 24
11747 11746 80
11748 11744 19
11748 11776 383
11749 11746 24
11749 11781 404
11750 11740 121
11750 11751 74
11750 11769 153
11751 11738 126
11751 11750 74
11751 11756 128
11751 11760 57
11752 11753 53
11753 11752 53
11753 11754 48
11753 11755 90
11753 11764 129
11754 11753 48
11755 11753 90
11755 11737 128
11755 11756 48
11755 11765 129
11756 11755 48
11756 11751 128
11756 11761 58
11757 11710 883
11757 11758 358
11757 11759 28
11757 11819 558
11758 11757 358
11759 11709 1745
11759 11757 28
11759 11799 1758
11759 11820 557
11760 11751 57
11760 11761 124
11760 11767 78
11761 11756 58
11761 11760 124
11761 11766 72
11762 11763 190
11763 11762 190
11763 11764 61
11763 11778 177
11764 11763 61
11764 11753 129
11764 11765 93
11764 11770 94
11765 11764 93
11765 11755 129
11765 11766 48
11765 11772 100
11766 11765 48
11766 11761 72
11766 11767 121
11766 11773 101
11767 11766 121
11767 11760 78
11767 11768 16
11768 11767 16
11768 11769 79
11768 11774 87
11769 11768 79
11769 11750 153
11769 11777 139
11770 11764 94
11771 11772 38
11772 11771 38
11772 11765 100
11772 11773 46
11772 11779 77
11773 11772 46
11773 11766 101
11773 11774 122
11773 11780 77
11774 11773 122
11774 11768 87
11774 11782 76
11775 11628 1555
11775 11786 64
11776 11748 383
11776 11781 26
11776 11837 566
11777 11769 139
11778 11763 177
11778 11779 155
11778 11792 341
11779 11778 155
11779 11772 77
11779 11780 45
11779 11793 58
11780 11779 45
11780 11773 77
11780 11782 123
11780 11794 59
11781 11776 26
11781 11749 404
11781 11839 636
11781 11921 1477
11782 11780 123
11782 11774 76
11782 11825 367
11783 11784 70
11784 11783 70
11784 11785 82
11784 11786 77
11784 11800 106
11785 11784 82
11786 11784 77
11786 11775 64
11786 11787 78
11786 11802 106
11787 11786 78
11787 11788 42
11787 11803 106
11788 11787 42
11789 11790 39
11790 11789 39
11790 11791 39
11790 11792 51
11790 11804 106
11791 11790 39
11792 11790 51
11792 11778 341
11793 11779 58
11794 11780 59
11795 11721 1137
11795 11734 3117
11795 11825 1160
11796 11736 1868
11796 11797 96
11796 11798 285
11796 11841 569
11797 11796 96
11798 11796 285
11798 11687 1415
11798 11853 817
11799 11735 899
11799 11759 1758
11799 11811 350
11799 11836 494
11800 11801 71
11800 11784 106
11800 11802 77
11800 11815 110
11801 11800 71
11801 11806 320
11802 11800 77
11802 11786 106
11802 11803 78
11802 11816 110
11803 11802 78
11803 11787 106
11803 11804 82
11803 11817 110
11804 11803 82
11804 11790 106
11804 11805 47
11804 11818 110
11805 11804 47
11806 11801 320
11807 11808 1062
11808 11807 1062
11809 11810 28
11810 11809 28
11811 11735 849
11811 11799 350
11811 11835 278
11812 11813 15
11813 11812 15
11814 11815 71
11815 11814 71
11815 11800 110
11815 11816 77
11815 11828 139
11816 11815 77
11816 11802 110
11816 11817 77
11816 11833 198
11817 11816 77
11817 11803 110
11817 11818 83
11817 11833 270
11818 11817 83
11818 11804 110
11818 11830 144
11818 11838 415
11819 11757 558
11819 11820 28
11819 11857 584
11820 11759 557
11820 11819 28
11820 11836 1536
11820 11858 587
11821 11822 37
11822 11821 37
11823 11824 126
11824 11823 126
11825 11782 367
11825 11795 1160
11825 11838 603
11826 11827 22
11827 11826 22
11828 11815 139
11829 11730 1682
11829 11834 109
11830 11818 144
11831 11832 10
11832 11831 10
11833 11816 198
11833 11817 270
11833 11840 169
11834 11829 109
11834 11844 374
11834 11846 208
11835 11811 278
11835 11855 314
11836 11799 494
11836 11820 1536
11836 11887 719
11837 11776 566
11837 11839 91
11837 11931 1354
11838 11818 415
11838 11825 603
11838 11840 312
11838 11842 111
11839 11837 91
11839 11781 636
11839 11866 311
11839 11914 1040
11840 11833 169
11840 11838 312
11840 11867 1507
11841 11796 569
11841 11843 191
11841 11871 350
11842 11838 111
11843 11841 191
11844 11834 374
11844 11845 254
11844 11846 167
11845 11844 254
11846 11834 208
11846 11844 167
11846 11860 163
11847 11848 133
11848 11847 133
11848 11849 232
11848 11851 162
11848 11856 122
11849 11848 232
11850 11851 126
11851 11850 126
11851 11848 162
11851 11852 44
11851 11859 128
11852 11851 44
11853 11798 817
11853 11854 265
11853 11863 92
11854 11853 265
11855 11835 314
11855 11899 6323
11855 11957 1424
11856 11848 122
11856 11859 158
11856 11861 196
11856 11877 160
11857 11819 584
11857 11858 29
11857 11915 590
11858 11820 587
11858 11857 29
11858 11887 1183
11858 11916 591
11859 11851 128
11859 11856 158
11859 11862 84
11859 11880 160
11860 11846 163
11860 11861 52
11860 11886 561
11861 11856 196
11861 11860 52
11861 11889 290
11862 11859 84
11863 11853 92
11863 11864 263
11863 11865 50
11863 11872 88
11864 11863 263
11865 11863 50
11866 11839 311
11866 11917 626
11866 11920 599
11867 11742 1259
11867 11840 1507
11867 11888 640
11868 11869 54
11869 11868 54
11869 11870 62
11869 11871 173
11869 11874 63
11870 11869 62
11871 11869 173
11871 11841 350
11871 11890 263
11872 11863 88
11872 11873 135
11872 11890 1002
11872 11922 547
11873 11872 135
11874 11869 63
11875 10987 9013
11875 11876 36
11875 11906 1803
11875 12050 3996
11876 11875 36
11876 10983 9067
11876 11913 4314
11876 12048 3969
11877 11856 160
11877 11880 152
11877 11894 219
11878 11879 9682
11879 11878 9682
11879 10549 11981
11879 11881 19
11879 11982 2135
11880 11859 160
11880 11877 152
11880 11885 82
11881 11879 19
11881 10550 11988
11881 11934 1287
11881 11981 2122
11882 11883 110
11883 11882 110
11883 11884 125
11883 11886 77
11883 11897 231
11884 11883 125
11884 11900 272
11885 11880 82
11886 11860 561
11886 11883 77
11886 11889 529
11887 11836 719
11887 11858 1183
11887 11892 253
11887 11945 1270
11888 11867 640
11888 11901 80
11889 11861 290
11889 11886 529
11889 11893 65
11890 11871 263
11890 11872 1002
11890 11924 712
11891 11892 712
11892 11891 712
11892 11887 253
11892 11910 223
11892 11936 727
11893 11889 65
11893 11894 170
11893 11895 33
11894 11877 219
11894 11893 170
11895 11893 33
11895 11896 418
11895 11911 172
11896 11895 418
11896 11897 136
11896 11903 76
11897 11883 231
11897 11898 78
11897 11896 136
11897 11902 53
11898 11897 78
11899 11396 4701
11899 11855 6323
11899 11939 8021
11899 12151 7054
11900 11884 272
11900 11901 197
11900 11902 125
11901 11900 197
11901 11888 80
11902 11897 53
11902 11900 125
11902 11903 136
11902 11923 205
11903 11896 76
11903 11902 136
11903 11911 333
11903 11933 631
11904 11905 5817
11904 11355 152
11905 11904 5817
11905 11380 14929
11905 11907 23
11905 11992 2623
11906 11623 4585
11906 11875 1803
11906 11909 13
11906 12061 4715
11907 11908 5840
11907 11905 23
11907 11946 2386
11907 11991 2591
11908 11907 5840
11908 11354 150
11909 11624 4567
11909 11906 13
11909 11937 3309
11909 12062 4717
11910 11892 223
11911 11895 172
11911 11903 333
11911 11922 946
11911 11933 268
11912 11601 3725
11912 11741 8151
11912 11928 231
11913 11876 4314
11913 11918 851
11913 11969 1425
11914 11839 1040
11914 11917 235
11914 11932 222
11915 11857 590
11915 11916 27
11915 11941 491
11916 11858 591
11916 11915 27
11916 11942 489
11917 11914 235
11917 11866 626
11917 11920 215
11917 11930 188
11918 11913 851
11918 11919 158
11918 11952 682
11919 11918 158
11919 11736 1909
11919 11924 733
11920 11917 215
11920 11866 599
11920 11921 322
11920 11940 433
11921 11920 322
11921 11781 1477
11921 11925 644
11921 11943 466
11922 11872 547
11922 11911 946
11922 11924 1438
11923 11902 205
11924 11919 733
11924 11890 712
11924 11922 1438
11925 11921 644
11926 11741 3833
11926 11927 2040
11926 11984 1681
11927 11926 2040
11928 11912 231
11928 11929 705
11928 11976 3222
11928 12023 2165
11929 11928 705
11930 11917 188
11930 11932 226
11930 11947 438
11931 11837 1354
11931 11932 12
11931 11934 1207
11931 11951 467
11932 11931 12
11932 11914 222
11932 11930 226
11932 11950 460
11933 11911 268
11933 11903 631
11933 12170 8649
11934 11881 1287
11934 11739 2070
11934 11931 1207
11934 11977 1228
11935 11726 2632
11936 11892 727
11936 11938 805
11936 11948 368
11937 11635 3271
11937 11909 3309
11937 11941 905
11937 11965 569
11938 11936 805
11939 11380 5462
11939 11899 8021
11939 12165 10309
11940 11920 433
11940 11943 323
11940 11947 449
11940 11958 312
11941 11915 491
11941 11937 905
11941 11942 28
11942 11916 489
11942 11941 28
11942 11945 551
11943 11940 323
11943 11921 466
11943 11944 340
11943 11953 185
11944 11943 340
11945 11887 1270
11945 11942 551
11945 11948 316
11945 11983 1714
11946 11907 2386
11946 11949 893
11946 11980 1139
11947 11930 438
11947 11940 449
11947 11950 193
11947 11964 364
11948 11936 368
11948 11945 316
11948 11957 1235
11949 11347 5988
11949 11946 893
11949 11956 3804
11950 11932 460
11950 11947 193
11950 11951 13
11950 11970 668
11951 11931 467
11951 11950 13
11951 11955 321
11951 11972 692
11952 11918 682
11952 11954 1590
11952 11969 828
11953 11943 185
11953 11958 336
11953 11974 590
11954 11952 1590
11955 11951 321
11956 11949 3804
11957 11855 1424
11957 11948 1235
11957 12095 4302
11958 11940 312
11958 11953 336
11958 11964 625
11959 11960 382
11960 11959 382
11960 11963 284
11960 11965 227
11961 11962 428
11962 11961 428
11962 11967 199
11962 11971 418
11963 11960 284
11964 11947 364
11964 11958 625
11964 11970 477
11965 11960 227
11965 11937 569
11965 11966 395
11965 11967 14
11966 11965 395
11967 11962 199
11967 11965 14
11967 11968 517
11967 11983 678
11968 11967 517
11969 11952 828
11969 11913 1425
11969 12049 2900
11970 11950 668
11970 11964 477
11970 11972 36
11970 11975 153
11971 11962 418
11972 11951 692
11972 11970 36
11972 11973 46
11973 11972 46
11973 11977 617
11973 11995 620
11974 11953 590
11975 11970 153
11975 11996 538
11975 12010 2123
11976 11928 3222
11976 11734 6363
11976 12138 8899
11977 11934 1228
11977 11973 617
11977 11981 478
11977 11995 784
11978 11979 432
11979 11978 432
11979 11998 456
11979 12007 4698
11980 11946 1139
11980 11988 307
11980 11989 331
11980 11991 242
11981 11881 2122
11981 11977 478
11981 11982 13
11981 12012 570
11982 11879 2135
11982 11981 13
11982 11990 586
11982 12024 793
11983 11945 1714
11983 11967 678
11983 12093 4747
11983 12095 3946
11984 11926 1681
11984 13862 117
11984 13863 117
11985 11986 5
11985 11987 829
11986 11985 5
11987 11985 829
11987 11990 1285
11987 12008 332
11988 11980 307
11988 11993 267
11988 11999 209
11989 11980 331
11989 12000 196
11989 12019 530
11990 11982 586
11990 11987 1285
11990 12073 1882
11991 11980 242
11991 11907 2591
11991 11992 19
11991 11993 43
11992 11991 19
11992 11905 2623
11992 11994 171
11992 12150 4665
11993 11991 43
11993 11988 267
11993 11999 186
11994 11992 171
11994 12001 51
11994 12003 53
11995 11977 784
11995 11973 620
11995 11996 18
11995 12032 487
11996 11995 18
11996 11975 538
11996 11997 651
11996 12031 488
11997 11996 651
11997 12022 887
11997 12029 466
11998 11979 456
11999 11988 209
11999 11993 186
11999 12000 6
11999 12001 15
12000 11989 196
12000 11999 6
12000 12002 15
12000 12019 407
12001 11999 15
12001 11994 51
12001 12002 6
12001 12003 4
12002 12000 15
12002 12001 6
12002 12004 5
12002 12017 374
12003 12001 4
12003 11994 53
12003 12004 6
12003 12017 516
12004 12002 5
12004 12003 6
12005 12006 137
12006 12005 137
12006 12008 436
12006 12011 90
12007 11979 4698
12008 12006 436
12008 11987 332
12008 12009 347
12008 12013 80
12009 12008 347
12010 11975 2123
12010 12022 647
12011 12006 90
12011 12013 420
12011 12018 91
12012 11981 570
12012 12036 455
12012 12040 541
12013 12011 420
12013 12008 80
12013 12016 351
12013 12020 83
12014 12015 1637
12014 12171 6530
12015 12014 1637
12016 12013 351
12017 12002 374
12017 12003 516
12017 12101 5341
12018 12011 91
12018 12020 406
12018 12030 859
12019 11989 530
12019 12000 407
12019 12100 5303
12020 12018 406
12020 12013 83
12020 12021 344
12020 12027 142
12021 12020 344
12022 11997 887
12022 12010 647
12022 12025 108
12023 11928 2165
12023 12071 1536
12023 12138 4250
12024 11982 793
12024 12041 327
12024 12047 550
12025 12022 108
12025 12026 702
12025 12028 19
12026 12025 702
12027 12020 142
12028 12025 19
12028 12029 752
12028 12038 179
12029 11997 466
12029 12028 752
12029 12031 752
12029 12078 1297
12030 12018 859
12031 11996 488
12031 12029 752
12031 12032 13
12031 12066 1037
12032 11995 487
12032 12031 13
12032 12033 277
12032 12058 754
12033 12032 277
12034 12035 197
12035 12034 197
12035 12037 894
12035 12064 4098
12036 12012 455
12036 12040 259
12036 12044 369
12037 12035 894
12038 12028 179
12038 12039 720
12038 12042 96
12039 12038 720
12040 12012 541
12040 12036 259
12040 12051 56
12041 12024 327
12041 12055 60
12042 12038 96
12042 12043 736
12042 12045 152
12043 12042 736
12044 12036 369
12044 12047 112
12044 12053 177
12045 12042 152
12045 12046 468
12045 12143 3981
12046 12045 468
12047 12024 550
12047 12044 112
12047 12057 176
12048 11876 3969
12048 12049 6
12048 12049 27
12048 12050 25
12049 12048 6
12049 12048 27
12049 11969 2900
12049 12088 2104
12050 11875 3996
12050 12048 25
12050 12061 757
12050 12089 2127
12051 12052 323
12051 12040 56
12052 12051 323
12052 12076 83
12053 12044 177
12053 12054 428
12053 12056 107
12054 12053 428
12054 12055 335
12054 12075 70
12055 12054 335
12055 12041 60
12056 12053 107
12056 12059 117
12057 12047 176
12057 12060 159
12058 12032 754
12058 12059 271
12058 12067 373
12059 12056 117
12059 12058 271
12059 12063 217
12060 12057 159
12060 12065 184
12060 12067 351
12061 11906 4715
12061 12050 757
12061 12062 15
12061 12091 2384
12062 11909 4717
12062 12061 15
12062 12090 2300
12062 12093 3283
12063 12059 217
12063 12070 81
12064 12035 4098
12065 12060 184
12065 12068 83
12066 12031 1037
12066 12068 336
12066 12069 164
12067 12060 351
12067 12058 373
12067 12079 197
12068 12066 336
12068 12065 83
12069 12066 164
12069 12070 353
12069 12080 125
12070 12069 353
12070 12063 81
12071 12023 1536
12071 12138 3064
12072 12073 1546
12073 12072 1546
12073 11990 1882
12073 12079 790
12074 12075 864
12074 12086 30
12075 12074 864
12075 12054 70
12076 12077 883
12076 12052 83
12077 12076 883
12077 12083 31
12078 12029 1297
12078 12080 1019
12078 12134 2091
12079 12073 790
12079 12067 197
12079 12080 12
12079 12136 2156
12080 12079 12
12080 12069 125
12080 12078 1019
12080 12135 2154
12081 12082 4133
12082 12081 4133
12082 12087 8027
12082 12172 3798
12083 12084 324
12083 12077 31
12084 12083 324
12084 12096 79
12085 12086 352
12085 12099 82
12086 12085 352
12086 12074 30
12087 12082 8027
12088 12049 2104
12088 12094 704
12089 12050 2127
12089 12092 214
12090 12062 2300
12091 12061 2384
12092 12089 214
12093 11983 4747
12093 12062 3283
12093 12236 8323
12094 12088 704
12095 11957 4302
12095 11983 3946
12095 12126 637
12095 12129 920
12096 12097 1655
12096 12084 79
12097 12096 1655
12097 12102 145
12097 12106 655
12098 12099 1703
12098 12103 70
12098 12121 482
12099 12098 1703
12099 12085 82
12100 12019 5303
12100 12107 51
12101 12017 5341
12101 12104 52
12102 12097 145
12102 12112 82
12103 12098 70
12103 12111 81
12104 12105 136
12104 12101 52
12105 12104 136
12105 12109 208
12105 12127 532
12106 12107 212
12106 12097 655
12106 12108 136
12107 12106 212
12107 12100 51
12108 12106 136
12108 13864 65
12109 12105 208
12109 13865 42
12110 12111 121
12110 12115 262
12110 12117 186
12111 12110 121
12111 12103 81
12112 12113 127
12112 12102 82
12113 12112 127
12113 12114 382
12113 12116 163
12114 12113 382
12114 13864 104
12115 12110 262
12115 13866 113
12116 12113 163
12116 12118 259
12116 12127 306
12117 12110 186
12117 12123 344
12117 12128 374
12118 12116 259
12118 13865 109
12119 12120 128
12119 13867 60
12120 12119 128
12120 12125 215
12120 12128 638
12121 12098 482
12121 12122 183
12121 12124 158
12122 12121 183
12122 13866 49
12123 12117 344
12123 13867 106
12124 12121 158
12124 12133 39
12125 12120 215
12125 12130 43
12126 12095 637
12126 12129 540
12126 12289 5768
12127 12116 306
12127 12105 532
12127 12144 910
12128 12120 638
12128 12117 374
12128 12145 837
12129 12095 920
12129 12126 540
12129 12151 8273
12129 12266 5415
12130 12131 193
12130 12125 43
12131 12130 193
12131 12141 33
12132 12133 225
12132 12140 30
12133 12132 225
12133 12124 39
12134 12078 2091
12134 12135 1473
12134 12175 2175
12135 12080 2154
12135 12134 1473
12135 12182 2720
12136 12079 2156
12136 12137 4375
12136 12181 2716
12137 12136 4375
12138 12023 4250
12138 12071 3064
12138 11976 8899
12139 12140 493
12139 12147 32
12140 12139 493
12140 12132 30
12141 12142 518
12141 12131 33
12142 12141 518
12142 12148 35
12143 12045 3981
12143 12179 81
12144 12127 910
12144 12229 220
12145 12128 837
12145 12232 218
12146 12147 492
12146 12153 39
12147 12146 492
12147 12139 32
12148 12149 468
12148 12142 35
12149 12148 468
12149 12154 37
12150 11992 4665
12150 12165 8374
12150 12178 1887
12151 11899 7054
12151 12129 8273
12151 12285 4617
12152 12153 222
12152 12160 32
12153 12152 222
12153 12146 39
12154 12155 244
12154 12149 37
12155 12154 244
12155 12161 34
12156 12157 602
12157 12156 602
12157 12158 938
12157 12168 419
12158 12157 938
12158 12169 959
12159 12160 536
12159 12184 95
12160 12159 536
12160 12152 32
12161 12162 512
12161 12155 34
12162 12161 512
12162 12185 94
12163 12164 3851
12164 12163 3851
12164 12166 4675
12164 12173 1718
12164 12330 7251
12165 11939 10309
12165 12150 8374
12165 12354 7357
12166 12164 4675
12166 12171 4979
12166 12223 2126
12167 12168 915
12168 12167 915
12168 12157 419
12168 12169 657
12169 12168 657
12169 12158 959
12169 12174 248
12170 11933 8649
12171 12166 4979
12171 12014 6530
12171 12176 952
12171 12190 1092
12172 12082 3798
12172 12180 713
12172 12181 12434
12173 12164 1718
12173 12224 1873
12173 12308 8067
12174 12169 248
12175 12134 2175
12176 12171 952
12176 12177 7966
12176 12180 2700
12176 12194 1129
12177 12176 7966
12178 12150 1887
12178 12179 4377
12178 12237 2331
12179 12178 4377
12179 12143 81
12180 12176 2700
12180 12172 713
12180 12254 2547
12181 12172 12434
12181 12136 2716
12181 12182 12
12181 12198 455
12182 12181 12
12182 12135 2720
12182 12187 3406
12182 12199 453
12183 12184 1587
12183 12197 21
12184 12183 1587
12184 12159 95
12185 12186 1589
12185 12162 94
12186 12185 1589
12186 12188 21
12187 12182 3406
12188 12189 241
12188 12186 21
12189 12188 241
12189 12205 409
12189 12204 861
12190 12171 1092
12190 12191 292
12191 12190 292
12191 12192 710
12191 12193 217
12191 12195 125
12192 12191 710
12193 12191 217
12194 12176 1129
12195 12191 125
12196 12197 509
12196 12203 383
12196 12206 180
12197 12196 509
12197 12183 21
12198 12181 455
12198 12199 12
12198 12200 12
12198 12262 2149
12199 12198 12
12199 12182 453
12199 12200 6
12199 12201 168
12200 12198 12
12200 12199 6
12200 12202 168
12200 12263 2143
12201 12199 168
12201 12203 114
12202 12200 168
12202 12204 94
12203 12201 114
12203 12196 383
12203 12205 659
12204 12202 94
12204 12189 861
12204 12214 249
12205 12189 409
12205 12207 46
12205 12203 659
12206 12196 180
12206 12216 68
12207 12205 46
12207 12217 69
12208 12209 2082
12209 12208 2082
12210 12211 4200
12211 12210 4200
12212 12213 4146
12213 12212 4146
12214 12204 249
12214 12220 19
12215 12216 184
12215 12221 21
12216 12215 184
12216 12206 68
12217 12218 177
12217 12207 69
12218 12217 177
12218 12227 21
12219 12220 138
12219 12221 148
12219 12225 423
12220 12219 138
12220 12214 19
12221 12219 148
12221 12215 21
12222 12223 470
12223 12222 470
12223 12166 2126
12223 12226 3362
12223 12330 3559
12224 12173 1873
12225 12219 423
12225 12315 154
12226 12223 3362
12227 12228 601
12227 12218 21
12228 12227 601
12228 12317 137
12229 12230 4113
12229 12144 220
12230 12229 4113
12230 12233 655
12230 12234 562
12231 12232 4296
12231 12238 811
12231 12241 569
12232 12231 4296
12232 12145 218
12233 12230 655
12233 12239 82
12234 12230 562
12234 12235 456
12234 12325 3794
12235 12234 456
12235 12242 82
12236 12093 8323
12237 12178 2331
12237 12244 82
12238 12231 811
12238 12240 468
12238 12324 3352
12239 12240 182
12239 12233 82
12240 12239 182
12240 12238 468
12240 12243 531
12241 12231 569
12241 12242 205
12241 12245 528
12242 12241 205
12242 12235 82
12243 12240 531
12243 12244 262
12243 12245 17
12244 12243 262
12244 12237 82
12245 12241 528
12245 12243 17
12245 12310 1608
12246 12247 2545
12247 12246 2545
12248 12249 289
12249 12248 289
12249 12255 175
12249 12256 225
12250 12251 3772
12251 12250 3772
12251 12254 240
12251 12265 121
12252 12253 313
12252 12255 433
12252 12281 367
12253 12252 313
12254 12251 240
12254 12180 2547
12254 12267 120
12255 12252 433
12255 12249 175
12255 12256 55
12255 12333 2320
12256 12255 55
12256 12249 225
12256 12257 40
12256 12269 155
12257 12256 40
12258 12259 509
12259 12258 509
12259 12260 2136
12259 12311 1401
12260 12259 2136
12261 12262 319
12262 12261 319
12262 12198 2149
12262 12263 13
12262 12279 320
12263 12262 13
12263 12200 2143
12263 12277 318
12263 12297 1831
12264 12265 224
12265 12264 224
12265 12251 121
12265 12267 253
12265 12273 107
12266 12129 5415
12266 12268 17
12266 12270 155
12266 12286 632
12267 12265 253
12267 12254 120
12267 12275 104
12268 12266 17
12268 12274 172
12268 12276 416
12268 12295 489
12269 12256 155
12270 12266 155
12270 12271 320
12270 12293 457
12271 12270 320
12272 12273 233
12273 12272 233
12273 12265 107
12273 12275 261
12274 12268 172
12274 12280 243
12274 12294 414
12275 12273 261
12275 12267 104
12275 12299 628
12276 12268 416
12277 12263 318
12277 12279 15
12277 12284 864
12277 12307 852
12278 12279 329
12279 12278 329
12279 12262 320
12279 12277 15
12279 12306 848
12280 12274 243
12281 12252 367
12281 12282 85
12281 12283 837
12281 12300 552
12282 12281 85
12283 12281 837
12284 12277 864
12285 12151 4617
12285 12296 222
12285 12295 7217
12286 12266 632
12287 12288 1048
12287 12304 431
12287 12305 1295
12288 12287 1048
12289 12126 5768
12289 12290 1114
12289 12292 921
12289 12331 1690
12290 12289 1114
12290 12309 1596
12290 12332 1710
12291 12292 665
12292 12291 665
12292 12289 921
12292 12295 1140
12292 12340 2306
12293 12270 457
12294 12274 414
12295 12268 489
12295 12292 1140
12295 12285 7217
12295 12341 2297
12296 12285 222
12296 12345 10014
12296 12360 3990
12297 12263 1831
12298 12299 1726
12299 12298 1726
12299 12275 628
12299 12301 7940
12299 12369 4537
12300 12281 552
12301 12299 7940
12302 12303 288
12303 12302 288
12303 12304 591
12304 12287 431
12304 12303 591
12304 12305 863
12305 12287 1295
12305 12304 863
12305 12309 6706
12306 12279 848
12306 12307 12
12306 12320 260
12307 12306 12
12307 12277 852
12307 12318 2445
12307 12322 260
12308 12173 8067
12308 12333 3721
12308 12352 4357
12309 12290 1596
12309 12305 6706
12310 12245 1608
12310 12311 3158
12310 12312 1594
12311 12259 1401
12311 12310 3158
12311 12321 3323
12312 12310 1594
12312 12324 948
12312 12383 4626
12313 12314 761
12314 12313 761
12314 12315 4366
12314 12316 18
12314 12373 6059
12315 12314 4366
12315 12225 154
12316 12314 18
12316 12317 4352
12316 12326 2531
12316 12374 6047
12317 12316 4352
12317 12228 137
12318 12307 2445
12318 12321 674
12318 12328 332
12319 12320 674
12320 12319 674
12320 12306 260
12320 12322 12
12320 12326 270
12321 12311 3323
12321 12318 674
12321 12334 1070
12322 12320 12
12322 12307 260
12322 12323 278
12322 12342 1625
12323 12322 278
12324 12312 948
12324 12238 3352
12324 12325 17
12324 12349 2725
12325 12324 17
12325 12234 3794
12325 12348 2696
12325 12350 6379
12326 12316 2531
12326 12320 270
12326 12372 3914
12327 12328 462
12328 12327 462
12328 12318 332
12328 12329 122
12329 12328 122
12330 12164 7251
12330 12223 3559
12330 12370 3649
12331 12289 1690
12331 12332 718
12331 12336 447
12332 12331 718
12332 12290 1710
12332 12335 3952
12332 12337 468
12333 12255 2320
12333 12308 3721
12333 12339 1963
12334 12321 1070
12335 12332 3952
12336 12331 447
12336 12337 717
12336 12343 261
12337 12336 717
12337 12332 468
12337 12351 5798
12337 12355 1176
12338 12339 1809
12339 12338 1809
12339 12333 1963
12339 12598 13484
12340 12292 2306
12340 12341 1389
12340 12343 1230
12340 12380 2958
12341 12295 2297
12341 12340 1389
12341 12360 7235
12341 12380 3068
12342 12322 1625
12342 12344 1479
12342 12346 258
12343 12340 1230
12343 12336 261
12343 12405 4091
12344 12342 1479
12345 12296 10014
12345 12354 1681
12345 12569 11701
12346 12342 258
12346 12347 1276
12346 12371 2299
12347 12346 1276
12348 12325 2696
12348 12356 81
12349 12324 2725
12349 12359 81
12350 12325 6379
12351 12337 5798
12352 12353 1179
12352 12308 4357
12352 12370 11557
12353 12352 1179
12354 12165 7357
12354 12345 1681
12354 12366 5119
12355 12337 1176
12356 12357 1632
12356 12348 81
12357 12356 1632
12357 12365 27
12358 12359 1609
12358 12368 27
12359 12358 1609
12359 12349 81
12360 12296 3990
12360 12341 7235
12360 12361 128
12361 12360 128
12361 12411 2803
12361 12630 12868
12362 12363 1701
12363 12362 1701
12363 12364 1033
12364 12363 1033
12365 12366 1067
12365 12357 27
12366 12365 1067
12366 12354 5119
12366 12367 14
12366 12387 1410
12367 12368 1068
12367 12366 14
12367 12383 4513
12367 12388 1429
12368 12367 1068
12368 12358 27
12369 12299 4537
12369 12370 7219
12369 12373 4448
12369 12420 2312
12370 12352 11557
12370 12330 3649
12370 12369 7219
12370 12476 6730
12371 12346 2299
12371 12372 12
12371 12375 38
12372 12326 3914
12372 12371 12
12372 12375 35
12372 12374 6152
12373 12369 4448
12373 12314 6059
12373 12374 31
12373 12385 1598
12374 12373 31
12374 12316 6047
12374 12372 6152
12374 12386 1624
12375 12372 35
12375 12371 38
12375 12382 457
12375 12390 10150
12375 12400 1514
12376 12377 730
12377 12376 730
12377 12378 266
12377 12379 622
12377 12381 898
12378 12377 266
12379 12377 622
12380 12341 3068
12380 12340 2958
12380 12384 285
12380 12405 2166
12381 12377 898
12382 12375 457
12382 12398 950
12382 12399 1047
12383 12312 4626
12383 12367 4513
12383 12389 3185
12383 12433 2997
12384 12380 285
12385 12373 1598
12385 12435 120
12386 12374 1624
12386 12437 117
12387 12366 1410
12387 12543 828
12388 12367 1429
12388 12546 822
12389 12383 3185
12389 12390 173
12389 12391 170
12390 12389 173
12390 12392 155
12390 12375 10150
12391 12389 170
12391 12392 188
12391 12475 4096
12392 12390 155
12392 12391 188
12392 12393 137
12392 12404 476
12393 12392 137
12394 12395 45
12394 12396 331
12394 12397 195
12395 12394 45
12396 12394 331
12397 12394 195
12397 12398 349
12397 12403 130
12398 12382 950
12398 12397 349
12398 12399 803
12398 12409 380
12399 12382 1047
12399 12398 803
12399 12400 20
12399 12402 55
12400 12375 1514
12400 12399 20
12400 12401 338
12400 12426 1177
12401 12400 338
12402 12399 55
12402 12408 366
12402 12410 296
12403 12397 130
12404 12392 476
12405 12380 2166
12405 12343 4091
12405 12505 6469
12405 12532 6549
12406 12407 161
12407 12406 161
12407 12409 1102
12407 12423 683
12408 12402 366
12408 12410 218
12408 12422 761
12409 12398 380
12409 12407 1102
12409 12410 847
12409 12429 609
12410 12408 218
12410 12402 296
12410 12409 847
12410 12424 606
12411 12361 2803
12412 12413 108
12412 12414 252
12412 12415 538
12412 12431 759
12413 12412 108
12414 12412 252
12415 12412 538
12415 12416 1137
12415 12430 465
12416 12415 1137
12417 12418 108
12418 12417 108
12418 12419 302
12418 12420 539
12418 12434 1267
12419 12418 302
12420 12369 2312
12420 12418 539
12420 12421 661
12420 12461 1887
12421 12420 661
12422 12408 761
12422 12426 16
12422 12424 678
12422 12540 8217
12423 12407 683
12423 12429 1127
12423 12427 4672
12424 12410 606
12424 12422 678
12424 12429 859
12425 12426 4565
12426 12425 4565
12426 12400 1177
12426 12422 16
12426 12490 4302
12427 12428 1314
12427 12423 4672
12427 12477 2966
12428 12427 1314
12429 12424 859
12429 12409 609
12429 12423 1127
12429 12432 775
12430 12415 465
12431 12412 759
12432 12429 775
12433 12383 2997
12433 12442 1496
12433 12670 10319
12434 12418 1267
12434 12435 3506
12434 12436 18
12434 12438 163
12435 12434 3506
12435 12385 120
12436 12434 18
12436 12437 3518
12436 12439 141
12436 12454 930
12437 12436 3518
12437 12386 117
12438 12434 163
12438 12446 351
12438 12460 772
12439 12436 141
12439 12447 363
12439 12459 529
12440 12441 444
12440 12442 88
12440 12444 84
12440 12449 194
12441 12440 444
12442 12440 88
12442 12443 448
12442 12433 1496
12442 12448 181
12443 12442 448
12444 12445 443
12444 12440 84
12444 12453 240
12445 12444 443
12446 12438 351
12446 12452 51
12447 12439 363
12447 12456 51
12448 12442 181
12449 12440 194
12450 12451 54
12450 12452 52
12450 12455 123
12451 12450 54
12451 12458 50
12452 12450 52
12452 12446 51
12453 12444 240
12454 12436 930
12455 12450 123
12455 12479 138
12456 12457 175
12456 12447 51
12457 12456 175
12457 12460 298
12457 12480 136
12458 12459 700
12458 12451 50
12459 12458 700
12459 12439 529
12459 12463 105
12460 12457 298
12460 12438 772
12460 12462 84
12461 12420 1887
12461 12464 298
12461 12468 310
12462 12460 84
12462 12464 106
12463 12459 105
12463 12465 130
12464 12462 106
12464 12461 298
12464 12466 211
12465 12463 130
12465 12467 197
12465 12469 278
12466 12464 211
12466 12473 71
12467 12465 197
12467 12471 71
12468 12461 310
12468 12470 73
12468 12471 393
12469 12465 278
12469 12470 64
12469 12474 3832
12470 12468 73
12470 12469 64
12470 12472 197
12471 12468 393
12471 12467 71
12472 12473 474
12472 12470 197
12472 12494 1949
12473 12472 474
12473 12466 71
12474 12469 3832
12475 12391 4096
12476 12370 6730
12476 12587 5229
12476 12595 5878
12477 12427 2966
12477 12486 817
12477 12509 3347
12478 12479 3527
12478 12483 49
12479 12478 3527
12479 12455 138
12480 12481 3529
12480 12457 136
12481 12480 3529
12481 12484 49
12482 12483 109
12482 12582 70
12483 12482 109
12483 12478 49
12484 12485 117
12484 12481 49
12485 12484 117
12485 12584 69
12486 12477 817
12486 12487 1704
12486 12515 1604
12487 12486 1704
12487 12488 121
12487 12491 371
12488 12487 121
12488 12489 120
12488 12498 1189
12489 12488 120
12490 12426 4302
12490 12493 4822
12490 12565 5935
12491 12487 371
12492 12493 151
12493 12492 151
12493 12490 4822
12493 12494 3103
12493 12513 1115
12494 12472 1949
12494 12493 3103
12494 12516 1034
12495 12496 803
12495 12497 934
12495 12508 682
12496 12495 803
12497 12495 934
12497 12504 1093
12498 12488 1189
12498 12499 60
12498 12500 125
12499 12498 60
12500 12501 118
12500 12498 125
12500 12502 83
12500 12525 551
12501 12500 118
12502 12503 124
12502 12500 83
12502 12511 220
12502 12512 1300
12503 12502 124
12504 12497 1093
12504 12506 213
12504 12524 518
12505 12405 6469
12506 12504 213
12506 12507 200
12506 12526 473
12507 12506 200
12507 12509 86
12507 12528 429
12508 12495 682
12509 12477 3347
12509 12507 86
12509 12510 181
12510 12509 181
12510 12515 869
12510 12529 377
12511 12502 220
12512 12502 1300
12513 12493 1115
12513 12514 1760
12513 12516 3118
12513 12565 1584
12514 12513 1760
12515 12486 1604
12515 12510 869
12515 12519 626
12516 12517 915
12516 12494 1034
12516 12513 3118
12516 12583 2287
12517 12516 915
12518 12519 292
12519 12518 292
12519 12515 626
12519 12520 64
12519 12535 418
12520 12521 294
12520 12519 64
12520 12522 146
12521 12520 294
12522 12523 354
12522 12520 146
12522 12538 929
12523 12522 354
12524 12504 518
12524 12526 196
12524 12527 408
12525 12500 551
12526 12506 473
12526 12524 196
12526 12528 183
12527 12524 408
12528 12507 429
12528 12526 183
12528 12529 250
12528 12536 241
12529 12510 377
12529 12528 250
12529 12575 1784
12530 12531 293
12531 12530 293
12532 12405 6549
12532 12537 1350
12532 12539 496
12533 12534 361
12534 12533 361
12535 12519 418
12536 12528 241
12537 12532 1350
12538 12522 929
12538 12542 2299
12539 12532 496
12539 12554 1291
12539 12754 6008
12540 12422 8217
12540 12557 902
12540 12571 640
12541 12542 2294
12542 12541 2294
12542 12538 2299
12542 12551 1178
12542 12555 270
12543 12544 9332
12543 12387 828
12544 12543 9332
12544 12547 56
12545 12546 9340
12545 12550 58
12546 12545 9340
12546 12388 822
12547 12548 68
12547 12544 56
12548 12547 68
12548 12558 58
12549 12550 48
12549 12553 58
12550 12549 48
12550 12545 58
12551 12542 1178
12552 12553 80
12552 12560 293
12552 12564 360
12553 12552 80
12553 12549 58
12554 12539 1291
12555 12542 270
12555 12556 242
12555 12561 1177
12555 12574 539
12556 12555 242
12557 12540 902
12557 12566 1139
12557 12571 1014
12557 12604 1905
12558 12559 372
12558 12548 58
12559 12558 372
12559 12562 62
12559 12572 57
12560 12552 293
12560 12568 57
12561 12555 1177
12562 12563 656
12562 12559 62
12563 12562 656
12563 12567 341
12563 12570 231
12564 12552 360
12564 12569 197
12564 12573 742
12565 12513 1584
12565 12490 5935
12565 12566 12
12565 12583 3240
12566 12565 12
12566 12557 1139
12566 12586 3236
12566 12604 1534
12567 12563 341
12567 12568 202
12567 12580 972
12568 12567 202
12568 12560 57
12569 12345 11701
12569 12564 197
12569 12570 14
12570 12569 14
12570 12563 231
12570 12758 5721
12571 12557 1014
12571 12540 640
12571 12602 1291
12572 12573 368
12572 12559 57
12573 12572 368
12573 12564 742
12573 12579 809
12574 12555 539
12574 12578 309
12574 12602 8028
12575 12529 1784
12576 12577 3048
12577 12576 3048
12578 12574 309
12579 12573 809
12579 12701 50
12580 12567 972
12580 12700 47
12581 12582 7251
12581 12633 49
12582 12581 7251
12582 12482 70
12583 12516 2287
12583 12565 3240
12583 12595 1139
12584 12585 7252
12584 12485 69
12585 12584 7252
12585 12635 48
12586 12566 3236
12586 12597 1142
12586 12607 992
12587 12476 5229
12587 12588 276
12587 12603 277
12588 12587 276
12588 12589 76
12588 12595 2259
12588 12603 407
12589 12588 76
12589 12592 1675
12589 12606 515
12590 12591 1824
12590 13868 64
12591 12590 1824
12591 12596 975
12591 12600 952
12592 12589 1675
12592 12597 511
12592 12609 497
12593 12594 1928
12593 12605 1501
12593 12612 1285
12594 12593 1928
12594 13869 61
12595 12588 2259
12595 12476 5878
12595 12583 1139
12595 12597 12
12596 12591 975
12596 12610 313
12597 12592 511
12597 12595 12
12597 12586 1142
12597 12608 492
12598 12599 9575
12598 12339 13484
12598 12614 579
12598 12618 10254
12599 12598 9575
12600 12591 952
12600 12601 686
12600 12622 5714
12601 12600 686
12601 12613 309
12602 12571 1291
12602 12574 8028
12602 12604 1875
12602 12663 1784
12603 12587 277
12603 12588 407
12603 12606 49
12603 12626 788
12604 12566 1534
12604 12557 1905
12604 12602 1875
12604 12607 3311
12604 12642 1435
12605 12593 1501
12605 12611 806
12605 12623 5064
12606 12603 49
12606 12589 515
12606 12627 737
12607 12586 992
12607 12604 3311
12607 12608 932
12607 12639 953
12608 12597 492
12608 12607 932
12608 12609 678
12608 12640 1128
12609 12592 497
12609 12608 678
12609 12631 739
12610 12611 340
12610 12596 313
12611 12610 340
12611 12605 806
12611 13232 18517
12612 12593 1285
12612 12613 341
12612 13233 18518
12613 12612 341
12613 12601 309
12614 12598 579
12614 12615 228
12614 12616 42
12615 12614 228
12615 12619 273
12615 12622 687
12616 12617 215
12616 12614 42
12616 12621 229
12617 12616 215
12617 12620 272
12617 12624 449
12618 12598 10254
12618 12632 7564
12618 12655 1176
12619 12615 273
12619 12628 94
12620 12617 272
12620 12629 95
12621 12616 229
12621 13303 82
12622 12600 5714
12622 12615 687
12622 12624 726
12623 12605 5064
12623 12625 724
12623 12629 572
12624 12622 726
12624 12617 449
12624 12654 10240
12625 12623 724
12625 12628 683
12625 12647 10084
12626 12603 788
12626 12627 12
12626 12643 5737
12626 12697 1965
12627 12626 12
12627 12606 737
12627 12631 2018
12627 12698 1967
12628 12625 683
12628 12619 94
12629 12623 572
12629 12620 95
12630 12361 12868
12630 12722 4123
12630 12738 2760
12631 12627 2018
12631 12609 739
12631 12638 702
12631 12649 490
12632 12618 7564
12632 12633 2090
12632 12634 14
12632 12636 31
12633 12632 2090
12633 12581 49
12634 12632 14
12634 12635 2072
12634 12637 35
12634 12643 1446
12635 12634 2072
12635 12585 48
12636 12632 31
12636 12685 79
12637 12634 35
12637 12680 80
12638 12631 702
12638 12640 495
12638 12667 729
12639 12607 953
12639 12640 536
12639 12641 1129
12639 12657 511
12640 12638 495
12640 12608 1128
12640 12639 536
12640 12665 506
12641 12639 1129
12641 12642 1455
12641 12675 925
12642 12641 1455
12642 12604 1435
12642 12644 890
12642 12678 937
12643 12634 1446
12643 12626 5737
12643 12713 1737
12644 12642 890
12644 12645 550
12644 12679 882
12645 12644 550
12645 12663 1102
12645 12676 781
12646 12647 155
12646 12653 413
12647 12646 155
12647 12648 153
12647 12625 10084
12648 12647 153
12648 12662 79
12649 12631 490
12649 12666 249
12650 12651 247
12650 13870 286
12651 12650 247
12651 12661 750
12651 12668 2758
12652 12653 248
12652 12659 489
12652 12669 2760
12653 12652 248
12653 12646 413
12654 12624 10240
12654 13870 126
12655 12618 1176
12655 12656 43
12655 12661 235
12656 12655 43
12656 12660 39
12656 12664 29
12657 12639 511
12657 12665 544
12657 12671 409
12658 12659 673
12658 13870 294
12659 12658 673
12659 12652 489
12659 12660 219
12660 12656 39
12660 12664 49
12660 12659 219
12661 12662 384
12661 12651 750
12661 12655 235
12662 12661 384
12662 12648 79
12663 12645 1102
12663 12602 1784
12663 12673 441
12663 12682 5480
12664 12656 29
12664 12660 49
12664 12755 2377
12665 12640 506
12665 12657 544
12665 12667 914
12665 12672 383
12666 12649 249
12666 12667 289
12666 12677 454
12667 12666 289
12667 12638 729
12667 12665 914
12667 12677 537
12668 12651 2758
12668 12693 2257
12669 12652 2760
12669 12690 2110
12670 12433 10319
12670 12824 123
12671 12657 409
12671 12672 521
12671 12683 424
12672 12665 383
12672 12671 521
12672 12686 449
12673 12663 441
12673 12676 978
12673 12723 1900
12674 12675 509
12675 12674 509
12675 12641 925
12675 12678 1412
12675 12687 407
12676 12645 781
12676 12673 978
12676 12679 584
12676 12688 401
12677 12666 454
12677 12667 537
12677 12692 432
12677 12694 546
12678 12675 1412
12678 12642 937
12678 12679 941
12678 12691 352
12679 12644 882
12679 12676 584
12679 12678 941
12679 12689 338
12680 12681 1729
12680 12637 80
12681 12680 1729
12681 12696 444
12681 12705 534
12682 12663 5480
12682 12726 1169
12682 12802 14937
12683 12671 424
12683 12686 544
12683 12687 1039
12683 12731 961
12684 12685 1941
12684 12695 228
12684 12693 927
12685 12684 1941
12685 12636 79
12686 12672 449
12686 12683 544
12686 12692 1265
12686 12733 978
12687 12683 1039
12687 12675 407
12687 12691 1384
12687 12725 834
12688 12676 401
12688 12689 604
12688 12723 816
12689 12679 338
12689 12688 604
12689 12691 977
12689 12727 858
12690 12669 2110
12690 12706 652
12690 12710 543
12691 12678 352
12691 12689 977
12691 12687 1384
12691 12724 814
12692 12677 432
12692 12686 1265
12692 12694 307
12692 12729 848
12693 12668 2257
12693 12684 927
12693 12703 462
12694 12677 546
12694 12692 307
12694 12698 1735
12695 12684 228
12695 13872 229
12696 12681 444
12696 13871 193
12697 12626 1965
12697 12698 12
12697 12713 5448
12697 12769 2635
12698 12697 12
12698 12627 1967
12698 12694 1735
12698 12753 1107
12699 12700 4307
12699 12764 28
12700 12699 4307
12700 12580 47
12701 12702 4317
12701 12579 50
12702 12701 4317
12702 12765 32
12703 12693 462
12703 12708 411
12703 12715 672
12704 12705 509
12704 12711 120
12705 12704 509
12705 12681 534
12705 12715 376
12706 12690 652
12706 12707 44
12706 12709 343
12707 12706 44
12707 12712 385
12707 12714 530
12708 12703 411
12708 13871 200
12709 12706 343
12709 13872 270
12710 12690 543
12710 12711 162
12710 12720 433
12711 12710 162
12711 12704 120
12712 12707 385
12712 13873 194
12713 12643 1737
12713 12697 5448
12713 12718 625
12713 12719 240
12714 12707 530
12714 12717 916
12714 12741 1535
12715 12703 672
12715 12705 376
12715 12739 1487
12716 12717 212
12716 13873 251
12717 12716 212
12717 12714 916
12717 13000 10632
12718 12713 625
12719 12713 240
12720 12710 433
12720 12721 437
12720 13008 10579
12721 12720 437
12721 13872 273
12722 12630 4123
12722 12732 158
12722 12737 382
12723 12688 816
12723 12673 1900
12723 12727 649
12723 12734 144
12724 12691 814
12724 12725 1347
12724 12727 1069
12724 12759 929
12725 12687 834
12725 12724 1347
12725 12731 1004
12725 12955 7470
12726 12682 1169
12726 12728 9
12726 12735 337
12727 12724 1069
12727 12689 858
12727 12723 649
12727 12736 122
12728 12726 9
12728 12730 225
12728 12740 239
12729 12692 848
12729 12733 1337
12729 12753 2195
12730 12728 225
12730 12743 342
12730 12744 281
12731 12683 961
12731 12725 1004
12731 12733 500
12731 12770 1081
12732 12722 158
12732 12737 366
12732 12738 3414
12732 12822 2676
12733 12686 978
12733 12731 500
12733 12729 1337
12733 12953 6776
12734 12723 144
12735 12726 337
12735 12745 176
12735 12747 487
12736 12727 122
12737 12732 366
12737 12722 382
12737 12754 4058
12737 12762 1523
12738 12630 2760
12738 12732 3414
12738 12780 3770
12738 12840 3273
12739 12715 1487
12739 12760 198
12740 12728 239
12740 12742 12
12740 12743 156
12740 12843 13581
12741 12714 1535
12741 12768 199
12742 12740 12
12742 12746 306
12742 12844 13566
12742 13358 18377
12743 12730 342
12743 12740 156
12743 12744 239
12744 12730 281
12744 12743 239
12744 12745 6
12744 12748 13
12745 12735 176
12745 12744 6
12745 12747 368
12745 12749 13
12746 12742 306
12746 12748 94
12746 12750 97
12747 12735 487
12747 12745 368
12747 12782 8474
12748 12744 13
12748 12746 94
12748 12749 6
12748 12750 7
12749 12745 13
12749 12748 6
12749 12751 8
12749 12752 383
12750 12748 7
12750 12746 97
12750 12751 6
12750 12752 528
12751 12749 8
12751 12750 6
12752 12749 383
12752 12750 528
12752 12783 8457
12753 12698 1107
12753 12729 2195
12753 12772 1532
12754 12737 4058
12754 12539 6008
12754 12756 1368
12754 12781 901
12755 12664 2377
12756 12754 1368
12756 12757 612
12756 12814 1790
12757 12756 612
12758 12570 5721
12758 12775 4659
12758 12826 7115
12758 12890 3385
12759 12724 929
12760 12761 4523
12760 12739 198
12761 12760 4523
12761 12769 704
12761 12776 400
12762 12737 1523
12762 12774 994
12762 12816 1688
12763 12764 2002
12763 12800 202
12764 12763 2002
12764 12699 28
12765 12766 1992
12765 12702 32
12766 12765 1992
12766 12796 200
12767 12768 4535
12767 12777 393
12767 12785 480
12768 12767 4535
12768 12741 199
12769 12761 704
12769 12697 2635
12769 12771 7
12769 12772 12
12770 12731 1081
12771 12769 7
12771 12773 12
12771 12776 528
12771 12784 400
12772 12769 12
12772 12753 1532
12772 12773 7
12773 12771 12
12773 12772 7
12773 12786 401
12774 12762 994
12774 12781 1804
12774 12816 1348
12775 12758 4659
12775 12780 888
12776 12761 400
12776 12771 528
12776 12778 133
12777 12767 393
12777 12779 114
12777 12784 565
12778 12776 133
12778 13874 59
12779 12777 114
12779 13875 58
12780 12775 888
12780 12738 3770
12780 12828 1909
12781 12774 1804
12781 12754 901
12781 12798 816
12782 12747 8474
12782 12789 99
12783 12752 8457
12783 12790 100
12784 12777 565
12784 12771 400
12784 12785 5
12784 12786 12
12785 12767 480
12785 12784 5
12785 12787 12
12785 13241 13729
12786 12784 12
12786 12773 401
12786 12787 6
12787 12785 12
12787 12786 6
12787 13242 13722
12788 12789 1429
12788 12793 78
12789 12788 1429
12789 12782 99
12790 12791 1426
12790 12783 100
12791 12790 1426
12791 12794 78
12792 12793 4948
12793 12792 4948
12793 12788 78
12794 12795 4953
12794 12791 78
12795 12794 4953
12796 12797 1141
12796 12766 200
12797 12796 1141
12797 12832 50
12798 12781 816
12798 12870 2210
12798 12879 1799
12799 12800 1167
12799 12831 45
12800 12799 1167
12800 12763 202
12801 12802 170
12801 12815 852
12802 12801 170
12802 12682 14937
12803 12804 215
12804 12803 215
12804 12805 83
12804 12815 102
12805 12804 83
12805 12806 209
12805 12807 87
12805 12817 123
12806 12805 209
12807 12805 87
12807 12808 213
12807 12809 85
12807 12818 134
12808 12807 213
12809 12807 85
12809 12810 202
12809 12811 85
12809 12819 141
12810 12809 202
12811 12809 85
12811 12812 208
12811 12813 86
12811 12820 148
12812 12811 208
12813 12811 86
12814 12756 1790
12814 12871 470
12815 12801 852
12815 12804 102
12815 12817 88
12816 12762 1688
12816 12774 1348
12816 12821 77
12816 12877 1641
12817 12815 88
12817 12805 123
12817 12818 88
12818 12817 88
12818 12807 134
12818 12819 85
12819 12818 85
12819 12809 141
12819 12820 85
12820 12819 85
12820 12811 148
12820 12823 1599
12821 12816 77
12821 12822 2079
12821 12876 1286
12822 12732 2676
12822 12821 2079
12822 12866 1134
12823 12820 1599
12823 12824 4180
12823 12825 1445
12823 12835 601
12824 12823 4180
12824 12670 123
12825 12823 1445
12825 12827 253
12826 12827 1295
12826 12758 7115
12826 12890 4596
12827 12826 1295
12827 12825 253
12828 12780 1909
12828 12829 14
12829 12828 14
12829 12834 2025
12829 12874 728
12830 12831 1567
12830 12856 65
12831 12830 1567
12831 12799 45
12832 12833 1599
12832 12797 50
12833 12832 1599
12833 12852 61
12834 12829 2025
12834 12840 1585
12834 12849 253
12835 12823 601
12835 12836 39
12835 12837 28
12836 12835 39
12836 12837 29
12836 12839 206
12837 12836 29
12837 12835 28
12837 12838 26
12837 12841 41
12838 12837 26
12838 12841 42
12838 12842 207
12839 12836 206
12839 12851 898
12839 12858 252
12840 12834 1585
12840 12738 3273
12840 12866 3804
12840 12891 948
12841 12838 42
12841 12837 41
12841 12882 580
12842 12838 207
12842 12859 242
12842 12861 400
12843 12740 13581
12843 12845 225
12844 12742 13566
12844 12848 225
12845 12846 283
12845 12843 225
12846 12845 283
12846 12850 50
12847 12848 297
12847 12854 49
12848 12847 297
12848 12844 225
12849 12834 253
12849 12852 719
12849 12857 232
12849 12880 489
12850 12851 2230
12850 12846 50
12851 12850 2230
12851 12839 898
12851 12862 981
12852 12849 719
12852 12880 890
12852 12833 61
12853 12854 2379
12853 12863 773
12853 12873 704
12854 12853 2379
12854 12847 49
12855 12856 417
12855 12860 179
12855 12864 494
12856 12855 417
12856 12864 596
12856 12830 65
12857 12849 232
12857 12860 80
12858 12839 252
12858 12872 45
12859 12842 242
12859 12873 43
12860 12855 179
12860 12857 80
12861 12842 400
12861 12869 56
12862 12851 981
12862 12867 57
12863 12853 773
12863 12865 57
12863 12872 662
12864 12855 494
12864 12856 596
12864 12987 4531
12865 12863 57
12865 12889 59
12866 12822 1134
12866 12840 3804
12866 12878 1235
12866 12901 1086
12867 12868 146
12867 12862 57
12868 12867 146
12868 12869 146
12868 12887 1801
12869 12868 146
12869 12861 56
12870 12798 2210
12870 12871 881
12870 12883 239
12870 12884 363
12871 12870 881
12871 12814 470
12872 12863 662
12872 12858 45
12873 12853 704
12873 12859 43
12874 12875 1205
12874 12829 728
12874 12886 2151
12875 12874 1205
12876 12821 1286
12876 12878 761
12876 12877 1036
12876 12899 892
12877 12816 1641
12877 12876 1036
12877 12879 784
12877 12902 979
12878 12876 761
12878 12866 1235
12878 12909 1200
12879 12877 784
12879 12798 1799
12879 12881 842
12879 12893 552
12880 12852 890
12880 12849 489
12880 12988 4233
12881 12879 842
12881 12883 597
12881 12894 498
12882 12841 580
12882 13414 18493
12883 12881 597
12883 12870 239
12883 12884 267
12883 12895 460
12884 12883 267
12884 12870 363
12884 12885 715
12884 12896 545
12885 12884 715
12886 12874 2151
12886 12892 95
12887 12868 1801
12887 12916 398
12888 12889 1954
12888 12919 395
12889 12888 1954
12889 12865 59
12890 12826 4596
12890 12758 3385
12890 12908 824
12890 12990 9789
12891 12892 1414
12891 12840 948
12891 12897 1929
12891 12990 3523
12892 12891 1414
12892 12886 95
12893 12879 552
12893 12894 800
12893 12905 414
12894 12893 800
12894 12881 498
12894 12895 641
12894 12900 292
12895 12894 641
12895 12883 460
12895 12896 596
12895 12910 632
12896 12895 596
12896 12884 545
12896 12898 2806
12896 12938 2016
12897 12891 1929
12897 12901 2104
12897 12903 342
12898 12896 2806
12899 12876 892
12899 12902 1022
12899 12914 468
12900 12894 292
12900 13876 196
12901 12897 2104
12901 12866 1086
12901 12909 1122
12901 12962 2720
12902 12899 1022
12902 12877 979
12902 12904 403
12902 12927 631
12903 12897 342
12903 12915 1440
12903 12967 2427
12904 12902 403
12904 12905 395
12904 12930 690
12905 12904 395
12905 12893 414
12905 12910 1466
12905 13876 1466
12905 12932 724
12906 12907 8063
12907 12906 8063
12908 12890 824
12908 12911 221
12908 12912 271
12908 12925 314
12909 12901 1122
12909 12878 1200
12909 12914 646
12909 12948 1574
12910 12905 1466
12910 13876 1466
12910 12895 632
12910 12913 263
12910 12935 702
12911 12908 221
12911 12921 201
12911 12924 335
12912 12908 271
12912 12917 475
12912 12920 157
12913 12910 263
12913 12936 736
12914 12909 646
12914 12899 468
12914 12922 613
12914 12950 1493
12915 12903 1440
12916 12917 4689
12916 12887 398
12917 12916 4689
12917 12912 475
12917 12924 581
12918 12919 4690
12918 12923 467
12918 12929 485
12919 12918 4690
12919 12888 395
12920 12912 157
12920 12928 83
12921 12911 201
12921 12929 84
12922 12914 613
12922 12927 432
12922 12952 1399
12923 12918 467
12923 12926 214
12923 12928 553
12924 12917 581
12924 12911 335
12924 12925 100
12925 12924 100
12925 12908 314
12925 12926 13
12925 13011 8653
12926 12923 214
12926 12925 13
12926 13018 9179
12926 13467 17900
12927 12922 432
12927 12902 631
12927 12930 408
12927 12942 817
12928 12923 553
12928 12920 83
12929 12918 485
12929 12921 84
12930 12927 408
12930 12904 690
12930 12931 396
12930 12943 761
12931 12930 396
12931 12932 39
12932 12931 39
12932 12905 724
12932 12933 862
12932 12934 190
12933 12932 862
12933 12935 607
12933 12940 430
12934 12932 190
12934 12937 271
12934 12939 935
12935 12933 607
12935 12910 702
12935 12936 478
12935 12972 1660
12936 12935 478
12936 12913 736
12936 12938 1439
12936 12975 1636
12937 12934 271
12937 12939 642
12937 12944 265
12938 12936 1439
12938 12896 2016
12938 12941 260
12939 12937 642
12939 12934 935
12939 12940 188
12940 12939 188
12940 12933 430
12940 12971 1278
12941 12938 260
12941 12945 367
12941 12951 784
12942 12927 817
12942 12943 447
12942 12954 516
12943 12942 447
12943 12930 761
12943 12944 438
12943 12956 505
12944 12943 438
12944 12937 265
12944 12969 1013
12945 12941 367
12945 12947 123
12945 12951 712
12946 12947 71
12947 12946 71
12947 12945 123
12947 12958 237
12948 12909 1574
12948 12949 1424
12948 12950 472
12948 12963 501
12949 12948 1424
12950 12948 472
12950 12914 1493
12950 12952 610
12950 12964 490
12951 12941 784
12951 12945 712
12951 12957 181
12952 12950 610
12952 12922 1399
12952 12954 421
12952 12965 498
12953 12733 6776
12953 12955 567
12953 13446 21329
12954 12952 421
12954 12942 516
12954 12956 477
12954 12966 494
12955 12953 567
12955 12725 7470
12955 12959 4853
12956 12954 477
12956 12943 505
12956 12968 517
12957 12951 181
12957 12960 241
12957 12983 944
12958 12947 237
12958 12961 110
12958 12976 1039
12959 12955 4853
12960 12957 241
12961 12958 110
12962 12901 2720
12962 12963 1471
12962 12967 1336
12962 12979 571
12963 12962 1471
12963 12948 501
12963 12964 515
12963 12973 372
12964 12963 515
12964 12950 490
12964 12965 599
12964 12978 470
12965 12964 599
12965 12952 498
12965 12966 419
12965 12981 469
12966 12965 419
12966 12954 494
12966 12968 507
12966 12982 486
12967 12903 2427
12967 12962 1336
12967 12970 2065
12967 13009 1217
12968 12966 507
12968 12956 517
12968 12969 438
12968 12984 478
12969 12968 438
12969 12944 1013
12969 12971 852
12969 12989 488
12970 12967 2065
12971 12969 852
12971 12940 1278
12971 12972 642
12971 12991 483
12972 12971 642
12972 12935 1660
12972 12975 432
12972 12992 512
12973 12974 599
12973 12963 372
12973 12978 556
12974 12973 599
12975 12972 432
12975 12936 1636
12975 12976 1247
12975 13014 1100
12976 12975 1247
12976 12958 1039
12976 12977 29
12977 12976 29
12977 12980 605
12977 13022 1121
12978 12973 556
12978 12964 470
12978 12981 592
12978 12999 678
12979 12962 571
12979 12998 694
12979 12999 1985
12980 12977 605
12980 12983 593
12980 13027 1134
12981 12978 592
12981 12965 469
12981 12982 420
12981 13001 674
12982 12981 420
12982 12966 486
12982 12984 543
12982 12993 261
12983 12980 593
12983 12957 944
12983 12985 645
12983 13038 1147
12984 12982 543
12984 12968 478
12984 12989 428
12984 12994 260
12985 12983 645
12985 12986 226
12985 13059 1307
12986 12985 226
12987 12864 4531
12987 13006 60
12988 12880 4233
12988 13003 60
12989 12984 428
12989 12969 488
12989 12991 843
12989 12995 263
12990 12890 9789
12990 12891 3523
12990 13009 2147
12991 12989 843
12991 12971 483
12991 12992 549
12991 12996 252
12992 12991 549
12992 12972 512
12992 12997 245
12993 12982 261
12993 12994 554
12993 13002 404
12994 12993 554
12994 12984 260
12994 12995 429
12994 13007 395
12995 12994 429
12995 12989 263
12995 12996 841
12995 13010 387
12996 12995 841
12996 12991 252
12996 12997 513
12996 13012 389
12997 12996 513
12997 12992 245
12997 13013 386
12998 12979 694
12998 13020 764
12998 13097 2545
12998 13225 5468
12999 12979 1985
12999 12978 678
12999 13001 586
13000 12717 10632
13000 13024 528
13000 13025 950
13001 12999 586
13001 12981 674
13001 13002 400
13001 13033 466
13002 13001 400
13002 12993 404
13002 13007 577
13002 13037 478
13003 13004 564
13003 12988 60
13004 13003 564
13004 13016 225
13004 13017 227
13005 13006 567
13005 13015 220
13005 13019 288
13006 13005 567
13006 12987 60
13007 13002 577
13007 12994 395
13007 13010 435
13007 13045 491
13008 12720 10579
13008 13021 555
13008 13023 361
13009 12990 2147
13009 12967 1217
13009 13020 715
13010 13007 435
13010 12995 387
13010 13012 833
13010 13053 501
13011 12925 8653
13011 13019 915
13011 13036 1077
13012 13010 833
13012 12996 389
13012 13013 455
13012 13060 481
13013 13012 455
13013 12997 386
13013 13014 656
13013 13062 457
13014 13013 656
13014 12975 1100
13014 13022 1209
13014 13052 359
13015 13005 220
13015 13029 49
13016 13004 225
13016 13030 56
13017 13004 227
13017 13077 55
13018 12926 9179
13018 13046 567
13018 13048 766
13019 13005 288
13019 13011 915
13019 13058 694
13020 12998 764
13020 13009 715
13020 13121 1507
13021 13008 555
13021 13024 749
13021 13026 143
13022 13014 1209
13022 12977 1121
13022 13027 620
13022 13119 1105
13023 13008 361
13023 13042 51
13024 13000 528
13024 13021 749
13024 13043 50
13025 13000 950
13025 13026 140
13025 13040 320
13026 13021 143
13026 13025 140
13026 13050 161
13027 13022 620
13027 12980 1134
13027 13038 585
13028 13029 137
13028 13036 473
13028 13070 124
13029 13028 137
13029 13015 49
13030 13031 129
13030 13016 56
13031 13030 129
13031 13078 138
13032 13033 432
13033 13032 432
13033 13001 466
13033 13034 14
13033 13037 407
13034 13035 413
13034 13033 14
13034 13039 405
13034 13097 743
13035 13034 413
13036 13011 1077
13036 13028 473
13036 13076 581
13037 13033 407
13037 13002 478
13037 13039 12
13037 13045 599
13038 13027 585
13038 12983 1147
13038 13049 713
13038 13122 1200
13039 13034 405
13039 13037 12
13039 13047 599
13039 13095 627
13040 13025 320
13040 13073 76
13041 13042 169
13041 13074 77
13042 13041 169
13042 13023 51
13043 13044 163
13043 13024 50
13044 13043 163
13044 13238 76
13045 13037 599
13045 13007 491
13045 13047 13
13045 13053 437
13046 13018 567
13046 13065 21
13047 13039 599
13047 13045 13
13047 13054 437
13047 13099 610
13048 13018 766
13048 13055 99
13048 13070 570
13049 13038 713
13049 13059 518
13049 13130 1254
13050 13026 161
13050 13051 341
13050 13061 2156
13051 13050 341
13052 13014 359
13052 13062 719
13052 13105 640
13053 13045 437
13053 13010 501
13053 13054 12
13053 13056 473
13054 13047 437
13054 13053 12
13054 13063 832
13054 13103 600
13055 13048 99
13055 13078 556
13055 13079 374
13056 13053 473
13056 13057 463
13056 13060 359
13057 13056 463
13058 13019 694
13058 13080 88
13059 13049 518
13059 12985 1307
13059 13123 1103
13060 13056 359
13060 13012 481
13060 13063 9
13060 13066 424
13061 13050 2156
13062 13013 457
13062 13052 719
13062 13066 23
13063 13054 832
13063 13060 9
13063 13071 422
13063 13107 617
13064 13065 134
13064 13112 18
13065 13064 134
13065 13046 21
13066 13060 424
13066 13062 23
13066 13071 13
13067 13068 480
13068 13067 480
13068 13069 932
13068 13075 1277
13068 13093 370
13069 13068 932
13070 13048 570
13070 13111 800
13070 13028 124
13071 13063 422
13071 13066 13
13071 13100 496
13072 13073 96
13072 13074 102
13072 13240 6602
13073 13072 96
13073 13040 76
13074 13072 102
13074 13041 77
13075 13068 1277
13076 13036 581
13076 13077 615
13076 13082 230
13077 13076 615
13077 13017 55
13078 13055 556
13078 13098 617
13078 13031 138
13079 13055 374
13079 13081 297
13079 13083 107
13080 13081 136
13080 13058 88
13081 13080 136
13081 13079 297
13081 13098 331
13082 13076 230
13082 13084 39
13083 13079 107
13083 13087 37
13084 13085 89
13084 13082 39
13085 13084 89
13085 13126 61
13086 13087 103
13086 13129 61
13087 13086 103
13087 13083 37
13088 13089 326
13089 13088 326
13089 13090 383
13089 13093 180
13090 13089 383
13091 13092 441
13091 13094 141
13091 13106 277
13092 13091 441
13093 13068 370
13093 13089 180
13093 13094 15
13093 13118 570
13094 13093 15
13094 13091 141
13094 13102 401
13094 13123 622
13095 13039 627
13095 13096 14
13095 13099 635
13096 13095 14
13096 13101 635
13096 13117 313
13097 12998 2545
13097 13034 743
13097 13117 568
13097 13139 935
13098 13078 617
13098 13081 331
13098 13113 240
13099 13095 635
13099 13047 610
13099 13101 14
13099 13103 433
13100 13071 496
13100 13105 716
13100 13109 129
13101 13096 635
13101 13099 14
13101 13104 433
13102 13094 401
13103 13099 433
13103 13054 600
13103 13104 15
13103 13107 834
13104 13101 433
13104 13103 15
13104 13108 834
13104 13120 390
13105 13100 716
13105 13052 640
13105 13142 1056
13106 13091 277
13107 13103 834
13107 13063 617
13107 13108 13
13107 13109 377
13108 13104 834
13108 13107 13
13108 13110 377
13108 13124 399
13109 13107 377
13109 13100 129
13109 13110 10
13110 13108 377
13110 13109 10
13110 13125 386
13111 13112 687
13111 13070 800
13111 13114 96
13112 13111 687
13112 13064 18
13113 13098 240
13113 13157 82
13114 13111 96
13114 13160 79
13115 13116 1082
13116 13115 1082
13117 13097 568
13117 13096 313
13117 13138 628
13117 13140 1211
13118 13093 570
13119 13022 1105
13119 13122 1099
13119 13171 1738
13120 13104 390
13120 13124 836
13120 13131 259
13121 13020 1507
13121 13459 70
13122 13119 1099
13122 13038 1200
13122 13130 819
13122 13156 1157
13123 13059 1103
13123 13094 622
13123 13136 347
13123 13137 396
13124 13120 836
13124 13108 399
13124 13125 358
13124 13132 266
13125 13124 358
13125 13110 386
13125 13133 284
13126 13127 1477
13126 13085 61
13127 13126 1477
13127 13143 223
13128 13129 1472
13128 13146 224
13129 13128 1472
13129 13086 61
13130 13122 819
13130 13049 1254
13130 13134 802
13130 13155 949
13131 13120 259
13131 13132 837
13131 13140 212
13132 13131 837
13132 13124 266
13132 13133 338
13132 13152 633
13133 13132 338
13133 13125 284
13133 13141 292
13134 13130 802
13134 13135 706
13134 13136 173
13134 13187 1854
13135 13134 706
13136 13134 173
13136 13123 347
13136 13137 210
13136 13187 1691
13137 13136 210
13137 13123 396
13137 13178 1256
13138 13117 628
13138 13139 503
13138 13140 1161
13138 13151 462
13139 13097 935
13139 13138 503
13140 13138 1161
13140 13117 1211
13140 13131 212
13140 13152 946
13140 13153 592
13141 13133 292
13141 13142 773
13141 13154 430
13142 13141 773
13142 13105 1056
13142 13161 622
13143 13144 624
13143 13127 223
13144 13143 624
13144 13147 33
13145 13146 633
13145 13150 38
13146 13145 633
13146 13128 224
13147 13148 243
13147 13144 33
13148 13147 243
13148 13174 38
13149 13150 239
13149 13177 39
13150 13149 239
13150 13145 38
13151 13138 462
13151 13153 1214
13151 13162 440
13152 13140 946
13152 13132 633
13152 13154 307
13153 13151 1214
13153 13140 592
13153 13190 1069
13154 13152 307
13154 13141 430
13154 13161 798
13154 13193 1325
13155 13130 949
13155 13156 877
13155 13188 903
13156 13122 1157
13156 13155 877
13156 13184 649
13157 13158 1563
13157 13113 82
13158 13157 1563
13158 13163 23
13159 13160 1559
13159 13166 22
13160 13159 1559
13160 13114 79
13161 13154 798
13161 13142 622
13161 13171 1162
13162 13151 440
13162 13167 134
13162 13168 135
13163 13164 146
13163 13158 23
13164 13163 146
13164 13207 22
13165 13166 148
13165 13211 20
13166 13165 148
13166 13159 22
13167 13162 134
13167 13170 85
13168 13162 135
13168 13169 83
13169 13168 83
13169 13181 188
13169 13183 374
13170 13167 85
13170 13175 466
13170 13180 185
13171 13161 1162
13171 13119 1738
13171 13179 556
13171 13195 1306
13172 13173 341
13172 13231 82
13173 13172 341
13174 13175 2273
13174 13148 38
13175 13174 2273
13175 13170 466
13175 13183 626
13176 13177 2261
13176 13182 416
13176 13186 485
13177 13176 2261
13177 13149 39
13178 13137 1256
13179 13171 556
13179 13184 519
13179 13194 881
13180 13170 185
13180 13185 82
13181 13169 188
13181 13186 82
13182 13176 416
13182 13185 538
13182 13209 5443
13183 13175 626
13183 13169 374
13183 13205 5223
13184 13179 519
13184 13156 649
13184 13188 843
13184 13344 5387
13185 13182 538
13185 13180 82
13186 13176 485
13186 13181 82
13187 13134 1854
13187 13136 1691
13187 13189 137
13187 13191 215
13188 13184 843
13188 13155 903
13188 13192 437
13189 13187 137
13190 13153 1069
13190 13219 122
13191 13187 215
13192 13188 437
13193 13154 1325
13193 13220 133
13194 13179 881
13195 13171 1306
13196 13197 324
13196 13199 13
13196 13200 14
13196 13203 456
13197 13196 324
13198 13199 370
13199 13198 370
13199 13196 13
13199 13202 14
13199 13204 345
13200 13196 14
13200 13201 317
13200 13202 13
13200 13212 201
13201 13200 317
13202 13199 14
13202 13200 13
13202 13206 336
13202 13214 216
13203 13196 456
13204 13199 345
13204 13205 117
13205 13183 5223
13205 13204 117
13206 13202 336
13206 13209 126
13207 13208 2242
13207 13164 22
13208 13207 2242
13208 13216 34
13209 13182 5443
13209 13206 126
13210 13211 2237
13210 13222 34
13211 13210 2237
13211 13165 20
13212 13200 201
13212 13213 235
13212 13223 257
13213 13212 235
13214 13215 302
13214 13202 216
13214 13224 257
13215 13214 302
13216 13217 371
13216 13208 34
13217 13216 371
13217 13226 38
13218 13219 980
13218 13220 1161
13218 13230 2076
13219 13218 980
13219 13190 122
13220 13218 1161
13220 13193 133
13221 13222 374
13221 13229 38
13222 13221 374
13222 13210 34
13223 13212 257
13224 13214 257
13225 12998 5468
13226 13227 371
13226 13217 38
13227 13226 371
13227 13247 39
13228 13229 377
13228 13250 38
13229 13228 377
13229 13221 38
13230 13231 2195
13230 13218 2076
13230 13347 3598
13231 13230 2195
13231 13172 82
13232 12611 18517
13232 13234 63
13233 12612 18518
13233 13237 63
13234 13235 90
13234 13232 63
13235 13234 90
13235 13243 65
13236 13237 84
13236 13246 65
13237 13236 84
13237 13233 63
13238 13239 6697
13238 13044 76
13239 13238 6697
13239 13269 63
13240 13072 6602
13240 13268 63
13241 12785 13729
13241 13242 12
13241 13389 13052
13241 13439 7331
13242 13241 12
13242 12787 13722
13242 13438 7326
13243 13244 639
13243 13235 65
13244 13243 639
13244 13263 79
13245 13246 660
13245 13266 80
13246 13245 660
13246 13236 65
13247 13248 1766
13247 13227 39
13248 13247 1766
13248 13385 78
13249 13250 1771
13249 13388 79
13250 13249 1771
13250 13228 38
13251 13252 3038
13251 13253 220
13251 13255 223
13252 13251 3038
13253 13251 220
13253 13254 131
13253 13256 221
13254 13253 131
13254 13257 221
13254 13258 406
13255 13251 223
13255 13256 235
13255 13259 172
13256 13253 221
13256 13255 235
13256 13257 133
13256 13260 172
13257 13254 221
13257 13256 133
13257 13258 160
13257 13261 172
13258 13254 406
13258 13257 160
13258 13262 172
13259 13255 172
13259 13260 246
13259 13271 305
13260 13256 172
13260 13259 246
13260 13261 133
13260 13272 317
13261 13257 172
13261 13260 133
13261 13262 143
13261 13273 323
13262 13258 172
13262 13261 143
13262 13274 330
13263 13264 1244
13263 13244 79
13264 13263 1244
13264 13275 420
13265 13266 1245
13265 13286 559
13266 13265 1245
13266 13245 80
13267 13268 1901
13267 13279 61
13268 13267 1901
13268 13240 63
13269 13270 1922
13269 13239 63
13270 13269 1922
13270 13276 64
13271 13259 305
13271 13272 269
13271 13282 543
13272 13260 317
13272 13271 269
13272 13273 132
13273 13261 323
13273 13272 132
13273 13274 110
13274 13262 330
13274 13273 110
13274 13283 306
13275 13264 420
13275 13284 162
13275 13285 174
13276 13277 326
13276 13270 64
13277 13276 326
13277 13280 78
13277 13281 87
13278 13279 429
13278 13302 63
13278 13294 57
13279 13278 429
13279 13267 61
13280 13277 78
13280 13288 54
13281 13277 87
13281 13295 59
13282 13271 543
13282 13283 265
13282 13292 180
13283 13274 306
13283 13282 265
13283 13287 768
13283 13301 218
13284 13275 162
13284 13312 95
13285 13275 174
13285 13300 98
13286 13265 559
13286 13291 85
13286 13340 96
13287 13283 768
13287 13304 2434
13287 13310 299
13288 13289 25
13288 13280 54
13289 13288 25
13289 13297 260
13289 13319 563
13290 13291 129
13290 13314 430
13290 13322 444
13291 13290 129
13291 13286 85
13292 13282 180
13292 13298 22
13293 13294 258
13293 13877 321
13294 13293 258
13294 13278 57
13295 13296 264
13295 13281 59
13296 13295 264
13296 13335 769
13297 13289 260
13297 13878 329
13298 13299 32
13298 13292 22
13299 13298 32
13299 13305 42
13300 13301 424
13300 13285 98
13301 13300 424
13301 13283 218
13301 13302 574
13301 13307 187
13302 13301 574
13302 13278 63
13303 13304 21549
13303 12621 82
13304 13303 21549
13304 13287 2434
13304 13353 1358
13305 13306 36
13305 13299 42
13306 13305 36
13306 13320 21
13307 13301 187
13307 13308 51
13308 13309 66
13308 13307 51
13309 13308 66
13309 13311 22
13310 13287 299
13310 13311 552
13310 13341 591
13311 13310 552
13311 13309 22
13312 13313 426
13312 13284 95
13313 13312 426
13313 13317 387
13313 13333 709
13314 13290 430
13314 13315 208
13314 13316 79
13315 13314 208
13315 13877 347
13316 13314 79
13316 13328 285
13316 13334 684
13317 13313 387
13317 13878 228
13318 13319 427
13318 13323 327
13319 13318 427
13319 13289 563
13319 13333 305
13320 13321 256
13320 13306 21
13321 13320 256
13321 13326 16
13322 13290 444
13322 13323 141
13322 13337 555
13323 13322 141
13323 13318 327
13324 13325 1491
13324 13353 1645
13324 13359 1286
13325 13324 1491
13326 13327 68
13326 13321 16
13327 13326 68
13327 13329 49
13328 13316 285
13328 13879 220
13329 13330 36
13329 13327 49
13330 13329 36
13330 13342 21
13331 13332 142
13331 13879 347
13332 13331 142
13332 13334 1081
13332 13336 264
13333 13313 709
13333 13319 305
13333 13349 1166
13334 13332 1081
13334 13316 684
13334 13339 115
13335 13336 407
13335 13296 769
13336 13335 407
13336 13332 264
13336 13357 2585
13337 13322 555
13337 13338 483
13337 13356 2506
13338 13337 483
13338 13877 442
13339 13334 115
13339 13340 1425
13339 13350 882
13340 13339 1425
13340 13286 96
13341 13310 591
13341 13351 47
13342 13343 474
13342 13330 21
13343 13342 474
13344 13184 5387
13344 13345 1596
13344 13391 2971
13344 13461 6416
13345 13344 1596
13346 13347 2656
13347 13346 2656
13347 13230 3598
13347 13348 1203
13347 13465 5861
13348 13347 1203
13349 13333 1166
13349 13368 325
13350 13339 882
13350 13371 326
13351 13352 1528
13351 13341 47
13352 13351 1528
13352 13354 37
13353 13324 1645
13353 13304 1358
13353 13363 1049
13354 13355 898
13354 13352 37
13355 13354 898
13355 13365 35
13356 13337 2506
13356 13360 155
13357 13336 2585
13357 13362 155
13358 12742 18377
13358 13414 10577
13358 13448 4597
13359 13324 1286
13359 13360 1582
13359 13361 14
13359 13366 1835
13360 13359 1582
13360 13356 155
13361 13359 14
13361 13362 1584
13361 13367 1832
13361 13372 957
13362 13361 1584
13362 13357 155
13363 13353 1049
13363 13364 58
13363 13372 2439
13364 13363 58
13364 13365 440
13364 13440 6341
13365 13364 440
13365 13355 35
13366 13359 1835
13366 13880 149
13367 13361 1832
13367 13881 147
13368 13369 869
13368 13349 325
13369 13368 869
13369 13373 50
13370 13371 858
13370 13376 52
13371 13370 858
13371 13350 326
13372 13361 957
13372 13363 2439
13372 13379 1488
13372 13417 2124
13373 13374 1193
13373 13369 50
13374 13373 1193
13374 13380 85
13375 13376 1210
13375 13383 89
13376 13375 1210
13376 13370 52
13377 13378 5477
13378 13377 5477
13378 13381 1913
13378 13389 2382
13378 13430 1764
13379 13372 1488
13380 13381 208
13380 13374 85
13381 13380 208
13381 13378 1913
13381 13382 16
13381 13406 1940
13382 13383 185
13382 13381 16
13382 13384 1663
13382 13407 1957
13383 13382 185
13383 13375 89
13384 13382 1663
13384 13397 963
13385 13386 5567
13385 13248 78
13386 13385 5567
13386 13398 80
13387 13388 5553
13387 13401 82
13388 13387 5553
13388 13249 79
13389 13378 2382
13389 13241 13052
13389 13390 677
13389 13445 4020
13390 13389 677
13391 13344 2971
13392 13393 155
13393 13392 155
13393 13394 696
13393 13399 504
13394 13393 696
13395 13396 388
13396 13395 388
13396 13402 308
13396 13404 427
13397 13384 963
13398 13399 916
13398 13386 80
13399 13398 916
13399 13393 504
13399 13400 19
13399 13402 166
13400 13401 922
13400 13399 19
13400 13403 168
13400 13413 820
13401 13400 922
13401 13387 82
13402 13399 166
13402 13396 308
13402 13403 20
13402 13474 8051
13403 13400 168
13403 13402 20
13403 13405 397
13403 13473 8004
13404 13396 427
13405 13403 397
13406 13381 1940
13406 13410 67
13407 13382 1957
13407 13409 66
13408 13409 33
13408 13412 203
13408 13418 282
13409 13408 33
13409 13407 66
13410 13411 239
13410 13406 67
13411 13410 239
13411 13415 66
13412 13408 203
13412 13423 66
13413 13400 820
13414 13358 10577
13414 12882 18493
13414 13433 7011
13414 13470 5763
13415 13416 25
13415 13411 66
13416 13415 25
13416 13419 616
13416 13427 312
13417 13372 2124
13417 13420 30
13417 13421 32
13418 13408 282
13418 13426 79
13418 13427 680
13419 13416 616
13419 13422 342
13419 13426 80
13420 13417 30
13420 13421 5
13420 13424 12
13420 13428 569
13421 13420 5
13421 13417 32
13421 13425 12
13421 13455 2433
13422 13419 342
13422 13423 238
13422 13432 636
13423 13422 238
13423 13412 66
13424 13420 12
13424 13425 6
13424 13429 576
13424 13450 1331
13425 13424 6
13425 13421 12
13425 13449 1326
13425 13456 2402
13426 13418 79
13426 13419 80
13426 13430 252
13427 13416 312
13427 13418 680
13427 13431 541
13428 13420 569
13429 13424 576
13430 13378 1764
13430 13426 252
13430 13445 880
13431 13427 541
13431 13434 67
13432 13422 636
13432 13437 65
13433 13414 7011
13434 13435 422
13434 13431 67
13435 13434 422
13435 13441 65
13436 13437 421
13436 13444 65
13437 13436 421
13437 13432 65
13438 13242 7326
13438 13439 12
13438 13446 7404
13438 13451 1203
13439 13241 7331
13439 13438 12
13439 13454 1200
13440 13364 6341
13440 13445 2283
13440 13457 1086
13440 13460 2326
13441 13442 658
13441 13435 65
13442 13441 658
13443 13444 656
13444 13443 656
13444 13436 65
13445 13440 2283
13445 13430 880
13445 13389 4020
13445 13460 1137
13446 13438 7404
13446 12953 21329
13446 13447 5001
13447 13446 5001
13448 13358 4597
13449 13425 1326
13450 13424 1331
13451 13438 1203
13452 13453 1703
13453 13452 1703
13454 13439 1200
13455 13421 2433
13456 13425 2402
13457 13440 1086
13458 13459 16924
13458 13467 2063
13458 13469 2015
13459 13458 16924
13459 13121 70
13460 13440 2326
13460 13445 1137
13460 13464 240
13461 13344 6416
13461 13462 2255
13461 13463 1823
13461 13468 293
13462 13461 2255
13463 13461 1823
13463 13466 84
13464 13460 240
13465 13347 5861
13465 13466 7273
13465 13469 11093
13465 13475 4325
13466 13465 7273
13466 13463 84
13467 12926 17900
13467 13458 2063
13467 13471 3923
13468 13461 293
13468 13472 3682
13469 13458 2015
13469 13465 11093
13469 13471 2840
13469 13477 7271
13470 13414 5763
13471 13467 3923
13471 13469 2840
13471 13478 11845
13472 13468 3682
13473 13403 8004
13474 13402 8051
13475 13465 4325
13475 13476 3320
13475 13480 7140
13476 13475 3320
13477 13469 7271
13477 13479 1273
13478 13471 11845
13479 13477 1273
13480 13475 7140
13481 0 67
13482 3 64
13483 1427 221
13483 1450 105
13483 1446 156
13484 1434 178
13484 1426 249
13484 1441 128
13485 1687 111
13485 1684 137
13485 13486 64
13486 13485 64
13486 1686 154
13486 1693 120
13487 1688 112
13487 13488 62
13487 1692 166
13488 13487 62
13488 1698 121
13488 1695 135
13489 1840 55
13489 2392 124
13490 13491 2701
13490 1898 462
13491 13490 2701
13492 13493 2708
13493 13492 2708
13493 1891 425
13494 2072 78
13495 2239 108
13495 2240 132
13495 2280 108
13496 2246 133
13496 2300 107
13496 2272 107
13497 2693 14
13498 3245 394
13498 3242 356
13498 13501 406
13499 3062 591
13499 3182 349
13499 13500 170
13500 13499 170
13500 13504 466
13500 13512 401
13501 13498 406
13501 13511 307
13501 13513 343
13502 3590 74
13502 3558 233
13502 3604 63
13503 3583 226
13503 3596 86
13503 3620 51
13504 3552 486
13504 13500 466
13504 13508 93
13505 3564 447
13505 13509 130
13505 13522 456
13506 3641 66
13506 3615 194
13506 3686 263
13507 3645 190
13507 3650 66
13507 3696 262
13508 13504 93
13508 13510 13
13509 13505 130
13509 13510 11
13510 13508 13
13510 13509 11
13510 13512 10
13510 13514 10
13511 13501 307
13511 13513 43
13512 13500 401
13512 13510 10
13512 13513 15
13512 13514 6
13513 13501 343
13513 13512 15
13513 13511 43
13513 13515 19
13514 13512 6
13514 13510 10
13514 13515 17
13514 13522 376
13515 13513 19
13515 13514 17
13515 13516 13
13515 13523 365
13516 13515 13
13516 13523 358
13517 3827 61
13517 13519 94
13517 4029 307
13517 4070 307
13518 3758 1193
13518 3873 58
13518 3878 99
13519 3886 97
13519 13517 94
13519 4070 292
13520 3915 109
13520 13521 62
13520 3969 241
13521 13520 62
13521 3910 96
13521 3948 174
13522 13514 376
13522 13505 456
13522 13528 85
13523 13516 358
13523 13515 365
13523 13534 86
13524 13525 197
13524 3681 458
13524 13529 26
13525 13524 197
13525 13533 160
13526 3680 487
13526 13527 20
13526 13529 11
13526 13539 15
13527 13526 20
13527 13530 122
13528 13522 85
13529 13524 26
13529 13526 11
13529 13532 30
13529 13541 15
13530 13527 122
13530 3874 451
13530 13531 82
13531 13530 82
13531 13536 62
13532 13529 30
13532 13533 22
13533 13525 160
13533 13532 22
13533 13535 144
13534 13523 86
13535 13533 144
13535 4254 1543
13536 13531 62
13536 3884 326
13536 13540 20
13536 13552 45
13537 13538 192
13537 13540 47
13538 13537 192
13538 13539 21
13539 13526 15
13539 13538 21
13539 13541 11
13539 13549 9
13540 13537 47
13540 13536 20
13540 13544 90
13540 13553 51
13541 13529 15
13541 13539 11
13541 13542 17
13541 13550 9
13542 13541 17
13542 13543 140
13543 13542 140
13543 13545 55
13543 13546 48
13544 13540 90
13544 13548 144
13544 4344 408
13545 13543 55
13545 13551 91
13545 4317 386
13546 13543 48
13546 4268 1544
13547 4004 63
13547 4084 61
13547 4113 9
13548 13544 144
13548 13549 22
13549 13539 9
13549 13548 22
13549 13550 11
13549 4342 323
13550 13541 9
13550 13549 11
13550 13551 15
13550 4318 322
13551 13545 91
13551 13550 15
13552 13536 45
13552 4276 426
13553 13540 51
13553 4282 435
13554 4078 90
13554 4067 113
13554 13556 110
13555 4090 93
13555 13557 116
13555 4327 211
13556 13554 110
13556 4094 110
13556 13558 47
13557 13555 116
13557 13559 42
13557 4239 158
13558 13556 47
13558 4112 128
13558 13560 118
13559 13557 42
13559 13561 115
13559 4275 151
13560 13558 118
13560 4079 190
13560 4237 102
13561 13559 115
13561 4247 105
13561 4341 201
13562 13563 32
13563 13562 32
13564 13565 24
13565 5060 592
13565 5061 592
13565 13569 592
13565 13579 592
13565 13583 592
13565 13564 24
13566 4846 343
13566 13567 62
13566 13580 916
13567 13566 62
13567 4860 282
13567 13570 119
13568 13569 20
13569 5060 592
13569 5061 592
13569 13565 592
13569 13579 592
13569 13583 592
13569 13568 20
13570 13567 119
13570 13574 416
13571 13572 63
13571 13573 120
13571 4877 286
13572 13571 63
13572 4867 369
13572 13581 909
13573 13571 120
13573 13576 415
13574 13570 416
13574 4738 352
13574 13575 13
13574 13576 11
13575 13574 13
13575 4739 351
13575 13577 11
13575 4879 877
13576 13573 415
13576 13574 11
13576 13577 12
13576 5175 480
13577 13576 12
13577 13575 11
13577 4891 876
13577 5172 479
13578 13579 45
13579 5060 592
13579 5061 592
13579 13565 592
13579 13569 592
13579 13583 592
13579 13578 45
13580 13566 916
13580 4961 355
13580 13584 215
13581 13572 909
13581 13585 217
13581 13588 439
13582 13583 107
13583 5060 592
13583 5061 592
13583 13565 592
13583 13569 592
13583 13579 592
13583 13582 107
13584 13580 215
13584 13586 219
13585 13581 217
13585 13588 210
13586 13587 230
13586 13584 219
13586 13588 15
13586 13589 92
13587 4872 424
13587 5001 424
13587 4872 424
13587 5001 424
13587 13586 230
13588 13586 15
13588 13585 210
13588 13581 439
13588 13592 94
13589 5028 129
13589 13586 92
13589 13590 8
13589 13592 14
13590 13589 8
13590 13591 12
13590 13593 14
13590 5194 532
13591 13590 12
13591 13594 14
13591 13595 237
13591 5365 512
13592 13589 14
13592 13588 94
13592 13593 8
13592 5088 21
13593 13590 14
13593 13592 8
13593 13594 12
13593 5090 22
13594 13591 14
13594 13593 12
13594 5094 22
13594 13596 243
13595 13591 237
13595 13599 1102
13596 13594 243
13596 13600 1096
13597 4773 804
13598 4777 806
13599 5364 49
13599 13595 1102
13599 13600 13
13599 13603 523
13600 13599 13
13600 13596 1096
13600 13601 83
13600 13604 523
13601 5483 1508
13601 5484 1508
13601 13600 83
13602 5374 261
13602 13605 230
13602 5552 686
13603 5451 53
13603 13599 523
13603 13604 13
13603 13612 1166
13604 13603 13
13604 13600 523
13604 5483 85
13604 13614 1187
13605 5435 327
13605 13602 230
13605 13606 5
13605 5553 569
13605 5590 569
13606 5436 327
13606 13605 5
13606 5556 387
13606 13607 424
13607 5555 152
13607 5556 152
13607 13606 424
13608 5567 163
13608 5548 84
13608 13611 148
13609 5551 84
13609 5582 133
13609 13610 109
13610 13609 109
13610 5608 110
13610 5624 158
13611 13608 148
13611 5583 152
13611 5620 122
13612 13603 1166
13613 5632 150
13613 5677 278
13613 5704 225
13613 5722 292
13614 13604 1187
13615 13616 26
13616 13615 26
13617 5659 13
13618 5638 731
13618 13621 163
13618 13626 241
13619 5637 796
13619 13620 30
13619 13625 188
13620 13619 30
13620 13622 87
13621 13618 163
13621 13622 15
13621 13623 48
13621 13627 55
13622 13620 87
13622 13621 15
13622 13624 34
13622 13629 54
13623 13621 48
13623 13626 136
13624 13622 34
13624 13630 67
13625 13619 188
13625 13631 39
13625 13635 88
13626 13623 136
13626 13618 241
13626 13646 193
13627 13621 55
13627 13628 78
13627 13629 14
13627 13632 12
13628 13627 78
13628 13646 311
13629 13622 54
13629 13627 14
13629 13630 59
13629 13634 13
13630 13624 67
13630 13629 59
13630 13631 24
13630 13639 14
13631 13625 39
13631 13630 24
13631 13635 58
13631 13640 13
13632 13627 12
13632 13633 94
13632 13634 15
13632 13636 8
13633 13632 94
13633 13648 281
13634 13629 13
13634 13632 15
13634 13638 8
13634 13639 61
13635 13625 88
13635 13631 58
13635 13672 1243
13636 13632 8
13636 13637 30
13636 13638 15
13636 13645 31
13637 13636 30
13637 13645 265
13638 13634 8
13638 13636 15
13638 13642 64
13638 13652 110
13639 13630 14
13639 13634 61
13639 13640 22
13639 13642 13
13640 13631 13
13640 13639 22
13640 13641 46
13640 13643 13
13641 13640 46
13641 13651 176
13642 13639 13
13642 13638 64
13642 13643 20
13642 13650 66
13643 13640 13
13643 13642 20
13643 13644 45
13643 13649 56
13644 13643 45
13644 13651 165
13645 13636 31
13645 13637 265
13645 13653 88
13646 13628 311
13646 13626 193
13646 13647 12
13647 13646 12
13648 13633 281
13648 13654 342
13649 13643 56
13649 13650 10
13650 13649 10
13650 13642 66
13650 13652 37
13650 13656 156
13651 13641 176
13651 13644 165
13651 13673 1060
13652 13650 37
13652 13638 110
13652 13653 14
13652 13656 138
13653 13652 14
13653 13645 88
13653 13655 41
13653 13657 179
13654 13648 342
13654 13655 48
13654 13657 217
13655 13653 41
13655 13654 48
13656 13650 156
13656 13652 138
13656 13667 570
13657 13653 179
13657 13654 217
13657 5877 525
13658 5821 188
13658 5843 291
13658 13660 155
13659 5820 343
13659 13662 110
13660 13658 155
13660 13661 89
13661 13660 89
13661 13664 29
13661 13666 86
13662 13659 110
13662 13663 11
13662 13665 68
13663 5837 123
13663 13662 11
13663 5858 140
13663 13665 57
13664 13661 29
13664 5845 119
13664 13666 58
13664 5919 152
13665 13663 57
13665 13662 68
13665 13668 76
13666 13661 86
13666 13664 58
13666 13669 79
13667 13656 570
13667 5873 494
13667 13680 494
13668 13665 76
13668 13670 50
13669 13666 79
13669 13671 60
13670 5883 115
13670 13668 50
13670 13674 72
13671 13669 60
13671 5898 133
13671 13675 92
13672 13635 1243
13672 5892 344
13672 13677 654
13673 13651 1060
13673 13676 438
13673 5916 340
13674 13670 72
13674 5889 185
13674 13679 272
13675 13671 92
13675 5917 158
13675 5945 243
13676 13673 438
13676 5908 259
13676 13678 140
13677 5902 145
13677 13672 654
13677 13686 913
13678 13676 140
13678 5931 247
13678 13692 1126
13679 5888 313
13679 13674 272
13679 5948 24
13680 5873 494
13680 13667 494
13680 13681 38
13680 13689 271
13680 5983 293
13680 13689 293
13681 5891 506
13681 5962 506
13681 13680 38
13682 13683 100
13683 13682 100
13683 5938 234
13683 13690 118
13684 5940 269
13684 13685 136
13684 13694 168
13685 13684 136
13686 13677 913
13686 13699 306
13686 13706 431
13687 5967 41
13687 13689 105
13687 13691 122
13688 5968 43
13688 13693 134
13688 13741 551
13689 13687 105
13689 13680 271
13689 5983 293
13689 13680 293
13689 13691 68
13690 13683 118
13690 13701 302
13690 13711 481
13691 13687 122
13691 13689 68
13691 13693 18
13691 5989 110
13691 13696 110
13692 13678 1126
13692 13705 267
13692 13707 288
13693 13688 134
13693 13691 18
13693 13695 58
13693 13697 97
13694 13684 168
13694 13709 340
13694 13718 412
13695 13693 58
13695 6016 105
13695 6021 311
13696 5989 110
13696 13691 110
13696 13698 61
13697 13693 97
13697 13700 69
13698 13696 61
13698 13704 138
13699 13686 306
13699 13701 172
13699 13702 88
13700 13697 69
13700 6008 209
13700 6013 209
13700 6022 209
13701 13690 302
13701 13699 172
13701 13703 69
13702 13699 88
13702 13710 96
13703 13701 69
13703 13711 111
13704 13698 138
13704 5985 235
13704 6030 14
13705 13692 267
13705 13708 46
13705 13736 127
13706 13686 431
13706 13710 47
13707 13692 288
13707 13712 51
13708 13705 46
13708 13712 32
13709 13694 340
13709 13713 41
13709 13739 131
13710 13702 96
13710 13706 47
13710 13714 13
13710 13715 16
13711 13690 481
13711 13703 111
13711 13714 14
13711 13719 17
13712 13707 51
13712 13708 32
13712 13715 13
13712 13723 17
13713 13709 41
13713 13718 45
13714 13711 14
13714 13710 13
13714 13716 6
13714 13717 6
13715 13710 16
13715 13712 13
13715 13716 3
13715 13720 5
13716 13714 6
13716 13715 3
13716 13717 7
13716 13720 6
13717 13714 6
13717 13716 7
13717 13719 3
13717 13721 5
13718 13713 45
13718 13694 412
13718 13719 5
13718 13722 8
13719 13718 5
13719 13711 17
13719 13717 3
13719 13721 4
13720 13716 6
13720 13715 5
13720 13723 7
13720 13725 13
13721 13719 4
13721 13717 5
13721 13722 1
13721 13724 3
13722 13718 8
13722 13721 1
13722 13724 2
13722 13734 21
13723 13720 7
13723 13712 17
13723 13725 8
13723 13726 17
13724 13722 2
13724 13721 3
13724 13727 17
13724 13731 15
13725 13720 13
13725 13723 8
13725 13727 5
13725 13728 5
13726 13723 17
13726 13728 13
13726 13733 36
13726 13745 417
13727 13724 17
13727 13725 5
13727 13729 1
13727 13730 1
13728 13725 5
13728 13726 13
13728 13729 3
13728 13732 5
13729 13727 1
13729 13728 3
13729 13730 1
13729 13732 6
13730 13727 1
13730 13729 1
13730 13731 9
13730 13735 20
13731 13724 15
13731 13730 9
13731 13734 12
13731 13735 18
13732 13729 6
13732 13728 5
13732 13743 178
13732 13746 423
13733 13726 36
13733 13736 39
13734 13722 21
13734 13731 12
13734 13737 45
13734 13738 71
13735 13731 18
13735 13730 20
13735 13740 61
13735 13742 79
13736 13733 39
13736 13705 127
13736 13745 351
13737 13734 45
13737 13739 44
13738 13734 71
13738 13747 336
13739 13709 131
13739 13737 44
13739 13747 328
13740 13735 61
13740 13748 370
13741 6015 212
13741 6032 212
13741 13688 551
13742 13735 79
13742 13744 88
13743 13732 178
13743 13744 170
13743 13746 251
13744 13742 88
13744 13743 170
13744 13748 269
13745 13726 417
13745 13736 351
13745 6084 675
13746 13743 251
13746 13732 423
13746 6097 662
13747 13739 328
13747 13738 336
13747 13750 1908
13748 13740 370
13748 13744 269
13748 13754 1797
13749 6094 501
13749 13750 998
13749 13751 363
13750 13749 998
13750 6104 424
13750 13747 1908
13751 6183 1293
13751 13753 1293
13751 13749 363
13751 13755 216
13752 13753 482
13752 6127 362
13752 13754 978
13753 6183 1293
13753 13751 1293
13753 13752 482
13753 13756 370
13754 13752 978
13754 6135 530
13754 13748 1797
13755 13751 216
13755 13762 835
13755 13764 960
13756 13753 370
13756 13761 614
13756 6294 617
13757 6157 127
13757 13758 77
13757 6212 196
13758 13757 77
13759 13760 30
13760 13759 30
13761 13756 614
13761 13765 203
13761 13766 217
13762 6284 203
13762 13755 835
13762 13763 112
13763 13762 112
13764 13755 960
13765 13761 203
13766 13761 217
13767 6257 237
13768 6558 66
13769 6618 75
13770 6619 76
13771 7029 49
13771 13776 326
13771 13779 487
13772 7001 157
13772 13773 168
13772 7117 195
13773 13772 168
13773 13778 223
13774 7051 149
13774 7106 324
13774 7169 515
13775 7052 192
13775 7109 194
13775 7172 472
13776 13771 326
13776 13777 67
13777 13776 67
13777 13778 54
13777 13779 149
13777 13780 140
13778 13773 223
13778 13777 54
13778 7135 12
13778 13782 140
13779 13777 149
13779 13771 487
13779 7178 252
13780 13777 140
13780 13781 130
13780 13784 14
13781 13780 130
13781 13786 150
13782 13778 140
13782 13783 20
13782 13787 54
13782 7196 457
13783 13782 20
13783 13784 15
13783 13785 15
13784 13783 15
13784 13780 14
13784 13785 1
13784 13786 65
13785 13783 15
13785 13784 1
13785 13789 49
13785 13796 487
13786 13784 65
13786 13781 150
13787 13782 54
13787 13788 84
13787 13789 29
13787 13792 76
13788 7134 38
13788 13787 84
13788 7156 51
13788 13791 56
13789 13787 29
13789 13785 49
13789 13790 54
13789 13793 73
13790 13789 54
13790 13794 154
13791 7158 97
13791 13788 56
13791 13798 336
13792 13787 76
13792 13798 295
13793 13789 73
13793 13797 207
13794 13790 154
13794 7149 72
13794 13795 109
13795 7170 55
13795 13794 109
13795 13801 3877
13796 13785 487
13796 7179 92
13796 13800 3734
13797 13793 207
13797 7171 376
13797 7306 179
13798 13791 336
13798 13792 295
13798 7311 91
13799 7343 150
13799 7405 495
13800 13796 3734
13800 7708 1629
13801 13795 3877
13801 7738 1977
13801 13802 1977
13802 7738 1977
13802 13801 1977
13802 7640 556
13802 13803 162
13803 7755 257
13803 13802 162
13803 13805 111
13804 7758 370
13804 7853 190
13804 7910 398
13805 13803 111
13805 13807 336
13806 7895 181
13806 13811 218
13807 13805 336
13807 13809 90
13808 7406 2521
13808 13813 250
13808 13843 630
13809 13807 90
13809 13812 123
13809 13817 376
13810 7403 2730
13810 13811 917
13810 13816 306
13811 13806 218
13811 13810 917
13811 13818 282
13812 13809 123
13812 13815 191
13813 13808 250
13813 13814 162
13814 8018 61
13814 13813 162
13814 13820 146
13814 13834 190
13815 13812 191
13815 13825 129
13816 13810 306
13816 8014 158
13816 13819 197
13816 13824 184
13817 13809 376
13817 13821 94
13817 13825 106
13818 13811 282
13818 13819 213
13818 13822 129
13819 13816 197
13819 13818 213
13820 13814 146
13820 13831 171
13820 13837 158
13821 13817 94
13821 13827 117
13821 13828 106
13822 13818 129
13822 13823 195
13822 13826 49
13823 13822 195
13823 13824 217
13824 13823 217
13824 13816 184
13824 13829 39
13825 13815 129
13825 13817 106
13825 13828 13
13825 13830 16
13826 13822 49
13826 13829 27
13827 13821 117
13827 13832 31
13828 13825 13
13828 13821 106
13828 13835 20
13828 13844 103
13829 13826 27
13829 13824 39
13829 13831 12
13829 13832 16
13830 13825 16
13830 13856 286
13831 13829 12
13831 13820 171
13831 13833 16
13831 13836 30
13832 13827 31
13832 13829 16
13832 13833 12
13832 13842 132
13833 13832 12
13833 13831 16
13833 13838 32
13833 13839 30
13834 13814 190
13834 13845 78
13835 13828 20
13835 13844 131
13836 13831 30
13836 13840 72
13837 13820 158
13837 13840 143
13838 13833 32
13838 13841 59
13839 13833 30
13839 13847 138
13839 13854 250
13840 13836 72
13840 13837 143
13840 13848 98
13841 13838 59
13841 13850 108
13841 13854 153
13842 13832 132
13842 13844 33
13842 13846 32
13843 13808 630
13843 13845 12
13844 13828 103
13844 13842 33
13844 13846 6
13844 13835 131
13845 13834 78
13845 13843 12
13845 13848 22
13845 13853 60
13846 13844 6
13846 13842 32
13846 13847 15
13846 13856 255
13847 13846 15
13847 13839 138
13847 13849 10
13847 13852 43
13848 13840 98
13848 13845 22
13848 13851 12
13848 13853 59
13849 13847 10
13849 13852 46
13849 13855 167
13849 13851 359
13850 13841 108
13850 13851 6
13850 13855 181
13851 13850 6
13851 13848 12
13851 13849 359
13851 8253 227
13852 13847 43
13852 13849 46
13852 13857 3522
13853 13848 59
13853 13845 60
13853 8249 164
13854 13841 153
13854 13839 250
13855 13849 167
13855 13850 181
13856 13830 286
13856 13846 255
13856 13858 3478
13857 13852 3522
13857 8580 591
13857 13859 525
13858 13856 3478
13858 8572 527
13858 13860 518
13859 13857 525
13859 8583 563
13859 8775 3517
13860 8573 651
13860 13858 518
13860 8769 3308
13861 9657 243
13861 9673 243
13861 9633 15
13862 11984 117
13862 13863 117
13863 11984 117
13863 13862 117
13864 12114 104
13864 12108 65
13864 13866 235
13865 12109 42
13865 12118 109
13865 13867 249
13866 13864 235
13866 12115 113
13866 12122 49
13867 13865 249
13867 12119 60
13867 12123 106
13868 12590 64
13869 12594 61
13870 12654 126
13870 12658 294
13870 12650 286
13871 12696 193
13871 12708 200
13871 13873 57
13872 12695 229
13872 12709 270
13872 12721 273
13873 13871 57
13873 12712 194
13873 12716 251
13874 12778 59
13875 12779 58
13876 12905 1466
13876 12910 1466
13876 12900 196
13877 13293 321
13877 13315 347
13877 13338 442
13878 13297 329
13878 13317 228
13878 13879 88
13879 13878 88
13879 13328 220
13879 13331 347
13880 13366 149
13881 13367 147
13882 1558 1486
13883 1557 1517
13884 13885 947
13884 2411 388
13884 3173 1783
13885 13884 947
13886 13887 1267
13887 13886 1267
13887 2317 138
13887 2985 1455
13888 3537 24
13889 3863 260
13889 3901 120
13890 3872 234
13890 13891 33
13891 13890 33
13891 3911 95
13891 3976 213
13892 13893 25348
13893 13892 25348
